Job ID:        404040
Host:          daisg111
Start time:    Wed Aug  5 03:51:39 PM CEST 2026
Working dir:   /dais/fs/scratch/kshao/wd/White-Dwarf-Codes/unforced/dais
MPI tasks:     1
CPUs/task:     12
Visible GPU:   0
LAMMPS:        /u/kshao/software/lammps-gpu-cuda12-install/bin/lmp
Input:         unforcedvel_v9.5e+05_c2.in
Currently Loaded Modulefiles:
 1) gcc/14   2) cuda/12.8   3) openmpi/5.0  
name, uuid, driver_version, memory.total [MiB]
NVIDIA H200, GPU-3377cbee-7c33-5414-ff3f-37278e51825f, 580.173.02, 143771 MiB
LAMMPS (22 Jul 2025 - Update 4)
  using 1 OpenMP thread(s) per MPI task
Created orthogonal box = (0 0 0) to (2.5958006e-05 2.5958006e-05 2.5958006e-05)
  1 by 1 by 1 MPI processor grid
Created 100000 atoms
  using lattice units in orthogonal box = (0 0 0) to (2.5958006e-05 2.5958006e-05 2.5958006e-05)
  create_atoms CPU = 113.521 seconds
Created 1000 atoms
  using lattice units in orthogonal box = (0 0 0) to (2.5958006e-05 2.5958006e-05 2.5958006e-05)
  create_atoms CPU = 2.218 seconds
1000 atoms in group Si
100000 atoms in group H

CITE-CITE-CITE-CITE-CITE-CITE-CITE-CITE-CITE-CITE-CITE-CITE-CITE

Your simulation uses code contributions which should be cited:
- GPU package (short-range, long-range and three-body potentials): doi:10.1016/j.cpc.2010.12.021, doi:10.1016/j.cpc.2011.10.012, doi:10.1016/j.cpc.2013.08.002, doi:10.1016/j.commatsci.2014.10.068, doi:10.1016/j.cpc.2016.10.020, doi:10.3233/APC200086
The log file lists these citations in BibTeX format.

CITE-CITE-CITE-CITE-CITE-CITE-CITE-CITE-CITE-CITE-CITE-CITE-CITE


--------------------------------------------------------------------------
- Using acceleration for yukawa:
-  with 1 proc(s) per device.
-  with 1 thread(s) per proc.
-  Horizontal vector operations: ENABLED
-  Shared memory system: No
--------------------------------------------------------------------------
Device 0: NVIDIA H200, 132 CUs, 1.4e+02/1.4e+02 GB, 2 GHZ (Mixed Precision)
--------------------------------------------------------------------------

Initializing Device and compiling on process 0...Done.
Initializing Device 0 on core 0...Done.

Generated 0 of 1 mixed pair_coeff terms from geometric mixing rule
Neighbor list info ...
  update: every = 1 steps, delay = 0 steps, check = yes
  max neighbors/atom: 10000, page size: 100000
  master list distance cutoff = 6.4137883e-06
  ghost atom cutoff = 6.4137883e-06
  binsize = 3.2068942e-06, bins = 9 9 9
  1 neighbor lists, perpetual/occasional/extra = 1 0 0
  (1) pair yukawa/gpu, perpetual
      attributes: full, newton on
      pair build: full/bin/atomonly
      stencil: full/bin/3d
      bin: standard
Setting up Verlet run ...
  Unit style    : cgs
  Current step  : 0
  Time step     : 2.70703939797783e-16
Per MPI rank memory allocation (min/avg/max) = 2678 | 2678 | 2678 Mbytes
   Step          Time           Temp         c_tempH        c_tempSi        TotEng         PotEng         KinEng         Press           v_k0           v_dt        v_collfreq       v_ccs     
         0   0              100000         99997.834      100316.89      3.2893843e-06  1.1977196e-06  2.0916646e-06  1.2739277e+08  623656.38      2.7070394e-16  2.5607871e+11  6.24354e-15  
      1000   2.7070394e-13  100085.02      100079.74      100713.24      3.285207e-06   1.1917641e-06  2.0934429e-06  1.27317e+08    623656.38      2.7070394e-16  2.5607871e+11  6.24354e-15  
      2000   5.4140788e-13  99871.897      99865.628      100599.4       3.279083e-06   1.1900978e-06  2.0889852e-06  1.2710121e+08  623656.38      2.7070394e-16  2.5607871e+11  6.24354e-15  
Loop time of 48.6467 on 1 procs for 2000 steps with 101000 atoms

99.5% CPU use with 1 MPI tasks x 1 OpenMP threads

MPI task timing breakdown:
Section |  min time  |  avg time  |  max time  |%varavg| %total
---------------------------------------------------------------
Pair    | 8.0212     | 8.0212     | 8.0212     |   0.0 | 16.49
Neigh   | 36.334     | 36.334     | 36.334     |   0.0 | 74.69
Comm    | 1.6945     | 1.6945     | 1.6945     |   0.0 |  3.48
Output  | 0.016714   | 0.016714   | 0.016714   |   0.0 |  0.03
Modify  | 1.7941     | 1.7941     | 1.7941     |   0.0 |  3.69
Other   |            | 0.7863     |            |       |  1.62

Nlocal:         101000 ave      101000 max      101000 min
Histogram: 1 0 0 0 0 0 0 0 0 0
Nghost:         235980 ave      235980 max      235980 min
Histogram: 1 0 0 0 0 0 0 0 0 0
Neighs:              0 ave           0 max           0 min
Histogram: 1 0 0 0 0 0 0 0 0 0
FullNghs:  6.44535e+08 ave 6.44535e+08 max 6.44535e+08 min
Histogram: 1 0 0 0 0 0 0 0 0 0

Total # of neighbors = 6.4453489e+08
Ave neighs/atom = 6381.5336
Neighbor list builds = 4
Dangerous builds = 0


---------------------------------------------------------------------
      Device Time Info (average): 
---------------------------------------------------------------------
Data Transfer:   0.3241 s.
Neighbor copy:   2.1393 s.
Neighbor unpack: 0.0000 s.
Force calc:      5.7263 s.
Device Overhead: 0.0720 s.
CPU Cast/Pack:   1.0046 s.
CPU Driver_Time: 0.0254 s.
CPU Idle_Time:   5.2109 s.
Average split:   1.0000.
Max Mem / Proc:  3097.52 MB.
Prefetch mode:   None.
Vector width:    32.
Lanes / atom:    4.
Pair block:      256.
Neigh block:     128.
Neigh mode:      Host.
---------------------------------------------------------------------


--------------------------------------------------------------------------
- Using acceleration for yukawa:
-  with 1 proc(s) per device.
-  with 1 thread(s) per proc.
-  Horizontal vector operations: ENABLED
-  Shared memory system: No
--------------------------------------------------------------------------
Device 0: NVIDIA H200, 132 CUs, 1.4e+02/1.4e+02 GB, 2 GHZ (Mixed Precision)
--------------------------------------------------------------------------

Initializing Device and compiling on process 0...Done.
Initializing Device 0 on core 0...Done.

Generated 0 of 1 mixed pair_coeff terms from geometric mixing rule
Setting up Verlet run ...
  Unit style    : cgs
  Current step  : 2000
  Time step     : 2.70703939797783e-16
Per MPI rank memory allocation (min/avg/max) = 2686 | 2686 | 2686 Mbytes
   Step          Time           Temp         c_tempH        c_tempSi        TotEng         PotEng         KinEng         Press     
      2000   5.4140788e-13  100932.77      99865.628      207853.95      3.3012729e-06  1.1900978e-06  2.1111751e-06  1.2794698e+08
      3000   8.1211182e-13  100925.07      99867.836      206854.71      3.3012259e-06  1.1902118e-06  2.1110141e-06  1.279413e+08 
      4000   1.0828158e-12  100928.79      99874.354      206577.85      3.3012605e-06  1.1901687e-06  2.1110918e-06  1.2794483e+08
      5000   1.3535197e-12  100923.7       99872.894      206209.54      3.3012111e-06  1.1902258e-06  2.1109854e-06  1.279402e+08 
      6000   1.6242236e-12  100939.65      99892.111      205897.97      3.3012414e-06  1.1899226e-06  2.1113189e-06  1.2794753e+08
      7000   1.8949276e-12  100908.97      99875.36       204473.45      3.3012531e-06  1.1905758e-06  2.1106773e-06  1.2793856e+08
      8000   2.1656315e-12  100898.26      99871.285      203798.3       3.3012556e-06  1.1908024e-06  2.1104532e-06  1.2793422e+08
      9000   2.4363355e-12  100906.09      99892.88       202428.18      3.3012648e-06  1.1906479e-06  2.1106169e-06  1.2793827e+08
     10000   2.7070394e-12  100912.96      99919.14       200494.79      3.3012277e-06  1.1904669e-06  2.1107608e-06  1.2793587e+08
     11000   2.9777433e-12  100921.52      99929.726      200300.18      3.3012024e-06  1.1902626e-06  2.1109397e-06  1.2793908e+08
     12000   3.2484473e-12  100927.58      99948.691      199014.95      3.3012358e-06  1.1901692e-06  2.1110666e-06  1.2794265e+08
     13000   3.5191512e-12  100921.69      99951.066      198181.07      3.3012195e-06  1.1902762e-06  2.1109433e-06  1.2793685e+08
     14000   3.7898552e-12  100931.47      99966.314      197644.16      3.3011866e-06  1.1900386e-06  2.111148e-06   1.2793824e+08
     15000   4.0605591e-12  100946.66      99980.482      197760.96      3.3011519e-06  1.1896864e-06  2.1114655e-06  1.2794191e+08
     16000   4.331263e-12   100938.67      99985.88       196412.77      3.3011825e-06  1.1898841e-06  2.1112984e-06  1.2794233e+08
     17000   4.601967e-12   100925.04      99988.628      194759.55      3.3011992e-06  1.1901859e-06  2.1110133e-06  1.2794027e+08
     18000   4.8726709e-12  100929.47      100004.44      193624.99      3.3012228e-06  1.1901169e-06  2.111106e-06   1.2794282e+08
     19000   5.1433749e-12  100927.41      100008.41      193019.68      3.3012523e-06  1.1901894e-06  2.1110629e-06  1.2794256e+08
     20000   5.4140788e-12  100926.38      100015.21      192235.54      3.3012249e-06  1.1901834e-06  2.1110415e-06  1.2793999e+08
     21000   5.6847827e-12  100914.38      100008.13      191730.67      3.3012736e-06  1.1904831e-06  2.1107905e-06  1.2794054e+08
     22000   5.9554867e-12  100933.07      100035.74      190855.98      3.3013069e-06  1.1901256e-06  2.1111812e-06  1.2794913e+08
     23000   6.2261906e-12  100917.23      100027.38      190091.98      3.3012676e-06  1.1904175e-06  2.1108501e-06  1.2794044e+08
     24000   6.4968946e-12  100930.51      100046.63      189507.2       3.3012092e-06  1.1900813e-06  2.1111279e-06  1.2794222e+08
     25000   6.7675985e-12  100926.12      100047.32      188994.43      3.3012748e-06  1.1902388e-06  2.1110361e-06  1.279443e+08 
     26000   7.0383024e-12  100929.33      100060.48      188001.12      3.3012191e-06  1.190116e-06   2.111103e-06   1.2794237e+08
     27000   7.3090064e-12  100918.59      100052.97      187667.13      3.3012353e-06  1.1903568e-06  2.1108785e-06  1.2793995e+08
     28000   7.5797103e-12  100899.63      100045.05      186544.12      3.301191e-06   1.190709e-06   2.110482e-06   1.2793044e+08
     29000   7.8504143e-12  100933.46      100085.21      185944.46      3.3012032e-06  1.1900136e-06  2.1111896e-06  1.2794189e+08
     30000   8.1211182e-12  100924.38      100083.89      185157.74      3.3012324e-06  1.1902329e-06  2.1109996e-06  1.2794142e+08
     31000   8.3918221e-12  100928.14      100093.35      184591.5       3.3011736e-06  1.1900953e-06  2.1110783e-06  1.2793909e+08
     32000   8.6625261e-12  100927.86      100099.72      183925.23      3.3012452e-06  1.1901729e-06  2.1110724e-06  1.2794328e+08
     33000   8.93323e-12    100902.43      100089.09      182418.89      3.3012702e-06  1.1907297e-06  2.1105405e-06  1.2793736e+08
     34000   9.203934e-12   100921.52      100117.23      181531.54      3.3012583e-06  1.1903184e-06  2.1109398e-06  1.2794311e+08
     35000   9.4746379e-12  100919.58      100118         181258.72      3.3012521e-06  1.1903529e-06  2.1108992e-06  1.2793974e+08
     36000   9.7453418e-12  100920.46      100129.12      180233.48      3.3012193e-06  1.1903018e-06  2.1109175e-06  1.2793961e+08
     37000   1.0016046e-11  100913.68      100122.44      180217.24      3.3011979e-06  1.1904221e-06  2.1107758e-06  1.2793541e+08
     38000   1.028675e-11   100934.43      100145.89      179967.1       3.301223e-06   1.1900133e-06  2.1112097e-06  1.2794378e+08
     39000   1.0557454e-11  100920.73      100143.04      178867.54      3.3012316e-06  1.1903084e-06  2.1109233e-06  1.2793988e+08
     40000   1.0828158e-11  100914.31      100138.85      178637.52      3.3012716e-06  1.1904827e-06  2.1107889e-06  1.2794193e+08
     41000   1.1098862e-11  100894.35      100126.03      177903.12      3.3012769e-06  1.1909055e-06  2.1103714e-06  1.2793385e+08
     42000   1.1369565e-11  100944.27      100182.33      177315.11      3.3012691e-06  1.1898534e-06  2.1114157e-06  1.279506e+08 
     43000   1.1640269e-11  100910.53      100156.15      176524.52      3.3012162e-06  1.1905063e-06  2.1107099e-06  1.279354e+08 
     44000   1.1910973e-11  100918.01      100176.83      175211.12      3.3012355e-06  1.1903691e-06  2.1108664e-06  1.2794051e+08
     45000   1.2181677e-11  100922.05      100186.09      174691.72      3.3012656e-06  1.1903148e-06  2.1109508e-06  1.2794101e+08
     46000   1.2452381e-11  100926.78      100198.88      173889.89      3.3012613e-06  1.1902116e-06  2.1110497e-06  1.2794382e+08
     47000   1.2723085e-11  100924.08      100209.16      172587.8       3.3012533e-06  1.1902599e-06  2.1109934e-06  1.2794271e+08
     48000   1.2993789e-11  100925.17      100208.96      172718.1       3.3012077e-06  1.1901916e-06  2.1110162e-06  1.2794089e+08
     49000   1.3264493e-11  100909.25      100193.1       172696.22      3.3012904e-06  1.1906072e-06  2.1106831e-06  1.2793976e+08
     50000   1.3535197e-11  100893         100186.78      171686.42      3.3012689e-06  1.1909257e-06  2.1103432e-06  1.2793287e+08
     51000   1.3805901e-11  100913.49      100212.23      171209.87      3.301244e-06   1.1904722e-06  2.1107717e-06  1.2793796e+08
     52000   1.4076605e-11  100919.05      100225.17      170477.16      3.3012805e-06  1.1903924e-06  2.1108881e-06  1.2794294e+08
     53000   1.4347309e-11  100909.92      100223.64      169706.95      3.3012633e-06  1.1905663e-06  2.1106971e-06  1.2793956e+08
     54000   1.4618013e-11  100899.57      100221.84      168840.25      3.3012896e-06  1.1908089e-06  2.1104806e-06  1.2793782e+08
     55000   1.4888717e-11  100934.31      100268.84      167647.67      3.301269e-06   1.1900618e-06  2.1112073e-06  1.279469e+08 
     56000   1.5159421e-11  100937.66      100278.23      167047.2       3.3012596e-06  1.1899823e-06  2.1112774e-06  1.2794723e+08
     57000   1.5430125e-11  100934.09      100279.01      166607.65      3.3012404e-06  1.1900378e-06  2.1112026e-06  1.2794498e+08
     58000   1.5700829e-11  100924.42      100278.87      165644.45      3.3011952e-06  1.1901948e-06  2.1110004e-06  1.2793961e+08
     59000   1.5971532e-11  100944.35      100306.79      164864.81      3.3012037e-06  1.1897864e-06  2.1114173e-06  1.2794553e+08
     60000   1.6242236e-11  100931.96      100306.18      163672.43      3.3012198e-06  1.1900618e-06  2.111158e-06   1.2794034e+08
     61000   1.651294e-11   100930.65      100319.67      162190.2       3.3012254e-06  1.1900948e-06  2.1111307e-06  1.2794173e+08
     62000   1.6783644e-11  100931.25      100325.32      161684.82      3.301245e-06   1.1901018e-06  2.1111432e-06  1.2794434e+08
     63000   1.7054348e-11  100906.45      100312.19      160491.87      3.3012288e-06  1.1906043e-06  2.1106245e-06  1.2793419e+08
     64000   1.7325052e-11  100926.26      100345.55      159155.53      3.3012555e-06  1.1902167e-06  2.1110388e-06  1.2794409e+08
     65000   1.7595756e-11  100924.56      100347.45      158793.53      3.301258e-06   1.1902546e-06  2.1110033e-06  1.2794363e+08
     66000   1.786646e-11   100937.51      100360.14      158832.72      3.3012203e-06  1.1899461e-06  2.1112742e-06  1.2794523e+08
     67000   1.8137164e-11  100933.96      100368.27      157660.44      3.3012049e-06  1.1900049e-06  2.1112e-06     1.2794151e+08
     68000   1.8407868e-11  100947.13      100389.79      156837.39      3.3011809e-06  1.1897056e-06  2.1114753e-06  1.2794473e+08
     69000   1.8678572e-11  100946.42      100393         156443.7       3.3012362e-06  1.1897757e-06  2.1114605e-06  1.2794837e+08
     70000   1.8949276e-11  100903.34      100349.59      156433.5       3.3012725e-06  1.1907131e-06  2.1105594e-06  1.2793686e+08
     71000   1.921998e-11   100939.53      100390.69      155978.81      3.3012463e-06  1.1899298e-06  2.1113165e-06  1.2794863e+08
     72000   1.9490684e-11  100919.68      100378.89      155153.95      3.3011974e-06  1.190296e-06   2.1109013e-06  1.2793714e+08
     73000   1.9761388e-11  100911.18      100375.29      154653.75      3.3012147e-06  1.1904913e-06  2.1107234e-06  1.2793595e+08
     74000   2.0032092e-11  100909.04      100380.34      153932.8       3.3012776e-06  1.1905988e-06  2.1106788e-06  1.2794019e+08
     75000   2.0302795e-11  100914.25      100391.59      153333.05      3.3012371e-06  1.1904495e-06  2.1107876e-06  1.279392e+08 
     76000   2.0573499e-11  100932.67      100415.56      152796.48      3.3012229e-06  1.1900499e-06  2.111173e-06   1.2794369e+08
     77000   2.0844203e-11  100928.55      100412.46      152689.76      3.3012396e-06  1.1901529e-06  2.1110867e-06  1.2794235e+08
     78000   2.1114907e-11  100934.35      100423.86      152134.63      3.3012285e-06  1.1900205e-06  2.1112081e-06  1.2794487e+08
     79000   2.1385611e-11  100915.21      100408.46      151741.71      3.3011744e-06  1.1903666e-06  2.1108077e-06  1.2793537e+08
     80000   2.1656315e-11  100912.98      100411.81      151180.39      3.3012403e-06  1.1904792e-06  2.1107611e-06  1.2793809e+08
     81000   2.1927019e-11  100911.4       100411.28      151074.65      3.301281e-06   1.1905528e-06  2.1107282e-06  1.2794192e+08
     82000   2.2197723e-11  100909.68      100411.8       150847.84      3.3012572e-06  1.190565e-06   2.1106922e-06  1.2793951e+08
     83000   2.2468427e-11  100929.71      100431.87      150864.62      3.3012529e-06  1.1901418e-06  2.1111111e-06  1.2794577e+08
     84000   2.2739131e-11  100917.41      100427.94      150013.59      3.3012351e-06  1.1903813e-06  2.1108538e-06  1.2793967e+08
     85000   2.3009835e-11  100914.26      100420.5       150440.81      3.3012204e-06  1.1904324e-06  2.110788e-06   1.2793694e+08
     86000   2.3280539e-11  100925.8       100438.11      149843.26      3.3012375e-06  1.1902083e-06  2.1110292e-06  1.2794317e+08
     87000   2.3551243e-11  100898.45      100409.5       149943.15      3.3012627e-06  1.1908055e-06  2.1104572e-06  1.2793582e+08
     88000   2.3821947e-11  100918.75      100443.36      148605.85      3.3013037e-06  1.1904218e-06  2.1108819e-06  1.2794611e+08
     89000   2.4092651e-11  100912.52      100443.94      147918.36      3.3012363e-06  1.1904847e-06  2.1107515e-06  1.2793868e+08
     90000   2.4363355e-11  100913.74      100442.98      148136.47      3.3012425e-06  1.1904656e-06  2.1107769e-06  1.2794044e+08
     91000   2.4634059e-11  100925.55      100450.72      148556.81      3.3011946e-06  1.1901705e-06  2.1110241e-06  1.2794017e+08
     92000   2.4904762e-11  100921.06      100448.56      148318.75      3.3012613e-06  1.1903312e-06  2.1109302e-06  1.2794291e+08
     93000   2.5175466e-11  100914.06      100450.28      147439.51      3.3011953e-06  1.1904115e-06  2.1107838e-06  1.2793625e+08
     94000   2.544617e-11   100937.61      100475.58      147287.36      3.3012083e-06  1.1899321e-06  2.1112763e-06  1.2794391e+08
     95000   2.5716874e-11  100916.75      100455.88      147150.35      3.3011989e-06  1.190359e-06   2.1108399e-06  1.2793634e+08
     96000   2.5987578e-11  100917.05      100460.25      146743.18      3.3012004e-06  1.1903542e-06  2.1108462e-06  1.2793696e+08
     97000   2.6258282e-11  100928.56      100477.05      146225.17      3.3011664e-06  1.1900793e-06  2.1110871e-06  1.2793847e+08
     98000   2.6528986e-11  100910.33      100465.5       145538.34      3.3012761e-06  1.1905705e-06  2.1107056e-06  1.2794006e+08
     99000   2.679969e-11   100907.4       100465.9       145202.31      3.3012257e-06  1.1905813e-06  2.1106444e-06  1.2793521e+08
    100000   2.7070394e-11  100919.99      100480.44      145018.87      3.3012256e-06  1.190318e-06   2.1109077e-06  1.2794045e+08
    101000   2.7341098e-11  100904.95      100467.11      144833.14      3.3012205e-06  1.1906274e-06  2.1105931e-06  1.2793544e+08
    102000   2.7611802e-11  100932.04      100497.91      144489.11      3.301193e-06   1.1900331e-06  2.1111599e-06  1.2794117e+08
    103000   2.7882506e-11  100944.83      100512.44      144327.33      3.3012268e-06  1.1897996e-06  2.1114272e-06  1.2794854e+08
    104000   2.815321e-11   100923.49      100493.55      144061.66      3.3012293e-06  1.1902483e-06  2.110981e-06   1.2794116e+08
    105000   2.8423914e-11  100916.4       100488.98      143801.71      3.3012693e-06  1.1904366e-06  2.1108327e-06  1.2794161e+08
    106000   2.8694618e-11  100931.84      100509.63      143295.25      3.3012007e-06  1.1900451e-06  2.1111556e-06  1.2794137e+08
    107000   2.8965322e-11  100926.69      100505.12      143226.94      3.3012275e-06  1.1901796e-06  2.1110479e-06  1.2794128e+08
    108000   2.9236025e-11  100926.46      100504.9       143225.76      3.3012265e-06  1.1901834e-06  2.1110431e-06  1.2794272e+08
    109000   2.9506729e-11  100913.7       100501.21      142304.63      3.301204e-06   1.1904279e-06  2.1107761e-06  1.2793687e+08
    110000   2.9777433e-11  100916.19      100500.88      142589.14      3.3012036e-06  1.1903754e-06  2.1108283e-06  1.2793759e+08
    111000   3.0048137e-11  100923.87      100510.04      142448.92      3.3012467e-06  1.1902578e-06  2.110989e-06   1.2794383e+08
    112000   3.0318841e-11  100904.54      100499.05      141594.38      3.3012735e-06  1.190689e-06   2.1105845e-06  1.2793863e+08
    113000   3.0589545e-11  100903.55      100506.61      140737.57      3.3012476e-06  1.1906838e-06  2.1105638e-06  1.2793573e+08
    114000   3.0860249e-11  100897.42      100509.34      139845.13      3.3011923e-06  1.1907566e-06  2.1104356e-06  1.2792961e+08
    115000   3.1130953e-11  100904.5       100526.49      138843.7       3.3012485e-06  1.1906648e-06  2.1105837e-06  1.2793712e+08
    116000   3.1401657e-11  100903.99      100528.68      138573.49      3.3012329e-06  1.1906598e-06  2.1105731e-06  1.2793625e+08
    117000   3.1672361e-11  100913.46      100544.46      137951.65      3.3012264e-06  1.1904552e-06  2.1107712e-06  1.2793857e+08
    118000   3.1943065e-11  100924.13      100560.31      137443.99      3.3012739e-06  1.1902795e-06  2.1109944e-06  1.2794414e+08
    119000   3.2213769e-11  100924.06      100565.01      136965.95      3.3012735e-06  1.1902806e-06  2.1109929e-06  1.279451e+08 
    120000   3.2484473e-11  100927.55      100573.23      136495.16      3.3012983e-06  1.1902325e-06  2.1110658e-06  1.2794666e+08
    121000   3.2755177e-11  100910.1       100560.62      135993.22      3.3012355e-06  1.1905346e-06  2.1107009e-06  1.2793728e+08
    122000   3.3025881e-11  100918.78      100579.36      134995.3       3.3012391e-06  1.1903566e-06  2.1108825e-06  1.2794113e+08
    123000   3.3296585e-11  100905.13      100567.95      134757.71      3.3012054e-06  1.1906085e-06  2.1105969e-06  1.2793423e+08
    124000   3.3567289e-11  100924.46      100589.52      134552.63      3.30124e-06    1.1902386e-06  2.1110013e-06  1.2794035e+08
    125000   3.3837992e-11  100939.23      100607.11      134285.35      3.3011962e-06  1.189886e-06   2.1113102e-06  1.279446e+08 
    126000   3.4108696e-11  100912.88      100588.17      133517.21      3.3012676e-06  1.1905085e-06  2.1107591e-06  1.2793981e+08
    127000   3.43794e-11    100905.5       100577.31      133858.13      3.3012071e-06  1.1906025e-06  2.1106046e-06  1.2793245e+08
    128000   3.4650104e-11  100935.59      100609.72      133655.33      3.3011783e-06  1.1899444e-06  2.111234e-06   1.2794128e+08
    129000   3.4920808e-11  100913.41      100590.3       133357.36      3.3012034e-06  1.1904333e-06  2.1107701e-06  1.2793657e+08
    130000   3.5191512e-11  100928.3       100605.75      133316.49      3.3012376e-06  1.190156e-06   2.1110816e-06  1.2794413e+08
    131000   3.5462216e-11  100944.92      100626.56      132912.87      3.3012931e-06  1.1898639e-06  2.1114292e-06  1.2795307e+08
    132000   3.573292e-11   100908.58      100589.63      132936.07      3.3012254e-06  1.1905563e-06  2.110669e-06   1.2793543e+08
    133000   3.6003624e-11  100933.02      100622.04      132163.01      3.3012574e-06  1.190077e-06   2.1111804e-06  1.2794609e+08
    134000   3.6274328e-11  100938.53      100635.38      131385.16      3.3012372e-06  1.1899416e-06  2.1112956e-06  1.2794646e+08
    135000   3.6545032e-11  100930.97      100628.34      131324.65      3.3012253e-06  1.190088e-06   2.1111373e-06  1.2794345e+08
    136000   3.6815736e-11  100911.4       100606.71      131511.21      3.3012507e-06  1.1905226e-06  2.1107281e-06  1.2793748e+08
    137000   3.708644e-11   100909.87      100612.11      130816.62      3.3013066e-06  1.1906105e-06  2.1106961e-06  1.2794153e+08
    138000   3.7357144e-11  100919.36      100627.49      130235.84      3.3013005e-06  1.190406e-06   2.1108945e-06  1.2794616e+08
    139000   3.7627848e-11  100922.3       100636.94      129587.6       3.3011917e-06  1.1902357e-06  2.110956e-06   1.2793832e+08
    140000   3.7898552e-11  100937.97      100657.99      129064.29      3.3012515e-06  1.1899677e-06  2.1112838e-06  1.2794753e+08
    141000   3.8169256e-11  100920.15      100645.68      128495.29      3.3012494e-06  1.1903382e-06  2.1109111e-06  1.2794134e+08
    142000   3.8439959e-11  100919.98      100652.79      127766.28      3.3012908e-06  1.1903833e-06  2.1109076e-06  1.2794433e+08
    143000   3.8710663e-11  100908.68      100644.79      127424.69      3.3012568e-06  1.1905857e-06  2.1106712e-06  1.2793829e+08
    144000   3.8981367e-11  100935.64      100672.62      127364.65      3.3012332e-06  1.1899981e-06  2.1112351e-06  1.2794629e+08
    145000   3.9252071e-11  100927.61      100664.66      127349.91      3.3012458e-06  1.1901787e-06  2.1110672e-06  1.2794314e+08
    146000   3.9522775e-11  100914.08      100649.65      127484.63      3.3011851e-06  1.1904009e-06  2.1107842e-06  1.2793576e+08
    147000   3.9793479e-11  100905.14      100635.96      127950.92      3.3012445e-06  1.1906473e-06  2.1105972e-06  1.2793492e+08
    148000   4.0064183e-11  100939.34      100671.24      127877.03      3.3012353e-06  1.1899229e-06  2.1113125e-06  1.2794765e+08
    149000   4.0334887e-11  100900         100635.07      127521.01      3.3013024e-06  1.1908126e-06  2.1104897e-06  1.2793837e+08
    150000   4.0605591e-11  100895.23      100637.42      126803.07      3.3012926e-06  1.1909028e-06  2.1103898e-06  1.2793583e+08
    151000   4.0876295e-11  100925.64      100677.13      125902.5       3.301214e-06   1.1901881e-06  2.1110259e-06  1.2794145e+08
    152000   4.1146999e-11  100916.92      100673.8       125353.53      3.3012916e-06  1.1904481e-06  2.1108434e-06  1.2794312e+08
    153000   4.1417703e-11  100907.08      100661.35      125604.92      3.301241e-06   1.1906034e-06  2.1106377e-06  1.2793583e+08
    154000   4.1688407e-11  100907.17      100669.29      124819.87      3.3012676e-06  1.1906281e-06  2.1106396e-06  1.2793619e+08
    155000   4.1959111e-11  100902.19      100667.47      124498.45      3.3012252e-06  1.1906897e-06  2.1105354e-06  1.2793345e+08
    156000   4.2229815e-11  100914.82      100681.19      124402.04      3.3012181e-06  1.1904185e-06  2.1107996e-06  1.2793799e+08
    157000   4.2500519e-11  100910.48      100679.74      124108.79      3.3012568e-06  1.1905479e-06  2.1107089e-06  1.2793796e+08
    158000   4.2771222e-11  100935.8       100698.94      124746.5       3.3011974e-06  1.1899589e-06  2.1112385e-06  1.2794252e+08
    159000   4.3041926e-11  100918.21      100683.85      124478.47      3.3012217e-06  1.1903511e-06  2.1108706e-06  1.2793812e+08
    160000   4.331263e-11   100958.86      100730.02      123966.62      3.3011685e-06  1.1894477e-06  2.1117209e-06  1.2794809e+08
    161000   4.3583334e-11  100941.85      100714.36      123814.4       3.301243e-06   1.1898781e-06  2.1113649e-06  1.2794752e+08
    162000   4.3854038e-11  100929.47      100701.99      123800.47      3.3012159e-06  1.1901099e-06  2.111106e-06   1.2794078e+08
    163000   4.4124742e-11  100931.38      100702.72      123921.22      3.3011963e-06  1.1900504e-06  2.1111459e-06  1.279392e+08 
    164000   4.4395446e-11  100951.96      100725.82      123688.96      3.3011382e-06  1.1895618e-06  2.1115764e-06  1.2794294e+08
    165000   4.466615e-11   100924.62      100703.82      123127.45      3.3012441e-06  1.1902395e-06  2.1110045e-06  1.2794289e+08
    166000   4.4936854e-11  100934.8       100712.76      123261.64      3.3013008e-06  1.1900832e-06  2.1112176e-06  1.2795088e+08
    167000   4.5207558e-11  100907.89      100692.18      122601.85      3.3012897e-06  1.1906351e-06  2.1106547e-06  1.2793958e+08
    168000   4.5478262e-11  100932.72      100721.57      122169.78      3.3012355e-06  1.1900615e-06  2.111174e-06   1.279451e+08 
    169000   4.5748966e-11  100938.76      100720.95      122841.65      3.3012366e-06  1.1899363e-06  2.1113003e-06  1.2794534e+08
    170000   4.601967e-11   100945.91      100726.17      123042.51      3.3012291e-06  1.1897792e-06  2.1114499e-06  1.2794937e+08
    171000   4.6290374e-11  100911.22      100691.65      122990.7       3.3012014e-06  1.1904772e-06  2.1107242e-06  1.2793504e+08
    172000   4.6561078e-11  100921         100704.92      122651.38      3.301217e-06   1.1902883e-06  2.1109288e-06  1.2793819e+08
    173000   4.6831782e-11  100925.48      100714.08      122188.08      3.3012409e-06  1.1902182e-06  2.1110227e-06  1.2794112e+08
    174000   4.7102486e-11  100944.36      100739.59      121542.04      3.301263e-06   1.1898456e-06  2.1114175e-06  1.2794959e+08
    175000   4.7373189e-11  100897         100696.02      121116.46      3.3012994e-06  1.1908725e-06  2.1104269e-06  1.2793647e+08
    176000   4.7643893e-11  100929.12      100735.31      120430.33      3.301241e-06   1.1901423e-06  2.1110987e-06  1.2794528e+08
    177000   4.7914597e-11  100927.62      100731.65      120644.94      3.3012394e-06  1.190172e-06   2.1110674e-06  1.2794245e+08
    178000   4.8185301e-11  100903.77      100711.61      120239.25      3.3012944e-06  1.190726e-06   2.1105684e-06  1.2793917e+08
    179000   4.8456005e-11  100916.18      100724.6       120194.32      3.3012914e-06  1.1904633e-06  2.1108281e-06  1.2794471e+08
    180000   4.8726709e-11  100918.82      100731.43      119777.49      3.3012906e-06  1.1904074e-06  2.1108833e-06  1.2794314e+08
    181000   4.8997413e-11  100938.03      100750.58      119803.17      3.3012925e-06  1.1900074e-06  2.1112852e-06  1.2795084e+08
    182000   4.9268117e-11  100935.9       100747.07      119938.23      3.3012208e-06  1.1899803e-06  2.1112405e-06  1.2794423e+08
    183000   4.9538821e-11  100925.92      100736.1       120028.5       3.3012193e-06  1.1901875e-06  2.1110319e-06  1.279396e+08 
    184000   4.9809525e-11  100920.38      100730.12      120066.34      3.3012369e-06  1.190321e-06   2.1109159e-06  1.2793876e+08
    185000   5.0080229e-11  100945.21      100761.76      119409.66      3.3012685e-06  1.1898332e-06  2.1114353e-06  1.2794923e+08
    186000   5.0350933e-11  100933.47      100750.82      119317.72      3.3012653e-06  1.1900756e-06  2.1111897e-06  1.2794597e+08
    187000   5.0621637e-11  100923.53      100739.53      119442.31      3.3013468e-06  1.190365e-06   2.1109818e-06  1.2794623e+08
    188000   5.0892341e-11  100947.69      100762.5       119585.74      3.3013157e-06  1.1898286e-06  2.1114872e-06  1.2795315e+08
    189000   5.1163045e-11  100914.36      100727.06      119764.02      3.3012323e-06  1.1904424e-06  2.1107899e-06  1.2793636e+08
    190000   5.1433749e-11  100915.65      100728.54      119745.9       3.3012618e-06  1.1904448e-06  2.110817e-06   1.2793949e+08
    191000   5.1704453e-11  100921.44      100735.1       119675.09      3.3013125e-06  1.1903744e-06  2.1109381e-06  1.2794404e+08
    192000   5.1975156e-11  100945.98      100754.51      120213.24      3.3012933e-06  1.1898419e-06  2.1114514e-06  1.2795166e+08
    193000   5.224586e-11   100932.81      100737.22      120611.71      3.3012711e-06  1.1900953e-06  2.1111758e-06  1.2794566e+08
    194000   5.2516564e-11  100912.65      100714.54      120844.48      3.3012867e-06  1.1905324e-06  2.1107543e-06  1.2794004e+08
    195000   5.2787268e-11  100949.6       100750.03      121027.04      3.3013077e-06  1.1897806e-06  2.1115271e-06  1.2795316e+08
    196000   5.3057972e-11  100928.98      100732.48      120699.33      3.3012613e-06  1.1901656e-06  2.1110957e-06  1.279425e+08 
    197000   5.3328676e-11  100916.09      100722.38      120407.58      3.301315e-06   1.1904887e-06  2.1108262e-06  1.2794197e+08
    198000   5.359938e-11   100899.24      100711.92      119750.9       3.3012906e-06  1.1908168e-06  2.1104737e-06  1.2793559e+08
    199000   5.3870084e-11  100918.42      100731.68      119711.63      3.3012704e-06  1.1903955e-06  2.1108749e-06  1.2793999e+08
    200000   5.4140788e-11  100935.45      100745.25      120074.85      3.3013031e-06  1.1900721e-06  2.111231e-06   1.2794941e+08
    201000   5.4411492e-11  100919.58      100732.5       119747.06      3.3012568e-06  1.1903576e-06  2.1108991e-06  1.2793874e+08
    202000   5.4682196e-11  100911.18      100718.94      120254.84      3.301253e-06   1.1905296e-06  2.1107234e-06  1.279347e+08 
    203000   5.49529e-11    100918.16      100720.12      120843.36      3.3013073e-06  1.1904377e-06  2.1108696e-06  1.2794109e+08
    204000   5.5223604e-11  100921.33      100724.62      120712.75      3.3013684e-06  1.1904325e-06  2.1109359e-06  1.2794929e+08
    205000   5.5494308e-11  100922.94      100718.92      121446.08      3.3012547e-06  1.1902853e-06  2.1109694e-06  1.279412e+08 
    206000   5.5765012e-11  100928.93      100723.91      121551.65      3.3013043e-06  1.1902096e-06  2.1110947e-06  1.2794447e+08
    207000   5.6035716e-11  100908.13      100701.56      121686.96      3.3014719e-06  1.1908121e-06  2.1106598e-06  1.2794264e+08
    208000   5.6306419e-11  100936.28      100727.4       121945.22      3.3013643e-06  1.1901159e-06  2.1112484e-06  1.279423e+08 
    209000   5.6577123e-11  100941.07      100733.95      121774.68      3.3014577e-06  1.190109e-06   2.1113486e-06  1.2794982e+08
    210000   5.6847827e-11  100918.26      100710.95      121771.13      3.3014493e-06  1.1905777e-06  2.1108716e-06  1.2794406e+08
    211000   5.7118531e-11  100934.79      100724.5       122085.65      3.301519e-06   1.1903017e-06  2.1112173e-06  1.2795453e+08
    212000   5.7389235e-11  100938.46      100729.46      121960.42      3.3014949e-06  1.1902008e-06  2.1112941e-06  1.2795652e+08
    213000   5.7659939e-11  100930.13      100720.94      121971.01      3.3014888e-06  1.1903689e-06  2.1111198e-06  1.2795159e+08
    214000   5.7930643e-11  100926.51      100717.29      121970.28      3.301532e-06   1.1904879e-06  2.111044e-06   1.2795276e+08
    215000   5.8201347e-11  100917.41      100709.94      121785.01      3.3014909e-06  1.1906372e-06  2.1108537e-06  1.2794867e+08
    216000   5.8472051e-11  100923.48      100722.65      121127.07      3.3014446e-06  1.1904639e-06  2.1109807e-06  1.2794594e+08
    217000   5.8742755e-11  100940.33      100750.19      120074.74      3.3015078e-06  1.1901746e-06  2.1113332e-06  1.2795443e+08
    218000   5.9013459e-11  100940.9       100744.81      120670.82      3.301513e-06   1.1901678e-06  2.1113452e-06  1.2795635e+08
    219000   5.9284163e-11  100947.63      100752.88      120542.74      3.3014859e-06  1.1900001e-06  2.1114859e-06  1.2795606e+08
    220000   5.9554867e-11  100925.81      100734.91      120135.53      3.3015062e-06  1.1904768e-06  2.1110294e-06  1.279491e+08 
    221000   5.9825571e-11  100955.3       100767.85      119820.09      3.3015585e-06  1.1899122e-06  2.1116463e-06  1.2796227e+08
    222000   6.0096275e-11  100943.98      100764.65      118995.86      3.3014181e-06  1.1900086e-06  2.1114096e-06  1.2794983e+08
    223000   6.0366979e-11  100938.25      100760.74      118807.55      3.3014283e-06  1.1901386e-06  2.1112896e-06  1.2794736e+08
    224000   6.0637683e-11  100941.12      100762.46      118926.39      3.3014974e-06  1.1901476e-06  2.1113498e-06  1.27953e+08  
    225000   6.0908386e-11  100933.1       100753.74      118987.92      3.3015467e-06  1.1903648e-06  2.1111819e-06  1.2795355e+08
    226000   6.117909e-11   100941.54      100757.07      119508.14      3.3014236e-06  1.1900651e-06  2.1113585e-06  1.2794951e+08
    227000   6.1449794e-11  100925.32      100741.85      119391.71      3.3015173e-06  1.190498e-06   2.1110193e-06  1.2795034e+08
    228000   6.1720498e-11  100934.12      100754.26      119038.61      3.3015947e-06  1.1903914e-06  2.1112032e-06  1.2795948e+08
    229000   6.1991202e-11  100916.68      100733.09      119394.79      3.3014876e-06  1.1906491e-06  2.1108385e-06  1.279447e+08 
    230000   6.2261906e-11  100950.49      100764.45      119674.73      3.3014563e-06  1.1899106e-06  2.1115458e-06  1.2795542e+08
    231000   6.253261e-11   100933.87      100750.22      119418.58      3.3014871e-06  1.190289e-06   2.1111982e-06  1.2794983e+08
    232000   6.2803314e-11  100935.55      100752.73      119336.47      3.3014569e-06  1.1902237e-06  2.1112332e-06  1.2794896e+08
    233000   6.3074018e-11  100938.91      100762.01      118747.98      3.3014375e-06  1.190134e-06   2.1113035e-06  1.2795223e+08
    234000   6.3344722e-11  100923.36      100743.7       119008.22      3.3015346e-06  1.1905563e-06  2.1109783e-06  1.2795029e+08
    235000   6.3615426e-11  100923.78      100743.08      119112.54      3.3015718e-06  1.1905849e-06  2.110987e-06   1.2795415e+08
    236000   6.388613e-11   100909.98      100732.35      118791.67      3.3015524e-06  1.1908539e-06  2.1106985e-06  1.2794618e+08
    237000   6.4156834e-11  100926.69      100754.51      118263.03      3.3014853e-06  1.1904374e-06  2.1110479e-06  1.2794689e+08
    238000   6.4427538e-11  100957.13      100793.88      117399.23      3.3014999e-06  1.1898154e-06  2.1116845e-06  1.2795771e+08
    239000   6.4698242e-11  100954.94      100794.64      117101.99      3.3015333e-06  1.1898946e-06  2.1116388e-06  1.2795968e+08
    240000   6.4968946e-11  100933.1       100776.05      116754.76      3.3014863e-06  1.1903043e-06  2.1111821e-06  1.2795032e+08
    241000   6.5239649e-11  100944.96      100787.77      116780.79      3.3015019e-06  1.1900719e-06  2.11143e-06    1.2795619e+08
    242000   6.5510353e-11  100938.14      100784.38      116430.34      3.3014863e-06  1.1901989e-06  2.1112874e-06  1.2795341e+08
    243000   6.5781057e-11  100918.77      100765.6       116351.6       3.3014833e-06  1.1906012e-06  2.1108822e-06  1.2794493e+08
    244000   6.6051761e-11  100930.14      100776.79      116381.37      3.3014689e-06  1.1903488e-06  2.11112e-06    1.2794896e+08
    245000   6.6322465e-11  100937         100785.78      116174.63      3.3014801e-06  1.1902166e-06  2.1112635e-06  1.2795118e+08
    246000   6.6593169e-11  100927.01      100775.56      116187.63      3.3015157e-06  1.1904612e-06  2.1110545e-06  1.2794983e+08
    247000   6.6863873e-11  100938.41      100789.13      115981.98      3.3014772e-06  1.1901841e-06  2.111293e-06   1.2795083e+08
    248000   6.7134577e-11  100930.01      100783.29      115717.58      3.3014427e-06  1.1903253e-06  2.1111174e-06  1.2794745e+08
    249000   6.7405281e-11  100928.68      100784.82      115430.61      3.3014796e-06  1.19039e-06    2.1110896e-06  1.2795009e+08
    250000   6.7675985e-11  100939.15      100799.52      115017.4       3.3015003e-06  1.1901917e-06  2.1113086e-06  1.2795514e+08
    251000   6.7946689e-11  100955.32      100812.02      115399.82      3.3015426e-06  1.1898959e-06  2.1116467e-06  1.2796185e+08
    252000   6.8217393e-11  100934.72      100792.4       115282.01      3.3015157e-06  1.1902998e-06  2.1112159e-06  1.2795497e+08
    253000   6.8488097e-11  100940.45      100800.21      115079.78      3.3015062e-06  1.1901705e-06  2.1113358e-06  1.2795629e+08
    254000   6.8758801e-11  100914.29      100773.84      115073.64      3.3014363e-06  1.1906478e-06  2.1107885e-06  1.2794218e+08
    255000   6.9029505e-11  100938.19      100804.89      114382.97      3.3015219e-06  1.1902335e-06  2.1112884e-06  1.279577e+08 
    256000   6.9300209e-11  100908.23      100775.68      114276.95      3.3014535e-06  1.1907917e-06  2.1106617e-06  1.2794224e+08
    257000   6.9570913e-11  100938.15      100809.99      113866.99      3.3015281e-06  1.1902406e-06  2.1112875e-06  1.2795611e+08
    258000   6.9841616e-11  100920.84      100794.15      113703.75      3.3014866e-06  1.1905609e-06  2.1109256e-06  1.2794752e+08
    259000   7.011232e-11   100939.01      100809.68      113985.57      3.3014257e-06  1.1901202e-06  2.1113055e-06  1.2794948e+08
    260000   7.0383024e-11  100955.11      100828.62      113717.73      3.301438e-06   1.1897956e-06  2.1116424e-06  1.2795531e+08
    261000   7.0653728e-11  100929.76      100808.78      113141.23      3.3014814e-06  1.1903692e-06  2.1111122e-06  1.2794927e+08
    262000   7.0924432e-11  100943.84      100825.18      112922.77      3.3014592e-06  1.1900526e-06  2.1114067e-06  1.2795317e+08
    263000   7.1195136e-11  100934.24      100819.41      112529.44      3.3014236e-06  1.1902177e-06  2.1112058e-06  1.2794648e+08
    264000   7.146584e-11   100929.58      100813.94      112605.59      3.301467e-06   1.1903588e-06  2.1111083e-06  1.2794747e+08
    265000   7.1736544e-11  100927.21      100814.93      112267.6       3.3014693e-06  1.1904106e-06  2.1110587e-06  1.279494e+08 
    266000   7.2007248e-11  100930.51      100821.35      111958.34      3.3014801e-06  1.1903523e-06  2.1111278e-06  1.2794937e+08
    267000   7.2277952e-11  100931.22      100827.35      111429.7       3.3015059e-06  1.1903633e-06  2.1111427e-06  1.2795112e+08
    268000   7.2548656e-11  100938.47      100834.44      111452.41      3.3014781e-06  1.1901839e-06  2.1112942e-06  1.2795265e+08
    269000   7.281936e-11   100963.38      100856.01      111812.27      3.3014333e-06  1.189618e-06   2.1118153e-06  1.2795746e+08
    270000   7.3090064e-11  100935.12      100822.48      112312.07      3.301495e-06   1.1902707e-06  2.1112243e-06  1.2795241e+08
    271000   7.3360768e-11  100924.62      100811.46      112353.21      3.3014495e-06  1.1904449e-06  2.1110046e-06  1.2794612e+08
    272000   7.3631472e-11  100934.73      100822.35      112284.9       3.301461e-06   1.190245e-06   2.1112161e-06  1.2794959e+08
    273000   7.3902176e-11  100954.1       100845.1       111965.64      3.3014713e-06  1.1898501e-06  2.1116211e-06  1.2795631e+08
    274000   7.417288e-11   100945.4       100838.43      111753.86      3.3014968e-06  1.1900576e-06  2.1114392e-06  1.2795649e+08
    275000   7.4443583e-11  100906.63      100803.49      111331.67      3.3014613e-06  1.190833e-06   2.1106283e-06  1.2794147e+08
    276000   7.4714287e-11  100928.94      100828.08      111126.49      3.3014456e-06  1.1903506e-06  2.111095e-06   1.2794633e+08
    277000   7.4984991e-11  100922.7       100822.04      111099.29      3.3014188e-06  1.1904544e-06  2.1109643e-06  1.2794388e+08
    278000   7.5255695e-11  100929.09      100825.83      111367.15      3.3014867e-06  1.1903886e-06  2.1110982e-06  1.2794866e+08
    279000   7.5526399e-11  100922.83      100822.28      111088.76      3.3014718e-06  1.1905047e-06  2.1109671e-06  1.2794535e+08
    280000   7.5797103e-11  100962.4       100859.75      111337.92      3.3014067e-06  1.1896119e-06  2.1117947e-06  1.2795345e+08
    281000   7.6067807e-11  100935.55      100835.38      111063.22      3.301362e-06   1.1901288e-06  2.1112332e-06  1.2794379e+08
    282000   7.6338511e-11  100947.43      100846.09      111191.73      3.3015912e-06  1.1901095e-06  2.1114816e-06  1.2795802e+08
    283000   7.6609215e-11  100928.08      100820.31      111816.64      3.3016018e-06  1.1905249e-06  2.1110769e-06  1.2795194e+08
    284000   7.6879919e-11  100950.58      100841.95      111925.36      3.3016026e-06  1.190055e-06   2.1115476e-06  1.2796027e+08
    285000   7.7150623e-11  100927.76      100823.8       111434.92      3.3015866e-06  1.1905163e-06  2.1110703e-06  1.2795062e+08
    286000   7.7421327e-11  100933.66      100826.51      111760.62      3.3016233e-06  1.1904295e-06  2.1111938e-06  1.2795493e+08
    287000   7.7692031e-11  100940.26      100828.83      112195.85      3.3016182e-06  1.1902864e-06  2.1113318e-06  1.2795753e+08
    288000   7.7962735e-11  100935.39      100821.73      112413.44      3.3015763e-06  1.1903465e-06  2.1112299e-06  1.2795444e+08
    289000   7.8233439e-11  100909.93      100797.69      112246.75      3.3015926e-06  1.1908952e-06  2.1106974e-06  1.2794585e+08
    290000   7.8504143e-11  100912         100798.53      112371.94      3.3015819e-06  1.1908412e-06  2.1107407e-06  1.2794597e+08
    291000   7.8774846e-11  100926.25      100816.92      111971.15      3.3015789e-06  1.1905401e-06  2.1110388e-06  1.2794931e+08
    292000   7.904555e-11   100933.6       100819.21      112485.06      3.3016121e-06  1.1904196e-06  2.1111925e-06  1.2795587e+08
    293000   7.9316254e-11  100931.97      100810.73      113168.67      3.301626e-06   1.1904676e-06  2.1111583e-06  1.2795552e+08
    294000   7.9586958e-11  100949.85      100832.39      112808.72      3.3016331e-06  1.1901007e-06  2.1115324e-06  1.2796143e+08
    295000   7.9857662e-11  100959.71      100846.98      112345.79      3.3015876e-06  1.189849e-06   2.1117387e-06  1.2796111e+08
    296000   8.0128366e-11  100943.68      100834.4       111982.86      3.3015829e-06  1.1901797e-06  2.1114032e-06  1.2795575e+08
    297000   8.039907e-11   100928.43      100816.21      112262.1       3.3015636e-06  1.1904794e-06  2.1110842e-06  1.2794948e+08
    298000   8.0669774e-11  100944.01      100830.34      112423.58      3.3015587e-06  1.1901485e-06  2.1114102e-06  1.2795301e+08
    299000   8.0940478e-11  100932.17      100816.68      112593.32      3.3015884e-06  1.1904259e-06  2.1111625e-06  1.2795259e+08
    300000   8.1211182e-11  100948.55      100831.47      112769.38      3.3015664e-06  1.1900612e-06  2.1115052e-06  1.2795758e+08
    301000   8.1481886e-11  100930.65      100808.3       113278.55      3.3015663e-06  1.1904356e-06  2.1111307e-06  1.2794885e+08
    302000   8.175259e-11   100935.7       100807.2       113899.55      3.301639e-06   1.1904026e-06  2.1112363e-06  1.279578e+08 
    303000   8.2023294e-11  100941.85      100811.13      114126.98      3.3015945e-06  1.1902296e-06  2.1113649e-06  1.2795724e+08
    304000   8.2293998e-11  100923.48      100793.36      114049.92      3.3016396e-06  1.1906588e-06  2.1109808e-06  1.2795363e+08
    305000   8.2564702e-11  100941.89      100810.05      114239.89      3.3016351e-06  1.1902693e-06  2.1113658e-06  1.279593e+08 
    306000   8.2835406e-11  100941.41      100810.4       114157.09      3.3015829e-06  1.190227e-06   2.1113558e-06  1.2795653e+08
    307000   8.310611e-11   100942.12      100809.92      114276.06      3.3015326e-06  1.190162e-06   2.1113707e-06  1.2795236e+08
    308000   8.3376813e-11  100937.11      100812.64      113497.87      3.301578e-06   1.1903122e-06  2.1112658e-06  1.279537e+08 
    309000   8.3647517e-11  100926.09      100806.24      113023.27      3.3016105e-06  1.1905752e-06  2.1110352e-06  1.2795142e+08
    310000   8.3918221e-11  100928.73      100800.67      113848.22      3.3015862e-06  1.1904956e-06  2.1110906e-06  1.2795274e+08
    311000   8.4188925e-11  100941.41      100823.11      112883.88      3.3015652e-06  1.1902094e-06  2.1113558e-06  1.2795375e+08
    312000   8.4459629e-11  100933.8       100820.97      112328.81      3.3015982e-06  1.1904016e-06  2.1111965e-06  1.2795501e+08
    313000   8.4730333e-11  100916.16      100808.11      111833.19      3.3015465e-06  1.1907189e-06  2.1108276e-06  1.2794537e+08
    314000   8.5001037e-11  100921.03      100810.48      112087.3       3.301608e-06   1.1906785e-06  2.1109294e-06  1.279498e+08 
    315000   8.5271741e-11  100921.94      100811.31      112097         3.3015805e-06  1.190632e-06   2.1109486e-06  1.2795063e+08
    316000   8.5542445e-11  100924.96      100816.73      111859.37      3.3015776e-06  1.190566e-06   2.1110116e-06  1.2794959e+08
    317000   8.5813149e-11  100917.11      100815.83      111155.94      3.30155e-06    1.1907025e-06  2.1108475e-06  1.2794471e+08
    318000   8.6083853e-11  100938.05      100832.9       111565.02      3.3016405e-06  1.1903549e-06  2.1112856e-06  1.2795877e+08
    319000   8.6354557e-11  100942.94      100836.73      111674.77      3.3016066e-06  1.1902188e-06  2.1113877e-06  1.2795921e+08
    320000   8.6625261e-11  100903.09      100794.19      111905.14      3.3015655e-06  1.1910112e-06  2.1105544e-06  1.2794287e+08
    321000   8.6895965e-11  100931.38      100825.91      111589.86      3.3016052e-06  1.1904592e-06  2.1111461e-06  1.2795371e+08
    322000   8.7166669e-11  100957.7       100849         111939.23      3.3015679e-06  1.1898714e-06  2.1116965e-06  1.279596e+08 
    323000   8.7437373e-11  100951.23      100840.42      112144.88      3.3015566e-06  1.1899954e-06  2.1115612e-06  1.2795834e+08
    324000   8.7708076e-11  100924.26      100816.16      111845.33      3.3016251e-06  1.1906281e-06  2.110997e-06   1.2795327e+08
    325000   8.797878e-11   100928.45      100820.11      111874.41      3.3015437e-06  1.190459e-06   2.1110847e-06  1.2794815e+08
    326000   8.8249484e-11  100923.12      100811.87      112159.82      3.3015801e-06  1.1906069e-06  2.1109732e-06  1.2794877e+08
    327000   8.8520188e-11  100943.17      100834.78      111893.97      3.3015733e-06  1.1901808e-06  2.1113925e-06  1.2795594e+08
    328000   8.8790892e-11  100936.88      100832.11      111525.5       3.3015573e-06  1.1902962e-06  2.1112611e-06  1.2795087e+08
    329000   8.9061596e-11  100924.44      100814.12      112069.24      3.3016193e-06  1.1906183e-06  2.1110009e-06  1.2795173e+08
    330000   8.93323e-11    100945.59      100844.84      111131.39      3.3015658e-06  1.1901226e-06  2.1114432e-06  1.2795596e+08
    331000   8.9603004e-11  100946.77      100849.32      110801.91      3.3015931e-06  1.1901253e-06  2.1114679e-06  1.2795653e+08
    332000   8.9873708e-11  100935.75      100837.89      110831.99      3.3015324e-06  1.190295e-06   2.1112373e-06  1.2795113e+08
    333000   9.0144412e-11  100931.96      100833.18      110921.33      3.3016119e-06  1.1904537e-06  2.1111582e-06  1.2795435e+08
    334000   9.0415116e-11  100943.9       100853.21      110122.55      3.3016029e-06  1.1901951e-06  2.1114078e-06  1.2795837e+08
    335000   9.068582e-11   100921.88      100836.43      109576.9       3.3016567e-06  1.1907094e-06  2.1109473e-06  1.2795522e+08
    336000   9.0956524e-11  100934.05      100850.56      109392.67      3.3016392e-06  1.1904374e-06  2.1112019e-06  1.2795739e+08
    337000   9.1227228e-11  100927.16      100838.23      109929.91      3.3015255e-06  1.1904677e-06  2.1110578e-06  1.2794773e+08
    338000   9.1497932e-11  100935.36      100852.69      109311.89      3.301541e-06   1.1903117e-06  2.1112293e-06  1.2795118e+08
    339000   9.1768636e-11  100922.22      100839.89      109263.93      3.3016021e-06  1.1906478e-06  2.1109544e-06  1.2795057e+08
    340000   9.203934e-11   100962.6       100886.07      108723.77      3.3015346e-06  1.1897356e-06  2.111799e-06   1.279584e+08 
    341000   9.2310043e-11  100964.69      100891.59      108382.25      3.3016276e-06  1.189785e-06   2.1118426e-06  1.2796387e+08
    342000   9.2580747e-11  100967.5       100890.57      108768.78      3.3016086e-06  1.1897072e-06  2.1119015e-06  1.2796463e+08
    343000   9.2851451e-11  100963.49      100887.6       108660.46      3.3015662e-06  1.1897487e-06  2.1118176e-06  1.2796068e+08
    344000   9.3122155e-11  100961.68      100884.6       108778.32      3.3015384e-06  1.1897585e-06  2.1117798e-06  1.2795844e+08
    345000   9.3392859e-11  100931.92      100852.87      108946.15      3.3015427e-06  1.1903853e-06  2.1111574e-06  1.279491e+08 
    346000   9.3663563e-11  100944.15      100868.55      108612.89      3.3015993e-06  1.1901861e-06  2.1114131e-06  1.2795684e+08
    347000   9.3934267e-11  100945.08      100864.07      109154.6       3.3016292e-06  1.1901967e-06  2.1114325e-06  1.2796123e+08
    348000   9.4204971e-11  100934.12      100857.95      108659.93      3.301609e-06   1.1904056e-06  2.1112034e-06  1.2795471e+08
    349000   9.4475675e-11  100945.46      100875.74      108024.84      3.3016704e-06  1.1902299e-06  2.1114404e-06  1.2796213e+08
    350000   9.4746379e-11  100937.25      100870.54      107715.86      3.301615e-06   1.1903462e-06  2.1112688e-06  1.2795611e+08
    351000   9.5017083e-11  100922.68      100857.59      107539.49      3.3016039e-06  1.1906399e-06  2.110964e-06   1.279514e+08 
    352000   9.5287787e-11  100958.72      100891.72      107766.37      3.3016177e-06  1.1899e-06     2.1117178e-06  1.2796411e+08
    353000   9.5558491e-11  100923.14      100849.75      108371         3.3015772e-06  1.1906035e-06  2.1109737e-06  1.2794859e+08
    354000   9.5829195e-11  100926.59      100854.48      108245.23      3.3015862e-06  1.1905404e-06  2.1110458e-06  1.2794982e+08
    355000   9.6099899e-11  100939         100865.95      108352.21      3.3016498e-06  1.1903444e-06  2.1113054e-06  1.2796077e+08
    356000   9.6370603e-11  100924.45      100855.95      107882.16      3.3015806e-06  1.1905796e-06  2.1110011e-06  1.2795027e+08
    357000   9.6641307e-11  100940.64      100879.66      107146.35      3.3016116e-06  1.1902719e-06  2.1113397e-06  1.27957e+08  
    358000   9.691201e-11   100930.82      100869.52      107168.75      3.3015185e-06  1.1903841e-06  2.1111344e-06  1.2794587e+08
    359000   9.7182714e-11  100933.59      100875.27      106872.78      3.3015944e-06  1.1904021e-06  2.1111923e-06  1.2795444e+08
    360000   9.7453418e-11  100930.36      100876.55      106417.99      3.3016644e-06  1.1905397e-06  2.1111247e-06  1.2795935e+08
    361000   9.7724122e-11  100933.22      100880.03      106358.39      3.3016018e-06  1.1904173e-06  2.1111845e-06  1.2795436e+08
    362000   9.7994826e-11  100922.4       100867.98      106470.57      3.3015451e-06  1.1905869e-06  2.1109582e-06  1.2794559e+08
    363000   9.826553e-11   100946.75      100896.31      106096.46      3.3016384e-06  1.1901709e-06  2.1114675e-06  1.2796097e+08
    364000   9.8536234e-11  100946.25      100890.73      106604.79      3.3015675e-06  1.1901106e-06  2.1114569e-06  1.2795645e+08
    365000   9.8806938e-11  100934.36      100871.73      107304.16      3.3015346e-06  1.1903263e-06  2.1112082e-06  1.2795075e+08
    366000   9.9077642e-11  100917.33      100855.04      107253.18      3.3016308e-06  1.1907788e-06  2.1108521e-06  1.2794967e+08
    367000   9.9348346e-11  100941.28      100888.16      106360.49      3.3015323e-06  1.1901791e-06  2.1113532e-06  1.2795301e+08
    368000   9.961905e-11   100928.18      100873.63      106489.82      3.301591e-06   1.190512e-06   2.111079e-06   1.2795131e+08
    369000   9.9889754e-11  100949.61      100891.84      106833.28      3.3015821e-06  1.1900548e-06  2.1115273e-06  1.2795612e+08
    370000   1.0016046e-10  100943.64      100887.06      106708.21      3.3015976e-06  1.1901951e-06  2.1114024e-06  1.2795682e+08
    371000   1.0043116e-10  100936.49      100880.4       106652.13      3.3016612e-06  1.1904084e-06  2.1112528e-06  1.2795798e+08
    372000   1.0070187e-10  100932.9       100880.89      106240.14      3.301636e-06   1.1904581e-06  2.1111779e-06  1.2795472e+08
    373000   1.0097257e-10  100920.42      100862.23      106845.73      3.3016619e-06  1.1907453e-06  2.1109167e-06  1.2795195e+08
    374000   1.0124327e-10  100939.34      100883.99      106581.36      3.3016059e-06  1.1902933e-06  2.1113126e-06  1.2795565e+08
    375000   1.0151398e-10  100940.87      100881.67      106968.59      3.3016097e-06  1.1902651e-06  2.1113446e-06  1.2795563e+08
    376000   1.0178468e-10  100944.51      100889.95      106507.6       3.301642e-06   1.1902213e-06  2.1114207e-06  1.2795984e+08
    377000   1.0205539e-10  100923.6       100867.96      106594.07      3.3016991e-06  1.1907159e-06  2.1109832e-06  1.279551e+08 
    378000   1.0232609e-10  100930.91      100873.32      106796.35      3.3016848e-06  1.1905487e-06  2.1111362e-06  1.2795749e+08
    379000   1.0259679e-10  100933.87      100880.5       106377.55      3.3015839e-06  1.1903858e-06  2.1111981e-06  1.279526e+08 
    380000   1.028675e-10   100946.67      100892.49      106471.3       3.3016188e-06  1.190153e-06   2.1114658e-06  1.2795753e+08
    381000   1.031382e-10   100936.87      100882.8       106450.59      3.3015755e-06  1.1903147e-06  2.1112608e-06  1.2795059e+08
    382000   1.0340891e-10  100957.2       100902.63      106520.78      3.3016144e-06  1.1899285e-06  2.111686e-06   1.279615e+08 
    383000   1.0367961e-10  100945.62      100889.32      106681.74      3.3015899e-06  1.1901461e-06  2.1114438e-06  1.279559e+08 
    384000   1.0395031e-10  100923.9       100865.03      106917.14      3.3016652e-06  1.1906757e-06  2.1109895e-06  1.2795249e+08
    385000   1.0422102e-10  100946.64      100884.54      107263.72      3.3015563e-06  1.1900912e-06  2.1114651e-06  1.27953e+08  
    386000   1.0449172e-10  100963.96      100902.88      107178.98      3.3016538e-06  1.1898264e-06  2.1118274e-06  1.279672e+08 
    387000   1.0476242e-10  100956.48      100897.1       107000.74      3.3016251e-06  1.1899541e-06  2.111671e-06   1.2796116e+08
    388000   1.0503313e-10  100961.45      100902.2       106993.9       3.3015863e-06  1.1898113e-06  2.1117751e-06  1.2795942e+08
    389000   1.0530383e-10  100950.28      100889.17      107168.51      3.3016165e-06  1.1900751e-06  2.1115414e-06  1.2795858e+08
    390000   1.0557454e-10  100937.59      100873.74      107430.22      3.3016144e-06  1.1903385e-06  2.111276e-06   1.2795486e+08
    391000   1.0584524e-10  100949.28      100889.02      107082.21      3.3016256e-06  1.1901053e-06  2.1115203e-06  1.2796017e+08
    392000   1.0611594e-10  100916.07      100852.77      107353.11      3.3015985e-06  1.1907728e-06  2.1108257e-06  1.2794693e+08
    393000   1.0638665e-10  100920.54      100854.05      107677.85      3.3016068e-06  1.1906875e-06  2.1109193e-06  1.2794786e+08
    394000   1.0665735e-10  100941.86      100870.72      108163.5       3.3016287e-06  1.1902635e-06  2.1113651e-06  1.2795696e+08
    395000   1.0692806e-10  100960.68      100886.33      108503.45      3.3016483e-06  1.1898895e-06  2.1117588e-06  1.2796389e+08
    396000   1.0719876e-10  100941.47      100869.66      108231.01      3.3016486e-06  1.1902916e-06  2.1113571e-06  1.2795748e+08
    397000   1.0746946e-10  100945.44      100868.68      108730.18      3.3015532e-06  1.190113e-06   2.1114401e-06  1.2795215e+08
    398000   1.0774017e-10  100945.41      100867.95      108799.87      3.3016216e-06  1.1901821e-06  2.1114395e-06  1.2795637e+08
    399000   1.0801087e-10  100935.15      100861.05      108453.31      3.3016326e-06  1.1904079e-06  2.1112248e-06  1.2795336e+08
    400000   1.0828158e-10  100957.87      100877.92      109061.87      3.301579e-06   1.1898789e-06  2.1117001e-06  1.2795863e+08
    401000   1.0855228e-10  100947.06      100862.65      109498.15      3.3016128e-06  1.1901388e-06  2.111474e-06   1.2795566e+08
    402000   1.0882298e-10  100941.53      100855.05      109699.33      3.3016023e-06  1.1902439e-06  2.1113584e-06  1.2795212e+08
    403000   1.0909369e-10  100952.48      100863.69      109940.51      3.3015831e-06  1.1899958e-06  2.1115873e-06  1.2795713e+08
    404000   1.0936439e-10  100936.73      100844.07      110313.46      3.3016074e-06  1.1903494e-06  2.111258e-06   1.2795447e+08
    405000   1.096351e-10   100950.24      100855.44      110540.67      3.3015716e-06  1.1900311e-06  2.1115405e-06  1.2795691e+08
    406000   1.099058e-10   100950.25      100860.23      110062.42      3.3016462e-06  1.1901056e-06  2.1115406e-06  1.2796079e+08
    407000   1.101765e-10   100949.74      100861.29      109904.42      3.3017993e-06  1.1902693e-06  2.11153e-06    1.2796427e+08
    408000   1.1044721e-10  100945.81      100856.4       109996.7       3.3017979e-06  1.1903501e-06  2.1114478e-06  1.2796196e+08
    409000   1.1071791e-10  100950.65      100857.33      110393.63      3.301776e-06   1.1902269e-06  2.1115491e-06  1.2796394e+08
    410000   1.1098862e-10  100914.32      100820.28      110428.23      3.3018391e-06  1.19105e-06    2.1107891e-06  1.2795378e+08
    411000   1.1125932e-10  100952.53      100857.87      110528.67      3.3018316e-06  1.1902433e-06  2.1115883e-06  1.2796637e+08
    412000   1.1153002e-10  100933.57      100836.68      110732.91      3.3018132e-06  1.1906214e-06  2.1111918e-06  1.2795906e+08
    413000   1.1180073e-10  100950.04      100850.61      111004.14      3.3017401e-06  1.1902039e-06  2.1115362e-06  1.2795908e+08
    414000   1.1207143e-10  100948.31      100847.02      111187.67      3.3017881e-06  1.1902881e-06  2.1115e-06     1.2796199e+08
    415000   1.1234214e-10  100938.67      100838.55      111061.57      3.3017803e-06  1.1904818e-06  2.1112985e-06  1.2795891e+08
    416000   1.1261284e-10  100944.29      100838.29      111655.35      3.3017812e-06  1.1903652e-06  2.111416e-06   1.2795903e+08
    417000   1.1288354e-10  100954.26      100845.01      111991.67      3.3017483e-06  1.1901237e-06  2.1116246e-06  1.2796049e+08
    418000   1.1315425e-10  100936.44      100829.45      111746.74      3.3018078e-06  1.1905559e-06  2.1112519e-06  1.279605e+08 
    419000   1.1342495e-10  100942.16      100827.97      112473.71      3.3017658e-06  1.1903944e-06  2.1113714e-06  1.2795802e+08
    420000   1.1369565e-10  100956.75      100843.89      112355.09      3.3017847e-06  1.190108e-06   2.1116767e-06  1.279654e+08 
    421000   1.1396636e-10  100954.48      100840.51      112463.97      3.3017756e-06  1.1901465e-06  2.1116291e-06  1.2796317e+08
    422000   1.1423706e-10  100964.65      100845.73      112968.71      3.3017854e-06  1.1899436e-06  2.1118418e-06  1.279665e+08 
    423000   1.1450777e-10  100957.85      100842.83      112572.24      3.3018321e-06  1.1901324e-06  2.1116997e-06  1.2796868e+08
    424000   1.1477847e-10  100924.7       100811.41      112365.96      3.3018077e-06  1.1908013e-06  2.1110063e-06  1.2795547e+08
    425000   1.1504917e-10  100940.56      100839.79      111128.34      3.3018189e-06  1.1904809e-06  2.111338e-06   1.2796096e+08
    426000   1.1531988e-10  100965.85      100870.64      110596.55      3.301813e-06   1.1899461e-06  2.1118669e-06  1.2796953e+08
    427000   1.1559058e-10  100953.63      100861.75      110251.91      3.3018194e-06  1.1902079e-06  2.1116115e-06  1.279666e+08 
    428000   1.1586129e-10  100932.94      100844.04      109932.87      3.3018469e-06  1.1906682e-06  2.1111786e-06  1.27961e+08  
    429000   1.1613199e-10  100940.41      100843.41      110750.79      3.3018007e-06  1.1904659e-06  2.1113349e-06  1.2795981e+08
    430000   1.1640269e-10  100958.14      100858.99      110984.15      3.3018122e-06  1.1901065e-06  2.1117057e-06  1.2796693e+08
    431000   1.166734e-10   100955.56      100861.51      110470.53      3.3017811e-06  1.1901295e-06  2.1116517e-06  1.2796504e+08
    432000   1.169441e-10   100942.34      100845.97      110689.56      3.301819e-06   1.1904439e-06  2.1113751e-06  1.2796323e+08
    433000   1.1721481e-10  100951.41      100857.26      110476.62      3.3018051e-06  1.1902401e-06  2.111565e-06   1.2796438e+08
    434000   1.1748551e-10  100946.36      100851.75      110518.11      3.3017909e-06  1.1903315e-06  2.1114594e-06  1.2796048e+08
    435000   1.1775621e-10  100966.66      100870.05      110737.5       3.3017874e-06  1.1899036e-06  2.1118838e-06  1.2796712e+08
    436000   1.1802692e-10  100969.71      100872.77      110774.3       3.3017278e-06  1.1897802e-06  2.1119476e-06  1.2796451e+08
    437000   1.1829762e-10  100946.24      100848.63      110817.97      3.3018219e-06  1.190365e-06   2.1114569e-06  1.2796421e+08
    438000   1.1856833e-10  100922.19      100827.15      110536.37      3.3018643e-06  1.1909106e-06  2.1109537e-06  1.2795909e+08
    439000   1.1883903e-10  100945.14      100850.96      110473.8       3.3018499e-06  1.1904161e-06  2.1114338e-06  1.2796591e+08
    440000   1.1910973e-10  100938.48      100848.19      110077.61      3.3018535e-06  1.190559e-06   2.1112945e-06  1.2796267e+08
    441000   1.1938044e-10  100938.56      100847.81      110123.13      3.3018255e-06  1.1905293e-06  2.1112962e-06  1.2796058e+08
    442000   1.1965114e-10  100932.17      100847.44      109515.25      3.3017905e-06  1.1906279e-06  2.1111626e-06  1.2795897e+08
    443000   1.1992185e-10  100964.99      100880.44      109529.35      3.3017941e-06  1.1899452e-06  2.1118489e-06  1.2796955e+08
    444000   1.2019255e-10  100941.54      100858.09      109395.78      3.3018639e-06  1.1905055e-06  2.1113585e-06  1.2796551e+08
    445000   1.2046325e-10  100974.95      100892.53      109326.03      3.3018531e-06  1.1897957e-06  2.1120573e-06  1.2797493e+08
    446000   1.2073396e-10  100944.26      100862.4       109239.48      3.3017594e-06  1.190344e-06   2.1114153e-06  1.2795743e+08
    447000   1.2100466e-10  100955.47      100879.94      108617.39      3.301823e-06   1.1901732e-06  2.1116499e-06  1.2796516e+08
    448000   1.2127537e-10  100959.99      100886.65      108402.66      3.3019169e-06  1.1901724e-06  2.1117445e-06  1.2796959e+08
    449000   1.2154607e-10  100942.24      100863.05      108969.49      3.3019064e-06  1.1905334e-06  2.1113731e-06  1.2796389e+08
    450000   1.2181677e-10  100935.04      100849.61      109586.85      3.3018903e-06  1.1906679e-06  2.1112225e-06  1.2796008e+08
    451000   1.2208748e-10  100943.49      100859         109501.71      3.3019129e-06  1.1905136e-06  2.1113993e-06  1.2796584e+08
    452000   1.2235818e-10  100949.57      100866.5       109365.87      3.3019043e-06  1.1903779e-06  2.1115265e-06  1.2796551e+08
    453000   1.2262888e-10  100924.16      100839.02      109547.86      3.3019293e-06  1.1909343e-06  2.110995e-06   1.2795908e+08
    454000   1.2289959e-10  100940.29      100854.31      109647.86      3.3019804e-06  1.190648e-06   2.1113323e-06  1.2796772e+08
    455000   1.2317029e-10  100948.09      100860.25      109841.77      3.3020124e-06  1.190517e-06   2.1114954e-06  1.2797526e+08
    456000   1.23441e-10    100938.77      100852.88      109638.08      3.3019571e-06  1.1906564e-06  2.1113006e-06  1.2796625e+08
    457000   1.237117e-10   100938.67      100850.29      109886.94      3.3019346e-06  1.1906361e-06  2.1112985e-06  1.2796379e+08
    458000   1.239824e-10   100944.04      100852.54      110203.98      3.3019513e-06  1.1905405e-06  2.1114107e-06  1.2796799e+08
    459000   1.2425311e-10  100955.74      100859.55      110685.26      3.3019214e-06  1.190266e-06   2.1116554e-06  1.2796951e+08
    460000   1.2452381e-10  100941.78      100840.75      111155.86      3.3019005e-06  1.1905369e-06  2.1113636e-06  1.2796536e+08
    461000   1.2479452e-10  100929.97      100822.7       111769.18      3.3019425e-06  1.190826e-06   2.1111165e-06  1.279623e+08 
    462000   1.2506522e-10  100946.32      100835.42      112148.79      3.3020197e-06  1.1905611e-06  2.1114585e-06  1.2796987e+08
    463000   1.2533592e-10  100944.4       100835.81      111915.4       3.3019796e-06  1.1905613e-06  2.1114183e-06  1.2796548e+08
    464000   1.2560663e-10  100976.67      100869.46      111809.47      3.301935e-06   1.1898416e-06  2.1120934e-06  1.2797337e+08
    465000   1.2587733e-10  100961.93      100850.36      112230.79      3.3020054e-06  1.1902205e-06  2.1117849e-06  1.2797362e+08
    466000   1.2614804e-10  100945.79      100835.04      112132.88      3.3020339e-06  1.1905866e-06  2.1114473e-06  1.2797108e+08
    467000   1.2641874e-10  100944.43      100834.67      112032.2       3.3020427e-06  1.1906237e-06  2.111419e-06   1.2796927e+08
    468000   1.2668944e-10  100971.24      100867.98      111408.49      3.3019604e-06  1.1899806e-06  2.1119798e-06  1.279739e+08 
    469000   1.2696015e-10  100925.72      100823.66      111243.41      3.3020288e-06  1.1910011e-06  2.1110277e-06  1.279638e+08 
    470000   1.2723085e-10  100945.49      100844.13      111192.78      3.3020248e-06  1.1905837e-06  2.1114412e-06  1.2796992e+08
    471000   1.2750156e-10  100970.13      100869.17      111177.15      3.3019312e-06  1.1899747e-06  2.1119565e-06  1.2797366e+08
    472000   1.2777226e-10  100951.39      100847.25      111476.51      3.3020256e-06  1.1904611e-06  2.1115645e-06  1.2797153e+08
    473000   1.2804296e-10  100951.49      100851.21      111089.87      3.3019517e-06  1.1903852e-06  2.1115666e-06  1.2796552e+08
    474000   1.2831367e-10  100957.08      100856.8       111096.02      3.3019233e-06  1.1902397e-06  2.1116836e-06  1.2796464e+08
    475000   1.2858437e-10  100945.68      100848.35      110789.84      3.3019145e-06  1.1904693e-06  2.1114452e-06  1.2795904e+08
    476000   1.2885508e-10  100944.46      100854.88      110011.63      3.3019502e-06  1.1905307e-06  2.1114195e-06  1.2796393e+08
    477000   1.2912578e-10  100968.97      100874.79      110498.02      3.3020342e-06  1.1901019e-06  2.1119323e-06  1.2797585e+08
    478000   1.2939648e-10  100972.89      100882.75      110096.43      3.3020056e-06  1.1899915e-06  2.1120142e-06  1.2797372e+08
    479000   1.2966719e-10  100927.58      100838.54      109941.85      3.3020231e-06  1.1909566e-06  2.1110665e-06  1.2795984e+08
    480000   1.2993789e-10  100951.1       100866.09      109561.32      3.3019712e-06  1.1904128e-06  2.1115584e-06  1.2796634e+08
    481000   1.302086e-10   100951.81      100865.77      109664.69      3.3019916e-06  1.1904183e-06  2.1115732e-06  1.279654e+08 
    482000   1.304793e-10   100974.59      100888.32      109711.22      3.3019835e-06  1.1899337e-06  2.1120497e-06  1.2797339e+08
    483000   1.3075e-10     100965.89      100874.75      110189.37      3.3020509e-06  1.1901831e-06  2.1118677e-06  1.2797464e+08
    484000   1.3102071e-10  100959.29      100867.55      110243.7       3.3020493e-06  1.1903195e-06  2.1117298e-06  1.2797467e+08
    485000   1.3129141e-10  100945.55      100852.05      110405.43      3.302067e-06   1.1906247e-06  2.1114423e-06  1.2797009e+08
    486000   1.3156211e-10  100933.26      100839.98      110371.7       3.3020654e-06  1.1908801e-06  2.1111853e-06  1.2796628e+08
    487000   1.3183282e-10  100971.22      100879.55      110248.23      3.3019428e-06  1.1899635e-06  2.1119793e-06  1.2797171e+08
    488000   1.3210352e-10  100972.05      100882.67      110020.07      3.3019855e-06  1.1899889e-06  2.1119966e-06  1.2797242e+08
    489000   1.3237423e-10  100964.12      100869.64      110522.75      3.30205e-06    1.1902192e-06  2.1118308e-06  1.279759e+08 
    490000   1.3264493e-10  100953         100857.91      110572.86      3.3020083e-06  1.1904101e-06  2.1115982e-06  1.2796966e+08
    491000   1.3291563e-10  100950.65      100848.21      111305.34      3.3020292e-06  1.1904802e-06  2.111549e-06   1.2796801e+08
    492000   1.3318634e-10  100950.69      100842.31      111900.82      3.3020125e-06  1.1904626e-06  2.1115499e-06  1.2796754e+08
    493000   1.3345704e-10  100977.02      100868.36      111954.84      3.3020881e-06  1.1899874e-06  2.1121007e-06  1.2798298e+08
    494000   1.3372775e-10  100976.45      100876.51      111080.86      3.3020803e-06  1.1899917e-06  2.1120886e-06  1.2798047e+08
