Job ID:        404029
Host:          daisg107
Start time:    Wed Aug  5 03:49:39 PM CEST 2026
Working dir:   /dais/fs/scratch/kshao/wd/White-Dwarf-Codes/unforced/dais
MPI tasks:     1
CPUs/task:     12
Visible GPU:   0
LAMMPS:        /u/kshao/software/lammps-gpu-cuda12-install/bin/lmp
Input:         unforcedvel_v2.9e+06_c0.in
Currently Loaded Modulefiles:
 1) gcc/14   2) cuda/12.8   3) openmpi/5.0  
name, uuid, driver_version, memory.total [MiB]
NVIDIA H200, GPU-944b06bc-b295-5ea0-8265-e713e75254d7, 580.173.02, 143771 MiB
LAMMPS (22 Jul 2025 - Update 4)
  using 1 OpenMP thread(s) per MPI task
Created orthogonal box = (0 0 0) to (2.571242e-05 2.571242e-05 2.571242e-05)
  1 by 1 by 1 MPI processor grid
Created 100000 atoms
  using lattice units in orthogonal box = (0 0 0) to (2.571242e-05 2.571242e-05 2.571242e-05)
  create_atoms CPU = 110.168 seconds
Created 1000 atoms
  using lattice units in orthogonal box = (0 0 0) to (2.571242e-05 2.571242e-05 2.571242e-05)
  create_atoms CPU = 2.219 seconds
1000 atoms in group Si
100000 atoms in group H

CITE-CITE-CITE-CITE-CITE-CITE-CITE-CITE-CITE-CITE-CITE-CITE-CITE

Your simulation uses code contributions which should be cited:
- GPU package (short-range, long-range and three-body potentials): doi:10.1016/j.cpc.2010.12.021, doi:10.1016/j.cpc.2011.10.012, doi:10.1016/j.cpc.2013.08.002, doi:10.1016/j.commatsci.2014.10.068, doi:10.1016/j.cpc.2016.10.020, doi:10.3233/APC200086
The log file lists these citations in BibTeX format.

CITE-CITE-CITE-CITE-CITE-CITE-CITE-CITE-CITE-CITE-CITE-CITE-CITE


--------------------------------------------------------------------------
- Using acceleration for yukawa:
-  with 1 proc(s) per device.
-  with 1 thread(s) per proc.
-  Horizontal vector operations: ENABLED
-  Shared memory system: No
--------------------------------------------------------------------------
Device 0: NVIDIA H200, 132 CUs, 1.4e+02/1.4e+02 GB, 2 GHZ (Mixed Precision)
--------------------------------------------------------------------------

Initializing Device and compiling on process 0...Done.
Initializing Device 0 on core 0...Done.

Generated 0 of 1 mixed pair_coeff terms from geometric mixing rule
Neighbor list info ...
  update: every = 1 steps, delay = 0 steps, check = yes
  max neighbors/atom: 10000, page size: 100000
  master list distance cutoff = 3.4606219e-06
  ghost atom cutoff = 3.4606219e-06
  binsize = 1.7303109e-06, bins = 15 15 15
  1 neighbor lists, perpetual/occasional/extra = 1 0 0
  (1) pair yukawa/gpu, perpetual
      attributes: full, newton on
      pair build: full/bin/atomonly
      stencil: full/bin/3d
      bin: standard
Setting up Verlet run ...
  Unit style    : cgs
  Current step  : 0
  Time step     : 2.15639119980374e-16
Per MPI rank memory allocation (min/avg/max) = 484.2 | 484.2 | 484.2 Mbytes
   Step          Time           Temp         c_tempH        c_tempSi        TotEng         PotEng         KinEng         Press           v_k0           v_dt        v_collfreq       v_ccs     
         0   0              5000           4999.8917      5015.8447      1.1461071e-07  1.0027476e-08  1.0458323e-07  4512019.3      1155861.6      2.1563912e-16  1.6346136e+09  6.47953e-17  
      1000   2.1563912e-13  5019.7196      5019.6423      5032.49        1.1499248e-07  9.9967756e-09  1.049957e-07   4527599.2      1155861.6      2.1563912e-16  1.6346136e+09  6.47953e-17  
      2000   4.3127824e-13  4999.3999      4999.3213      5012.2741      1.1456355e-07  9.9928723e-09  1.0457068e-07  4510818.6      1155861.6      2.1563912e-16  1.6346136e+09  6.47953e-17  
Loop time of 6.29432 on 1 procs for 2000 steps with 101000 atoms

100.0% CPU use with 1 MPI tasks x 1 OpenMP threads

MPI task timing breakdown:
Section |  min time  |  avg time  |  max time  |%varavg| %total
---------------------------------------------------------------
Pair    | 1.5834     | 1.5834     | 1.5834     |   0.0 | 25.16
Neigh   | 1.4948     | 1.4948     | 1.4948     |   0.0 | 23.75
Comm    | 0.77962    | 0.77962    | 0.77962    |   0.0 | 12.39
Output  | 0.017307   | 0.017307   | 0.017307   |   0.0 |  0.27
Modify  | 1.8035     | 1.8035     | 1.8035     |   0.0 | 28.65
Other   |            | 0.6157     |            |       |  9.78

Nlocal:         101000 ave      101000 max      101000 min
Histogram: 1 0 0 0 0 0 0 0 0 0
Nghost:         105497 ave      105497 max      105497 min
Histogram: 1 0 0 0 0 0 0 0 0 0
Neighs:              0 ave           0 max           0 min
Histogram: 1 0 0 0 0 0 0 0 0 0
FullNghs:  1.04168e+08 ave 1.04168e+08 max 1.04168e+08 min
Histogram: 1 0 0 0 0 0 0 0 0 0

Total # of neighbors = 1.0416772e+08
Ave neighs/atom = 1031.3636
Neighbor list builds = 1
Dangerous builds = 0


---------------------------------------------------------------------
      Device Time Info (average): 
---------------------------------------------------------------------
Data Transfer:   0.2503 s.
Neighbor copy:   0.1360 s.
Neighbor unpack: 0.0000 s.
Force calc:      0.8503 s.
Device Overhead: 0.0766 s.
CPU Cast/Pack:   0.7560 s.
CPU Driver_Time: 0.0252 s.
CPU Idle_Time:   0.7039 s.
Average split:   1.0000.
Max Mem / Proc:  559.24 MB.
Prefetch mode:   None.
Vector width:    32.
Lanes / atom:    4.
Pair block:      256.
Neigh block:     128.
Neigh mode:      Host.
---------------------------------------------------------------------


--------------------------------------------------------------------------
- Using acceleration for yukawa:
-  with 1 proc(s) per device.
-  with 1 thread(s) per proc.
-  Horizontal vector operations: ENABLED
-  Shared memory system: No
--------------------------------------------------------------------------
Device 0: NVIDIA H200, 132 CUs, 1.4e+02/1.4e+02 GB, 2 GHZ (Mixed Precision)
--------------------------------------------------------------------------

Initializing Device and compiling on process 0...Done.
Initializing Device 0 on core 0...Done.

Generated 0 of 1 mixed pair_coeff terms from geometric mixing rule
Setting up Verlet run ...
  Unit style    : cgs
  Current step  : 2000
  Time step     : 2.15639119980374e-16
Per MPI rank memory allocation (min/avg/max) = 488 | 488 | 488 Mbytes
   Step          Time           Temp         c_tempH        c_tempSi        TotEng         PotEng         KinEng         Press     
      2000   4.3127824e-13  14414.024      4999.3213      956831.73      3.1148592e-07  9.9928723e-09  3.0149305e-07  12233621     
      3000   6.4691736e-13  14414.378      4999.7189      956827.73      3.1148427e-07  9.9838166e-09  3.0150045e-07  12233614     
      4000   8.6255648e-13  14414.716      5000.0964      956824.08      3.1148363e-07  9.9761118e-09  3.0150752e-07  12233643     
      5000   1.0781956e-12  14414.769      5000.2415      956814.89      3.1148269e-07  9.9740691e-09  3.0150862e-07  12233554     
      6000   1.2938347e-12  14414.965      5000.5358      956805.28      3.1148199e-07  9.969265e-09   3.0151273e-07  12233551     
      7000   1.5094738e-12  14415.416      5001.1575      956788.69      3.1148199e-07  9.9598214e-09  3.0152217e-07  12233696     
      8000   1.725113e-12   14415.302      5001.138       956779.07      3.1148138e-07  9.9616083e-09  3.0151978e-07  12233582     
      9000   1.9407521e-12  14415.581      5001.4631      956774.7       3.1148042e-07  9.9548146e-09  3.0152561e-07  12233612     
     10000   2.1563912e-12  14415.956      5002.0735      956751.56      3.1147945e-07  9.9459947e-09  3.0153346e-07  12233703     
     11000   2.3720303e-12  14415.915      5002.0572      956749.04      3.1148069e-07  9.9480923e-09  3.015326e-07   12233772     
     12000   2.5876694e-12  14416.007      5002.2208      956741.91      3.1148241e-07  9.9478962e-09  3.0153451e-07  12233934     
     13000   2.8033086e-12  14415.591      5001.7624      956745.81      3.1148196e-07  9.9561352e-09  3.0152583e-07  12233756     
     14000   3.0189477e-12  14415.546      5001.8344      956734.03      3.114818e-07   9.9569181e-09  3.0152488e-07  12233738     
     15000   3.2345868e-12  14415.472      5001.9476      956715.23      3.1148128e-07  9.9579412e-09  3.0152333e-07  12233679     
     16000   3.4502259e-12  14415.542      5002.3136      956685.64      3.114824e-07   9.9576119e-09  3.0152479e-07  12233769     
     17000   3.665865e-12   14415.637      5002.4738      956679.26      3.1148213e-07  9.9553421e-09  3.0152679e-07  12233772     
     18000   3.8815042e-12  14415.528      5002.4519      956670.41      3.1148215e-07  9.9576459e-09  3.0152451e-07  12233715     
     19000   4.0971433e-12  14415.621      5002.5535      956669.59      3.1148163e-07  9.9551865e-09  3.0152644e-07  12233707     
     20000   4.3127824e-12  14415.985      5003.0884      956652.88      3.1148122e-07  9.9471637e-09  3.0153406e-07  12233816     
     21000   4.5284215e-12  14415.577      5002.9044      956630.01      3.1148125e-07  9.95573e-09    3.0152552e-07  12233648     
     22000   4.7440606e-12  14415.759      5003.1623      956622.61      3.1148225e-07  9.9529165e-09  3.0152933e-07  12233785     
     23000   4.9596998e-12  14415.762      5003.0731      956631.83      3.1148232e-07  9.9529373e-09  3.0152939e-07  12233781     
     24000   5.1753389e-12  14415.867      5003.2327      956626.5       3.1148226e-07  9.9506715e-09  3.0153159e-07  12233828     
     25000   5.390978e-12   14415.805      5003.2923      956614.31      3.1148111e-07  9.9508063e-09  3.015303e-07   12233756     
     26000   5.6066171e-12  14416.074      5003.5909      956611.55      3.1148102e-07  9.945102e-09   3.0153592e-07  12233851     
     27000   5.8222562e-12  14415.94       5003.6469      956592.44      3.1148088e-07  9.9477525e-09  3.0153312e-07  12233772     
     28000   6.0378954e-12  14415.792      5003.5202      956590.14      3.1148062e-07  9.9505954e-09  3.0153002e-07  12233690     
     29000   6.2535345e-12  14415.863      5003.6926      956580.03      3.114808e-07   9.9492945e-09  3.015315e-07   12233713     
     30000   6.4691736e-12  14416.084      5003.8655      956585.12      3.1147974e-07  9.9436091e-09  3.0153614e-07  12233731     
     31000   6.6848127e-12  14415.649      5003.6144      956566.26      3.114801e-07   9.9530716e-09  3.0152703e-07  12233572     
     32000   6.9004518e-12  14415.989      5003.8782      956574.19      3.1148022e-07  9.9460833e-09  3.0153414e-07  12233698     
     33000   7.116091e-12   14415.897      5003.8767      956565.1       3.1148142e-07  9.9491941e-09  3.0153223e-07  12233752     
     34000   7.3317301e-12  14415.811      5003.844       956559.61      3.1148134e-07  9.9509321e-09  3.0153041e-07  12233769     
     35000   7.5473692e-12  14415.362      5003.4478      956553.95      3.1148193e-07  9.9608987e-09  3.0152104e-07  12233674     
     36000   7.7630083e-12  14415.379      5003.638       956536.63      3.1148261e-07  9.9612162e-09  3.0152139e-07  12233746     
     37000   7.9786474e-12  14415.265      5003.7576      956513.12      3.1148399e-07  9.9649877e-09  3.01519e-07    12233799     
     38000   8.1942866e-12  14415.351      5003.869       956510.67      3.1148521e-07  9.964405e-09   3.015208e-07   12233917     
     39000   8.4099257e-12  14415.293      5004.0053      956491.19      3.1148495e-07  9.9653534e-09  3.015196e-07   12233892     
     40000   8.6255648e-12  14414.963      5003.6759      956490.72      3.1148507e-07  9.9723914e-09  3.0151268e-07  12233778     
     41000   8.8412039e-12  14414.857      5003.7098      956476.62      3.114856e-07   9.9751389e-09  3.0151046e-07  12233758     
     42000   9.056843e-12   14415.189      5003.9841      956482.76      3.1148476e-07  9.9673434e-09  3.0151741e-07  12233834     
     43000   9.2724822e-12  14415.149      5004.0358      956473.5       3.1148346e-07  9.9668878e-09  3.0151657e-07  12233724     
     44000   9.4881213e-12  14415.506      5004.3345      956479.69      3.1148239e-07  9.9583521e-09  3.0152403e-07  12233786     
     45000   9.7037604e-12  14415.382      5004.2197      956478.68      3.1148217e-07  9.9607226e-09  3.0152145e-07  12233714     
     46000   9.9193995e-12  14415.403      5004.1718      956485.61      3.1148219e-07  9.960298e-09   3.0152189e-07  12233701     
     47000   1.0135039e-11  14415.745      5004.6638      956470.91      3.1148292e-07  9.9538758e-09  3.0152904e-07  12233854     
     48000   1.0350678e-11  14415.631      5004.5246      956473.38      3.1148233e-07  9.9556693e-09  3.0152667e-07  12233754     
     49000   1.0566317e-11  14415.671      5004.7725      956452.52      3.1148223e-07  9.9547439e-09  3.0152749e-07  12233753     
     50000   1.0781956e-11  14415.741      5004.9303      956443.85      3.1148244e-07  9.9534818e-09  3.0152896e-07  12233797     
     51000   1.0997595e-11  14415.734      5005.1463      956421.55      3.1148228e-07  9.9534581e-09  3.0152882e-07  12233813     
     52000   1.1213234e-11  14415.558      5005.1723      956401.1       3.1148205e-07  9.9569195e-09  3.0152513e-07  12233747     
     53000   1.1428873e-11  14415.603      5005.7319      956349.6       3.1148207e-07  9.9560075e-09  3.0152606e-07  12233755     
     54000   1.1644512e-11  14415.412      5005.3233      956371.23      3.1148208e-07  9.9600018e-09  3.0152208e-07  12233657     
     55000   1.1860152e-11  14415.659      5005.6116      956367.32      3.1148173e-07  9.9544929e-09  3.0152723e-07  12233721     
     56000   1.2075791e-11  14415.542      5005.5302      956363.72      3.1148149e-07  9.9566868e-09  3.015248e-07   12233668     
     57000   1.229143e-11   14415.489      5005.5114      956360.2       3.114814e-07   9.9577091e-09  3.0152369e-07  12233669     
     58000   1.2507069e-11  14415.144      5005.2198      956354.52      3.114808e-07   9.9643278e-09  3.0151647e-07  12233518     
     59000   1.2722708e-11  14415.284      5005.3307      956357.56      3.1148124e-07  9.9618422e-09  3.015194e-07   12233603     
     60000   1.2938347e-11  14415.082      5005.2859      956341.59      3.114806e-07   9.9654304e-09  3.0151517e-07  12233480     
     61000   1.3153986e-11  14415.279      5005.5562      956334.53      3.1148109e-07  9.9617917e-09  3.015193e-07   12233590     
     62000   1.3369625e-11  14415.278      5005.6919      956320.82      3.1148128e-07  9.9620031e-09  3.0151928e-07  12233604     
     63000   1.3585265e-11  14415.264      5005.8408      956304.49      3.1148168e-07  9.9626966e-09  3.0151898e-07  12233617     
     64000   1.3800904e-11  14415.767      5006.3373      956305.62      3.1148189e-07  9.9523905e-09  3.015295e-07   12233822     
     65000   1.4016543e-11  14415.747      5006.6024      956277.06      3.1148189e-07  9.9528099e-09  3.0152908e-07  12233808     
     66000   1.4232182e-11  14415.587      5006.5321      956267.9       3.1148057e-07  9.9548419e-09  3.0152573e-07  12233677     
     67000   1.4447821e-11  14415.595      5006.4279      956279.2       3.1148104e-07  9.9551262e-09  3.0152591e-07  12233688     
     68000   1.466346e-11   14415.43       5006.1826      956287.02      3.1148088e-07  9.9584375e-09  3.0152245e-07  12233563     
     69000   1.4879099e-11  14415.985      5007.1041      956250.87      3.1148014e-07  9.9460872e-09  3.0153405e-07  12233706     
     70000   1.5094738e-11  14416.334      5007.5391      956242.66      3.1147963e-07  9.9382653e-09  3.0154136e-07  12233795     
     71000   1.5310378e-11  14416.281      5007.6532      956225.84      3.1148028e-07  9.9400328e-09  3.0154025e-07  12233805     
     72000   1.5526017e-11  14415.995      5007.5294      956209.36      3.114803e-07   9.9460257e-09  3.0153427e-07  12233695     
     73000   1.5741656e-11  14416.148      5007.73        956204.76      3.1148041e-07  9.9429317e-09  3.0153747e-07  12233761     
     74000   1.5957295e-11  14416.195      5007.7786      956204.68      3.1148158e-07  9.9431171e-09  3.0153846e-07  12233866     
     75000   1.6172934e-11  14415.924      5007.6596      956189.16      3.1148168e-07  9.9488953e-09  3.0153279e-07  12233790     
     76000   1.6388573e-11  14416.054      5007.8719      956181         3.1148247e-07  9.9469746e-09  3.015355e-07   12233908     
     77000   1.6604212e-11  14415.976      5007.8594      956174.44      3.1148242e-07  9.9485408e-09  3.0153388e-07  12233883     
     78000   1.6819851e-11  14416.099      5008.0312      956169.64      3.1148057e-07  9.9441214e-09  3.0153645e-07  12233830     
     79000   1.703549e-11   14415.938      5007.8928      956167.24      3.1148086e-07  9.9477769e-09  3.0153308e-07  12233775     
     80000   1.725113e-11   14416.003      5007.8611      956176.94      3.1148022e-07  9.9457845e-09  3.0153443e-07  12233745     
     81000   1.7466769e-11  14415.978      5007.8618      956174.4       3.1147981e-07  9.9458898e-09  3.0153392e-07  12233728     
     82000   1.7682408e-11  14415.76       5007.736       956164.88      3.1148004e-07  9.9506883e-09  3.0152935e-07  12233668     
     83000   1.7898047e-11  14415.325      5007.4444      956150.1       3.1148087e-07  9.9606182e-09  3.0152025e-07  12233558     
     84000   1.8113686e-11  14415.273      5007.3885      956150.49      3.1148115e-07  9.9619805e-09  3.0151917e-07  12233563     
     85000   1.8329325e-11  14415.52       5007.7257      956141.7       3.1148002e-07  9.9556827e-09  3.0152434e-07  12233588     
     86000   1.8544964e-11  14415.601      5007.8206      956140.38      3.1148035e-07  9.9543212e-09  3.0152603e-07  12233639     
     87000   1.8760603e-11  14415.937      5008.1093      956145.45      3.1148002e-07  9.9469634e-09  3.0153306e-07  12233733     
     88000   1.8976243e-11  14415.661      5007.8779      956140.72      3.1147981e-07  9.9525223e-09  3.0152729e-07  12233609     
     89000   1.9191882e-11  14415.715      5008.0062      956133.32      3.1148054e-07  9.9521288e-09  3.0152842e-07  12233691     
     90000   1.9407521e-11  14415.799      5008.6643      956075.93      3.1148065e-07  9.9504846e-09  3.0153017e-07  12233741     
     91000   1.962316e-11   14415.108      5008.1639      956056.18      3.1148184e-07  9.9661249e-09  3.0151572e-07  12233544     
     92000   1.9838799e-11  14415.689      5008.8858      956042.64      3.1148037e-07  9.9524953e-09  3.0152787e-07  12233671     
     93000   2.0054438e-11  14415.911      5009.2205      956031.55      3.1148152e-07  9.9490155e-09  3.0153251e-07  12233806     
     94000   2.0270077e-11  14415.916      5009.2521      956028.92      3.1148161e-07  9.9489928e-09  3.0153262e-07  12233804     
     95000   2.0485716e-11  14416.188      5009.6591      956015.64      3.1148198e-07  9.9436835e-09  3.015383e-07   12233938     
     96000   2.0701356e-11  14415.799      5009.8039      955961.89      3.114819e-07   9.9517179e-09  3.0153018e-07  12233797     
     97000   2.0916995e-11  14415.663      5009.6141      955967.12      3.114818e-07   9.9544748e-09  3.0152733e-07  12233777     
     98000   2.1132634e-11  14415.498      5009.5657      955955.27      3.1148228e-07  9.9584104e-09  3.0152387e-07  12233766     
     99000   2.1348273e-11  14415.91       5010.0044      955953         3.1148251e-07  9.950023e-09   3.0153249e-07  12233940     
    100000   2.1563912e-11  14415.695      5009.9643      955935.31      3.11484e-07    9.9560015e-09  3.01528e-07    12233937     
    101000   2.1779551e-11  14415.406      5009.7211      955930.46      3.1148414e-07  9.9621808e-09  3.0152196e-07  12233823     
    102000   2.199519e-11   14415.608      5009.8637      955936.55      3.1148323e-07  9.9570538e-09  3.0152617e-07  12233858     
    103000   2.2210829e-11  14415.405      5009.5107      955951.42      3.1148293e-07  9.9609894e-09  3.0152194e-07  12233790     
    104000   2.2426468e-11  14415.133      5009.4197      955932.95      3.1148279e-07  9.9665537e-09  3.0151623e-07  12233717     
    105000   2.2642108e-11  14414.633      5009.0314      955921.27      3.1148191e-07  9.9761335e-09  3.0150577e-07  12233475     
    106000   2.2857747e-11  14415.141      5009.3866      955937.08      3.1148337e-07  9.9669663e-09  3.015164e-07   12233723     
    107000   2.3073386e-11  14415.36       5009.674       955930.47      3.1148389e-07  9.9629082e-09  3.0152099e-07  12233811     
    108000   2.3289025e-11  14415.58       5010.1115      955908.91      3.11484e-07    9.958409e-09   3.0152559e-07  12233908     
    109000   2.3504664e-11  14415.573      5010.2626      955893.06      3.1148415e-07  9.9587152e-09  3.0152544e-07  12233928     
    110000   2.3720303e-11  14415.312      5010.0009      955892.9       3.114845e-07   9.9645126e-09  3.0151998e-07  12233858     
    111000   2.3935942e-11  14415.366      5010.1006      955888.37      3.1148368e-07  9.9625672e-09  3.0152111e-07  12233856     
    112000   2.4151581e-11  14415.16       5009.9797      955879.68      3.1148374e-07  9.9669293e-09  3.0151681e-07  12233773     
    113000   2.4367221e-11  14414.987      5010.1302      955847.12      3.1148313e-07  9.9699444e-09  3.0151319e-07  12233659     
    114000   2.458286e-11   14415.175      5010.2541      955853.74      3.1148249e-07  9.9653617e-09  3.0151713e-07  12233693     
    115000   2.4798499e-11  14415.224      5010.3953      955844.59      3.1148224e-07  9.9640898e-09  3.0151815e-07  12233678     
    116000   2.5014138e-11  14415.314      5010.5711      955836         3.1148181e-07  9.9617943e-09  3.0152002e-07  12233644     
    117000   2.5229777e-11  14415.706      5010.8221      955850.57      3.1148214e-07  9.9539101e-09  3.0152823e-07  12233766     
    118000   2.5445416e-11  14415.735      5011.0147      955834.2       3.1148318e-07  9.9543433e-09  3.0152883e-07  12233824     
    119000   2.5661055e-11  14415.994      5011.2809      955833.75      3.1148293e-07  9.9486725e-09  3.0153425e-07  12233928     
    120000   2.5876694e-11  14415.607      5011.1374      955809         3.1148197e-07  9.9558108e-09  3.0152616e-07  12233723     
    121000   2.6092334e-11  14415.764      5011.3855      955799.99      3.114815e-07   9.952061e-09   3.0152943e-07  12233758     
    122000   2.6307973e-11  14415.49       5011.0602      955804.87      3.1148071e-07  9.957007e-09   3.0152371e-07  12233608     
    123000   2.6523612e-11  14415.694      5011.1951      955811.97      3.1147985e-07  9.9518794e-09  3.0152797e-07  12233633     
    124000   2.6739251e-11  14415.562      5011.133       955804.88      3.1148053e-07  9.9553138e-09  3.0152522e-07  12233612     
    125000   2.695489e-11   14415.754      5011.3805      955799.5       3.1148031e-07  9.9510792e-09  3.0152923e-07  12233665     
    126000   2.7170529e-11  14415.75       5011.5476      955782.35      3.114804e-07   9.9512612e-09  3.0152914e-07  12233679     
    127000   2.7386168e-11  14415.654      5011.653       955762.11      3.1148123e-07  9.9540884e-09  3.0152714e-07  12233739     
    128000   2.7601807e-11  14414.934      5011.0778      955746.85      3.1148205e-07  9.9699786e-09  3.0151207e-07  12233540     
    129000   2.7817446e-11  14414.721      5010.9987      955733.32      3.1148211e-07  9.9744739e-09  3.0150763e-07  12233489     
    130000   2.8033086e-11  14415.055      5011.4151      955725.4       3.1148235e-07  9.9677372e-09  3.0151462e-07  12233646     
    131000   2.8248725e-11  14415.09       5011.6044      955709.92      3.1148202e-07  9.9666826e-09  3.0151533e-07  12233627     
    132000   2.8464364e-11  14415.147      5011.7363      955702.47      3.1148242e-07  9.9658933e-09  3.0151652e-07  12233661     
    133000   2.8680003e-11  14415.667      5012.4881      955679.81      3.1148161e-07  9.9542073e-09  3.015274e-07   12233802     
    134000   2.8895642e-11  14415.534      5012.3819      955677.06      3.1148126e-07  9.9566198e-09  3.0152464e-07  12233708     
    135000   2.9111281e-11  14415.762      5012.6817      955670.05      3.1148194e-07  9.952541e-09   3.015294e-07   12233834     
    136000   2.932692e-11   14415.425      5012.3525      955668.92      3.1148194e-07  9.959591e-09   3.0152234e-07  12233709     
    137000   2.9542559e-11  14415.249      5012.2575      955660.68      3.1148227e-07  9.9635937e-09  3.0151867e-07  12233680     
    138000   2.9758199e-11  14415.151      5012.2696      955649.52      3.1148314e-07  9.9665233e-09  3.0151661e-07  12233707     
    139000   2.9973838e-11  14415.572      5012.6889      955650.15      3.1148364e-07  9.9582095e-09  3.0152543e-07  12233904     
    140000   3.0189477e-11  14415.315      5012.7884      955614.21      3.1148375e-07  9.9637e-09     3.0152005e-07  12233802     
    141000   3.0405116e-11  14415.361      5012.8012      955617.59      3.1148342e-07  9.9624006e-09  3.0152102e-07  12233790     
    142000   3.0620755e-11  14415.619      5013.0115      955622.58      3.1148262e-07  9.9562199e-09  3.015264e-07   12233833     
    143000   3.0836394e-11  14415.438      5012.9407      955611.38      3.1148377e-07  9.9611531e-09  3.0152262e-07  12233816     
    144000   3.1052033e-11  14415.252      5012.788       955607.89      3.1148294e-07  9.9642077e-09  3.0151874e-07  12233699     
    145000   3.1267672e-11  14415.342      5012.9814      955597.63      3.1148377e-07  9.9631537e-09  3.0152062e-07  12233799     
    146000   3.1483312e-11  14415.45       5013.084       955598.21      3.1148367e-07  9.9608031e-09  3.0152286e-07  12233846     
    147000   3.1698951e-11  14414.851      5012.5167      955594.53      3.1148436e-07  9.9740046e-09  3.0151035e-07  12233665     
    148000   3.191459e-11   14415.172      5012.8565      955592.92      3.1148505e-07  9.9679872e-09  3.0151706e-07  12233852     
    149000   3.2130229e-11  14415.092      5012.7679      955593.73      3.1148469e-07  9.9692981e-09  3.0151539e-07  12233808     
    150000   3.2345868e-11  14415.508      5013.2905      955583.44      3.1148469e-07  9.9606021e-09  3.0152409e-07  12233952     
    151000   3.2561507e-11  14415.142      5012.836       955591.98      3.1148346e-07  9.9670251e-09  3.0151644e-07  12233743     
    152000   3.2777146e-11  14415.168      5013.072       955570.92      3.1148358e-07  9.9666129e-09  3.0151697e-07  12233775     
    153000   3.2992785e-11  14415.064      5013.1634      955551.32      3.1148399e-07  9.969185e-09   3.0151481e-07  12233753     
    154000   3.3208424e-11  14415.197      5013.5524      955525.76      3.1148375e-07  9.9661711e-09  3.0151758e-07  12233765     
    155000   3.3424064e-11  14415.277      5013.7898      955510.12      3.1148409e-07  9.9648346e-09  3.0151925e-07  12233803     
    156000   3.3639703e-11  14415.253      5013.7645      955510.26      3.1148358e-07  9.9648184e-09  3.0151876e-07  12233765     
    157000   3.3855342e-11  14415.204      5013.7069      955510.97      3.1148344e-07  9.9657206e-09  3.0151772e-07  12233717     
    158000   3.4070981e-11  14415.341      5013.8458      955510.95      3.1148217e-07  9.9615776e-09  3.0152059e-07  12233681     
    159000   3.428662e-11   14415.534      5014.2495      955490.03      3.1148198e-07  9.9573624e-09  3.0152462e-07  12233744     
    160000   3.4502259e-11  14415.744      5014.5181      955484.39      3.114814e-07   9.9523881e-09  3.0152902e-07  12233786     
    161000   3.4717898e-11  14415.184      5014.1474      955464.92      3.1148214e-07  9.9648269e-09  3.0151731e-07  12233606     
    162000   3.4933537e-11  14415.33       5014.5049      955443.9       3.1148265e-07  9.9622873e-09  3.0152036e-07  12233703     
    163000   3.5149177e-11  14415.457      5014.6322      955443.98      3.1148331e-07  9.9602956e-09  3.0152302e-07  12233812     
    164000   3.5364816e-11  14415.334      5014.6229      955432.48      3.1148342e-07  9.9629776e-09  3.0152045e-07  12233792     
    165000   3.5580455e-11  14415.013      5014.3968      955422.7       3.1148302e-07  9.9692807e-09  3.0151374e-07  12233652     
    166000   3.5796094e-11  14415.181      5014.9195      955387.33      3.1148329e-07  9.9660467e-09  3.0151725e-07  12233732     
    167000   3.6011733e-11  14415.251      5015.0159      955384.71      3.1148322e-07  9.9645215e-09  3.015187e-07   12233756     
    168000   3.6227372e-11  14414.822      5014.5143      955391.54      3.1148274e-07  9.9730135e-09  3.0150973e-07  12233577     
    169000   3.6443011e-11  14414.871      5014.6857      955379.36      3.1148238e-07  9.9716222e-09  3.0151076e-07  12233600     
    170000   3.665865e-11   14414.965      5014.8827      955369.2       3.1148291e-07  9.9701727e-09  3.0151273e-07  12233658     
    171000   3.687429e-11   14415.141      5015.002       955375.05      3.1148294e-07  9.9665211e-09  3.0151642e-07  12233690     
    172000   3.7089929e-11  14415.401      5015.1758      955383.86      3.1148334e-07  9.9615005e-09  3.0152184e-07  12233796     
    173000   3.7305568e-11  14414.964      5014.7184      955385.5       3.1148265e-07  9.9699476e-09  3.015127e-07   12233589     
    174000   3.7521207e-11  14415.358      5015.1002      955387.13      3.1148221e-07  9.9612603e-09  3.0152095e-07  12233714     
    175000   3.7736846e-11  14415.224      5015.1681      955366.74      3.1148147e-07  9.9633327e-09  3.0151814e-07  12233576     
    176000   3.7952485e-11  14415.795      5015.9981      955341.42      3.1148183e-07  9.9517475e-09  3.0153009e-07  12233780     
    177000   3.8168124e-11  14416.112      5016.3324      955339.97      3.1148133e-07  9.9446232e-09  3.0153671e-07  12233873     
    178000   3.8383763e-11  14415.662      5015.9728      955330.55      3.1148082e-07  9.9535049e-09  3.0152731e-07  12233671     
    179000   3.8599402e-11  14415.744      5016.1968      955316.34      3.1148204e-07  9.9530239e-09  3.0152901e-07  12233777     
    180000   3.8815042e-11  14415.559      5016.2172      955295.68      3.1148258e-07  9.9574159e-09  3.0152516e-07  12233759     
    181000   3.9030681e-11  14415.805      5016.5446      955287.72      3.1148311e-07  9.952811e-09   3.0153029e-07  12233901     
    182000   3.924632e-11   14415.71       5016.3733      955295.24      3.1148268e-07  9.9543742e-09  3.015283e-07   12233839     
    183000   3.9461959e-11  14415.588      5016.4436      955275.91      3.1148185e-07  9.9560873e-09  3.0152576e-07  12233739     
    184000   3.9677598e-11  14415.846      5016.7106      955275.22      3.1148089e-07  9.9497491e-09  3.0153115e-07  12233767     
    185000   3.9893237e-11  14415.592      5016.6349      955257.13      3.1148127e-07  9.9554326e-09  3.0152583e-07  12233672     
    186000   4.0108876e-11  14415.628      5016.8743      955236.78      3.1148118e-07  9.9545997e-09  3.0152658e-07  12233679     
    187000   4.0324515e-11  14415.875      5017.1968      955229.52      3.1148111e-07  9.9493546e-09  3.0153176e-07  12233782     
    188000   4.0540155e-11  14415.313      5016.6787      955224.59      3.1148113e-07  9.9611226e-09  3.0152001e-07  12233594     
    189000   4.0755794e-11  14415.074      5016.4158      955226.76      3.114816e-07   9.9665841e-09  3.0151502e-07  12233562     
    190000   4.0971433e-11  14415.198      5016.7804      955202.76      3.1148063e-07  9.9630275e-09  3.015176e-07   12233558     
    191000   4.1187072e-11  14415.212      5016.7341      955208.8       3.114809e-07   9.9630111e-09  3.0151789e-07  12233558     
    192000   4.1402711e-11  14415.464      5017.1146      955196.19      3.1148188e-07  9.9587216e-09  3.0152316e-07  12233711     
    193000   4.161835e-11   14415.146      5016.8786      955187.68      3.1148175e-07  9.9652345e-09  3.0151651e-07  12233572     
    194000   4.1833989e-11  14415.462      5017.2922      955178.23      3.1148182e-07  9.9586987e-09  3.0152312e-07  12233694     
    195000   4.2049628e-11  14415.443      5017.1896      955186.62      3.1148224e-07  9.959502e-09   3.0152273e-07  12233708     
    196000   4.2265268e-11  14415.633      5017.8016      955144.51      3.1148284e-07  9.956146e-09   3.015267e-07   12233818     
    197000   4.2480907e-11  14415.664      5017.9288      955134.9       3.1148213e-07  9.9547824e-09  3.0152734e-07  12233795     
    198000   4.2696546e-11  14415.754      5018.0199      955134.92      3.1148279e-07  9.9535616e-09  3.0152923e-07  12233865     
    199000   4.2912185e-11  14415.581      5018.0599      955113.44      3.1148256e-07  9.9569452e-09  3.0152562e-07  12233779     
    200000   4.3127824e-11  14415.493      5017.9842      955112.08      3.1148244e-07  9.9586708e-09  3.0152377e-07  12233741     
    201000   4.3343463e-11  14415.563      5018.1739      955100.19      3.1148306e-07  9.9578268e-09  3.0152524e-07  12233796     
    202000   4.3559102e-11  14415.678      5018.3663      955092.55      3.1148348e-07  9.9558337e-09  3.0152764e-07  12233868     
    203000   4.3774741e-11  14415.811      5018.7002      955072.61      3.1148266e-07  9.9522277e-09  3.0153043e-07  12233890     
    204000   4.399038e-11   14415.567      5018.6237      955055.55      3.1148217e-07  9.9568481e-09  3.0152532e-07  12233760     
    205000   4.420602e-11   14415.397      5018.5245      955048.31      3.1148142e-07  9.9596548e-09  3.0152176e-07  12233653     
    206000   4.4421659e-11  14414.947      5018.3382      955021.46      3.1148237e-07  9.9700207e-09  3.0151235e-07  12233558     
    207000   4.4637298e-11  14415.289      5018.6602      955023.76      3.1148278e-07  9.9632811e-09  3.015195e-07   12233727     
    208000   4.4852937e-11  14415.409      5018.7308      955028.91      3.1148381e-07  9.9617901e-09  3.0152202e-07  12233823     
    209000   4.5068576e-11  14415.344      5018.7296      955022.41      3.1148342e-07  9.9627645e-09  3.0152065e-07  12233776     
    210000   4.5284215e-11  14415.271      5018.7021      955017.81      3.114827e-07   9.9635631e-09  3.0151913e-07  12233712     
    211000   4.5499854e-11  14415.335      5018.7229      955022.16      3.1148321e-07  9.9627411e-09  3.0152046e-07  12233752     
    212000   4.5715493e-11  14415.245      5018.6981      955015.57      3.1148224e-07  9.9636582e-09  3.0151859e-07  12233627     
    213000   4.5931133e-11  14415.399      5019.208       954980.13      3.114823e-07   9.960482e-09   3.0152181e-07  12233671     
    214000   4.6146772e-11  14415.958      5019.9947      954957.84      3.1148176e-07  9.9482665e-09  3.0153349e-07  12233863     
    215000   4.6362411e-11  14415.668      5019.7229      954955.76      3.114818e-07   9.95436e-09    3.0152744e-07  12233768     
    216000   4.657805e-11   14414.656      5019.0649      954919.3       3.1148159e-07  9.9753201e-09  3.0150627e-07  12233376     
    217000   4.6793689e-11  14414.89       5019.4392      954905.51      3.1148106e-07  9.9698924e-09  3.0151116e-07  12233439     
    218000   4.7009328e-11  14415.368      5019.9537      954902.27      3.1148154e-07  9.9603882e-09  3.0152115e-07  12233635     
    219000   4.7224967e-11  14415.671      5020.3662      954891.68      3.11482e-07    9.9545037e-09  3.015275e-07   12233779     
    220000   4.7440606e-11  14415.92       5020.7228      954881.11      3.1148262e-07  9.9499197e-09  3.015327e-07   12233922     
    221000   4.7656246e-11  14415.867      5021.0322      954844.75      3.1148253e-07  9.9509482e-09  3.0153158e-07  12233896     
    222000   4.7871885e-11  14415.786      5021.1801      954821.85      3.114819e-07   9.9519953e-09  3.0152991e-07  12233824     
    223000   4.8087524e-11  14415.798      5021.2933      954811.65      3.114809e-07   9.9507547e-09  3.0153014e-07  12233757     
    224000   4.8303163e-11  14415.479      5021.0062      954808.14      3.114816e-07   9.9581248e-09  3.0152347e-07  12233682     
    225000   4.8518802e-11  14415.595      5021.2642      954794.05      3.1148238e-07  9.9564826e-09  3.015259e-07   12233779     
    226000   4.8734441e-11  14415.995      5021.4543      954815.45      3.1148248e-07  9.9482183e-09  3.0153426e-07  12233929     
    227000   4.895008e-11   14416.038      5021.4703      954818.21      3.1148253e-07  9.947364e-09   3.0153517e-07  12233940     
    228000   4.9165719e-11  14415.754      5021.1501      954821.58      3.1148248e-07  9.9532491e-09  3.0152923e-07  12233816     
    229000   4.9381358e-11  14415.812      5021.2208      954820.4       3.1148315e-07  9.9527022e-09  3.0153045e-07  12233878     
    230000   4.9596998e-11  14415.412      5020.9197      954810.06      3.1148281e-07  9.9607379e-09  3.0152208e-07  12233727     
    231000   4.9812637e-11  14415.899      5021.5629      954794.95      3.1148257e-07  9.9502982e-09  3.0153227e-07  12233944     
    232000   5.0028276e-11  14415.689      5021.5325      954776.76      3.1148222e-07  9.9543452e-09  3.0152788e-07  12233859     
    233000   5.0243915e-11  14415.495      5021.2248      954787.91      3.1148281e-07  9.9589925e-09  3.0152381e-07  12233801     
    234000   5.0459554e-11  14415.655      5021.4947      954777.11      3.1148258e-07  9.9554161e-09  3.0152717e-07  12233828     
    235000   5.0675193e-11  14415.544      5021.4828      954767.06      3.1148139e-07  9.9565448e-09  3.0152484e-07  12233680     
    236000   5.0890832e-11  14415.679      5021.599       954769.04      3.1148032e-07  9.9526564e-09  3.0152766e-07  12233638     
    237000   5.1106471e-11  14415.963      5021.6814      954789.48      3.1148143e-07  9.947839e-09   3.015336e-07   12233806     
    238000   5.1322111e-11  14415.841      5021.6563      954779.71      3.1147971e-07  9.9486592e-09  3.0153105e-07  12233678     
    239000   5.153775e-11   14415.831      5021.719       954772.37      3.1148064e-07  9.9498101e-09  3.0153083e-07  12233749     
    240000   5.1753389e-11  14416.004      5021.9534      954766.45      3.1148152e-07  9.9470588e-09  3.0153446e-07  12233874     
    241000   5.1969028e-11  14415.707      5021.5923      954772.57      3.114822e-07   9.9539546e-09  3.0152825e-07  12233799     
    242000   5.2184667e-11  14415.456      5021.4474      954761.65      3.114812e-07   9.9582088e-09  3.0152299e-07  12233647     
    243000   5.2400306e-11  14415.617      5021.4969      954772.99      3.1148209e-07  9.9557325e-09  3.0152636e-07  12233766     
    244000   5.2615945e-11  14415.442      5021.551       954749.88      3.1148208e-07  9.9593827e-09  3.015227e-07   12233695     
    245000   5.2831584e-11  14415.728      5021.9145      954742.42      3.1148171e-07  9.9530301e-09  3.0152868e-07  12233776     
    246000   5.3047224e-11  14415.652      5022.0678      954719.39      3.1148114e-07  9.9540494e-09  3.0152709e-07  12233702     
    247000   5.3262863e-11  14415.823      5022.159       954727.57      3.1148116e-07  9.9504811e-09  3.0153068e-07  12233772     
    248000   5.3478502e-11  14415.428      5021.9305      954710.54      3.1148116e-07  9.958738e-09   3.0152242e-07  12233632     
    249000   5.3694141e-11  14415.49       5022.2205      954687.74      3.1148136e-07  9.9576524e-09  3.0152371e-07  12233655     
    250000   5.390978e-11   14415.954      5022.8002      954676.64      3.1148123e-07  9.9478065e-09  3.0153342e-07  12233801     
    251000   5.4125419e-11  14415.706      5022.5853      954673.09      3.114819e-07   9.9536684e-09  3.0152823e-07  12233727     
    252000   5.4341058e-11  14416.019      5022.8166      954681.54      3.1148152e-07  9.946746e-09   3.0153477e-07  12233832     
    253000   5.4556697e-11  14415.547      5022.5965      954655.82      3.1148138e-07  9.956489e-09   3.0152489e-07  12233671     
    254000   5.4772336e-11  14415.553      5022.6648      954649.67      3.1148051e-07  9.9554761e-09  3.0152503e-07  12233661     
    255000   5.4987976e-11  14415.345      5022.4531      954649.74      3.1148157e-07  9.9609065e-09  3.0152066e-07  12233647     
    256000   5.5203615e-11  14415.249      5022.4787      954637.49      3.1148209e-07  9.9634356e-09  3.0151866e-07  12233635     
    257000   5.5419254e-11  14415.404      5022.9649      954604.57      3.1148238e-07  9.9604581e-09  3.0152192e-07  12233721     
    258000   5.5634893e-11  14415.386      5022.9954      954599.67      3.1148275e-07  9.9612099e-09  3.0152154e-07  12233745     
    259000   5.5850532e-11  14415.271      5022.9466      954592.94      3.1148182e-07  9.9626912e-09  3.0151913e-07  12233648     
    260000   5.6066171e-11  14415.431      5023.0763      954596.07      3.1148151e-07  9.959039e-09   3.0152247e-07  12233698     
    261000   5.628181e-11   14415.261      5023.1873      954567.85      3.1148122e-07  9.9622902e-09  3.0151893e-07  12233615     
    262000   5.6497449e-11  14415.193      5023.3365      954545.99      3.1148168e-07  9.9641843e-09  3.0151749e-07  12233611     
    263000   5.6713089e-11  14415.287      5023.4003      954549.12      3.1148169e-07  9.9622263e-09  3.0151946e-07  12233637     
    264000   5.6928728e-11  14415.315      5023.511       954540.85      3.1148132e-07  9.9612731e-09  3.0152004e-07  12233624     
    265000   5.7144367e-11  14415.594      5023.8972      954530.4       3.1148198e-07  9.9561008e-09  3.0152588e-07  12233759     
    266000   5.7360006e-11  14415.936      5024.2943      954525.21      3.114814e-07   9.9483745e-09  3.0153303e-07  12233855     
    267000   5.7575645e-11  14415.752      5024.2355      954512.51      3.1148207e-07  9.952881e-09   3.0152919e-07  12233824     
    268000   5.7791284e-11  14415.638      5024.0165      954522.97      3.1148212e-07  9.9553104e-09  3.0152681e-07  12233786     
    269000   5.8006923e-11  14415.509      5023.7969      954531.87      3.1148242e-07  9.9583139e-09  3.0152411e-07  12233747     
    270000   5.8222562e-11  14415.558      5023.8809      954528.43      3.1148214e-07  9.9569999e-09  3.0152514e-07  12233732     
    271000   5.8438202e-11  14415.757      5024.1993      954516.7       3.1148204e-07  9.9527408e-09  3.015293e-07   12233790     
    272000   5.8653841e-11  14415.763      5024.1821      954519.02      3.1148166e-07  9.9522351e-09  3.0152942e-07  12233762     
    273000   5.886948e-11   14416.078      5024.4931      954519.68      3.1148101e-07  9.9450009e-09  3.01536e-07    12233847     
    274000   5.9085119e-11  14415.413      5023.9014      954511.68      3.1148146e-07  9.9593668e-09  3.0152209e-07  12233615     
    275000   5.9300758e-11  14415.163      5024.022       954474.38      3.1148066e-07  9.9637879e-09  3.0151688e-07  12233492     
    276000   5.9516397e-11  14415.472      5024.2937      954478.42      3.1148151e-07  9.9581751e-09  3.0152334e-07  12233675     
    277000   5.9732036e-11  14415.612      5024.4803      954473.88      3.1148232e-07  9.9560623e-09  3.0152626e-07  12233782     
    278000   5.9947675e-11  14415.261      5024.2198      954464.41      3.1148366e-07  9.9647547e-09  3.0151891e-07  12233737     
    279000   6.0163314e-11  14415.088      5024.1833      954450.58      3.1148461e-07  9.9693197e-09  3.0151529e-07  12233747     
    280000   6.0378954e-11  14415.259      5024.4864      954437.59      3.114834e-07   9.964523e-09   3.0151888e-07  12233744     
    281000   6.0594593e-11  14415.554      5024.8079      954435.24      3.1148333e-07  9.9582792e-09  3.0152505e-07  12233844     
    282000   6.0810232e-11  14415.512      5024.694       954442.4       3.1148279e-07  9.9586154e-09  3.0152418e-07  12233784     
    283000   6.1025871e-11  14415.385      5024.7049      954428.4       3.1148264e-07  9.9611352e-09  3.015215e-07   12233726     
    284000   6.124151e-11   14415.256      5024.6798      954417.93      3.1148229e-07  9.9634736e-09  3.0151882e-07  12233651     
    285000   6.1457149e-11  14415.286      5024.8369      954405.22      3.1148221e-07  9.9627625e-09  3.0151944e-07  12233678     
    286000   6.1672788e-11  14414.985      5024.6066      954397.81      3.1148273e-07  9.9695911e-09  3.0151314e-07  12233599     
    287000   6.1888427e-11  14415.015      5025.175       954344         3.114816e-07   9.9678228e-09  3.0151378e-07  12233536     
    288000   6.2104067e-11  14415.553      5025.7181      954343.96      3.1148125e-07  9.9562352e-09  3.0152502e-07  12233704     
    289000   6.2319706e-11  14415.495      5025.746       954335.36      3.1148166e-07  9.9578486e-09  3.0152382e-07  12233701     
    290000   6.2535345e-11  14415.198      5025.5535      954324.59      3.1148214e-07  9.9645358e-09  3.015176e-07   12233618     
    291000   6.2750984e-11  14415.532      5025.8579      954327.86      3.114819e-07   9.9573164e-09  3.0152458e-07  12233749     
    292000   6.2966623e-11  14415.25       5025.7686      954308.34      3.1148183e-07  9.9631311e-09  3.0151869e-07  12233640     
    293000   6.3182262e-11  14415.32       5026.0516      954287.05      3.1148268e-07  9.9625319e-09  3.0152015e-07  12233721     
    294000   6.3397901e-11  14415.313      5025.9538      954296.17      3.1148204e-07  9.962031e-09   3.0152001e-07  12233666     
    295000   6.361354e-11   14415.581      5026.2267      954295.92      3.1148178e-07  9.9561705e-09  3.0152561e-07  12233726     
    296000   6.382918e-11   14415.893      5026.645       954285.63      3.1148171e-07  9.949565e-09   3.0153214e-07  12233822     
    297000   6.4044819e-11  14415.508      5026.8348      954227.71      3.1148099e-07  9.9568949e-09  3.0152409e-07  12233630     
    298000   6.4260458e-11  14415.642      5027.1466      954209.98      3.1148122e-07  9.9543429e-09  3.0152688e-07  12233717     
    299000   6.4476097e-11  14415.19       5026.8889      954190.14      3.114806e-07   9.9631594e-09  3.0151744e-07  12233517     
    300000   6.4691736e-11  14415.359      5027.1611      954179.96      3.1148155e-07  9.9605761e-09  3.0152097e-07  12233651     
    301000   6.4907375e-11  14415.391      5027.3423      954165.04      3.1148256e-07  9.9609208e-09  3.0152164e-07  12233726     
    302000   6.5123014e-11  14415.24       5027.3292      954151.07      3.1148286e-07  9.9643804e-09  3.0151848e-07  12233688     
    303000   6.5338653e-11  14415.391      5027.6006      954139.22      3.1148282e-07  9.9611723e-09  3.0152164e-07  12233766     
    304000   6.5554292e-11  14414.906      5027.1393      954136.37      3.1148266e-07  9.9711535e-09  3.015115e-07   12233596     
    305000   6.5769932e-11  14415.011      5027.148       954146.1       3.1148181e-07  9.9681111e-09  3.015137e-07   12233578     
    306000   6.5985571e-11  14415.341      5027.4117      954153.06      3.1148225e-07  9.9616546e-09  3.015206e-07   12233696     
    307000   6.620121e-11   14415.598      5027.8353      954136.66      3.1148156e-07  9.9555855e-09  3.0152598e-07  12233706     
    308000   6.6416849e-11  14415.785      5028.0741      954131.62      3.1148045e-07  9.9505757e-09  3.0152988e-07  12233675     
    309000   6.6632488e-11  14416.016      5028.3097      954131.35      3.1148093e-07  9.9462253e-09  3.015347e-07   12233790     
    310000   6.6848127e-11  14415.98       5028.422       954116.48      3.1148094e-07  9.9469888e-09  3.0153395e-07  12233787     
    311000   6.7063766e-11  14415.925      5028.569       954096.2       3.1148117e-07  9.9483704e-09  3.015328e-07   12233798     
    312000   6.7279405e-11  14415.849      5028.4292      954102.58      3.1148063e-07  9.9494073e-09  3.0153122e-07  12233745     
    313000   6.7495045e-11  14415.483      5028.0611      954102.41      3.1148165e-07  9.9580873e-09  3.0152357e-07  12233648     
    314000   6.7710684e-11  14415.94       5028.5396      954100.72      3.1148142e-07  9.9482915e-09  3.0153313e-07  12233812     
    315000   6.7926323e-11  14415.545      5028.1889      954095.84      3.1148137e-07  9.956512e-09   3.0152485e-07  12233667     
    316000   6.8141962e-11  14415.207      5027.9257      954088.09      3.114823e-07   9.9644968e-09  3.015178e-07   12233601     
    317000   6.8357601e-11  14415.229      5028.0761      954075.23      3.1148228e-07  9.9640293e-09  3.0151825e-07  12233625     
    318000   6.857324e-11   14415.013      5027.836       954077.44      3.1148218e-07  9.9684446e-09  3.0151374e-07  12233557     
    319000   6.8788879e-11  14415.263      5028.016       954084.61      3.1148218e-07  9.9632347e-09  3.0151895e-07  12233658     
    320000   6.9004518e-11  14415.12       5028.0478      954067.04      3.1148181e-07  9.9658375e-09  3.0151597e-07  12233554     
    321000   6.9220158e-11  14415.66       5028.608       954065.49      3.1148095e-07  9.9536946e-09  3.0152725e-07  12233691     
    322000   6.9435797e-11  14415.757      5028.7428      954061.8       3.1148067e-07  9.9513828e-09  3.0152928e-07  12233699     
    323000   6.9651436e-11  14415.382      5028.5451      954043.69      3.1148077e-07  9.9593289e-09  3.0152144e-07  12233571     
    324000   6.9867075e-11  14415.413      5028.6694      954034.4       3.1148197e-07  9.9598789e-09  3.0152209e-07  12233668     
    325000   7.0082714e-11  14415.508      5028.8208      954028.85      3.1148038e-07  9.9563019e-09  3.0152408e-07  12233616     
    326000   7.0298353e-11  14415.427      5028.8257      954020.2       3.1148024e-07  9.9578514e-09  3.0152239e-07  12233556     
    327000   7.0513992e-11  14415.624      5029.4614      953976.44      3.1147996e-07  9.9534518e-09  3.015265e-07   12233591     
    328000   7.0729631e-11  14415.713      5029.5359      953978.01      3.1148079e-07  9.9524169e-09  3.0152837e-07  12233676     
    329000   7.094527e-11   14415.351      5029.3266      953962.34      3.1148014e-07  9.9593478e-09  3.015208e-07   12233531     
    330000   7.116091e-11   14415.227      5029.3976      953942.76      3.1148112e-07  9.9629082e-09  3.0151821e-07  12233553     
    331000   7.1376549e-11  14415.454      5029.6708      953938.3       3.114821e-07   9.9591485e-09  3.0152295e-07  12233699     
    332000   7.1592188e-11  14415.641      5029.8395      953940.35      3.1148165e-07  9.9547817e-09  3.0152687e-07  12233741     
    333000   7.1807827e-11  14415.599      5030.0174      953918.34      3.1148052e-07  9.9545216e-09  3.01526e-07    12233643     
    334000   7.2023466e-11  14416.225      5030.557       953927.57      3.1148144e-07  9.9423541e-09  3.0153908e-07  12233929     
    335000   7.2239105e-11  14415.854      5030.4046      953905.35      3.1148192e-07  9.9505946e-09  3.0153133e-07  12233809     
    336000   7.2454744e-11  14416.096      5030.7494      953895.24      3.1148083e-07  9.9444482e-09  3.0153638e-07  12233859     
    337000   7.2670383e-11  14415.928      5030.7443      953878.84      3.1148069e-07  9.9478099e-09  3.0153288e-07  12233786     
    338000   7.2886023e-11  14415.679      5030.651       953862.93      3.1148152e-07  9.9538629e-09  3.0152765e-07  12233753     
    339000   7.3101662e-11  14415.357      5030.3284      953862.66      3.1148158e-07  9.9606602e-09  3.0152092e-07  12233628     
    340000   7.3317301e-11  14415.289      5030.4476      953843.93      3.1148134e-07  9.9618276e-09  3.0151951e-07  12233581     
    341000   7.353294e-11   14415.6        5030.8219      953837.85      3.11482e-07    9.9559979e-09  3.0152601e-07  12233742     
    342000   7.3748579e-11  14415.645      5030.7916      953845.45      3.1148331e-07  9.9563604e-09  3.0152695e-07  12233845     
    343000   7.3964218e-11  14415.535      5030.7001      953843.48      3.1148407e-07  9.9594267e-09  3.0152465e-07  12233874     
    344000   7.4179857e-11  14415.276      5030.4972      953837.58      3.1148332e-07  9.964097e-09   3.0151923e-07  12233761     
    345000   7.4395496e-11  14415.121      5030.4012      953831.58      3.1148344e-07  9.9674408e-09  3.01516e-07    12233730     
    346000   7.4611136e-11  14415.429      5030.7296      953829.78      3.1148336e-07  9.9609319e-09  3.0152242e-07  12233875     
    347000   7.4826775e-11  14415.221      5030.3824      953843.49      3.1148411e-07  9.9660378e-09  3.0151807e-07  12233850     
    348000   7.5042414e-11  14414.851      5030.0728      953837.14      3.114837e-07   9.9733508e-09  3.0151035e-07  12233660     
    349000   7.5258053e-11  14414.913      5030.2767      953823         3.1148385e-07  9.9722104e-09  3.0151164e-07  12233677     
    350000   7.5473692e-11  14415.381      5030.8255      953815.4       3.1148352e-07  9.9620828e-09  3.0152144e-07  12233858     
    351000   7.5689331e-11  14414.767      5030.4689      953788.96      3.1148402e-07  9.9754417e-09  3.0150858e-07  12233668     
    352000   7.590497e-11   14415.181      5030.7545      953802.23      3.1148461e-07  9.9673722e-09  3.0151724e-07  12233863     
    353000   7.6120609e-11  14415.628      5031.3434      953788.47      3.1148341e-07  9.9568224e-09  3.0152659e-07  12233930     
    354000   7.6336248e-11  14415.231      5031.0745      953775.29      3.1148204e-07  9.9637451e-09  3.0151829e-07  12233654     
    355000   7.6551888e-11  14415.124      5031.0105      953770.86      3.1148232e-07  9.9662687e-09  3.0151605e-07  12233613     
    356000   7.6767527e-11  14415.21       5031.1732      953763.3       3.1148198e-07  9.9641207e-09  3.0151786e-07  12233612     
    357000   7.6983166e-11  14415.448      5031.5264      953751.96      3.1148262e-07  9.9597948e-09  3.0152283e-07  12233726     
    358000   7.7198805e-11  14416.019      5032.0196      953760.3       3.1148332e-07  9.9485515e-09  3.0153477e-07  12233982     
    359000   7.7414444e-11  14415.831      5031.9113      953752.18      3.1148344e-07  9.952596e-09   3.0153084e-07  12233939     
    360000   7.7630083e-11  14415.483      5031.8076      953727.35      3.1148291e-07  9.9593491e-09  3.0152356e-07  12233806     
    361000   7.7845722e-11  14415.129      5032.0688      953665.45      3.1148292e-07  9.9667595e-09  3.0151616e-07  12233671     
    362000   7.8061361e-11  14415.088      5032.298       953638.34      3.1148283e-07  9.9675338e-09  3.015153e-07   12233651     
    363000   7.8277001e-11  14415.409      5033.0492      953595.64      3.1148349e-07  9.9614673e-09  3.0152202e-07  12233810     
    364000   7.849264e-11   14415.71       5033.3756      953593.32      3.1148264e-07  9.9543415e-09  3.015283e-07   12233863     
    365000   7.8708279e-11  14415.887      5033.6018      953588.57      3.1148318e-07  9.9511719e-09  3.01532e-07    12233947     
    366000   7.8923918e-11  14415.497      5033.408       953568.62      3.1148271e-07  9.9588511e-09  3.0152386e-07  12233768     
    367000   7.9139557e-11  14415.146      5033.2452      953549.37      3.1148291e-07  9.9664045e-09  3.0151651e-07  12233657     
    368000   7.9355196e-11  14415.456      5033.6238      953542.84      3.1148357e-07  9.9605665e-09  3.01523e-07    12233841     
    369000   7.9570835e-11  14415.427      5033.6933      953532.91      3.1148387e-07  9.9614896e-09  3.0152238e-07  12233860     
    370000   7.9786474e-11  14415.346      5033.7797      953516.15      3.1148322e-07  9.9625175e-09  3.015207e-07   12233766     
    371000   8.0002114e-11  14415.56       5034.1622      953499.48      3.1148252e-07  9.9573447e-09  3.0152518e-07  12233785     
    372000   8.0217753e-11  14415.39       5033.9768      953500.82      3.1148204e-07  9.9604211e-09  3.0152161e-07  12233686     
    373000   8.0433392e-11  14415.335      5033.9458      953498.35      3.1148148e-07  9.9610177e-09  3.0152046e-07  12233628     
    374000   8.0649031e-11  14415.454      5034.1834      953486.63      3.1148059e-07  9.9576326e-09  3.0152296e-07  12233613     
    375000   8.086467e-11   14415.471      5034.4706      953459.59      3.1148138e-07  9.9580712e-09  3.0152331e-07  12233664     
    376000   8.1080309e-11  14415.689      5034.739       953454.74      3.1148091e-07  9.9530444e-09  3.0152787e-07  12233717     
    377000   8.1295948e-11  14415.651      5034.7092      953453.92      3.1148095e-07  9.9538674e-09  3.0152708e-07  12233701     
    378000   8.1511587e-11  14415.381      5034.3454      953463.02      3.1148147e-07  9.9600381e-09  3.0152143e-07  12233638     
    379000   8.1727226e-11  14415.41       5034.4374      953456.71      3.1148136e-07  9.9593372e-09  3.0152203e-07  12233670     
    380000   8.1942866e-11  14415.113      5034.2949      953440.94      3.1148107e-07  9.9652605e-09  3.0151581e-07  12233554     
    381000   8.2158505e-11  14415.125      5034.4367      953427.97      3.1148154e-07  9.9654744e-09  3.0151607e-07  12233606     
    382000   8.2374144e-11  14415.407      5034.6544      953434.68      3.1148159e-07  9.9596303e-09  3.0152196e-07  12233722     
    383000   8.2589783e-11  14415.165      5034.5593      953419.8       3.1148205e-07  9.9651371e-09  3.0151692e-07  12233648     
    384000   8.2805422e-11  14415.37       5034.7183      953424.63      3.1148219e-07  9.9609863e-09  3.0152121e-07  12233728     
    385000   8.3021061e-11  14415.468      5034.7768      953428.62      3.1148275e-07  9.9595074e-09  3.0152324e-07  12233802     
    386000   8.32367e-11    14415.282      5034.8704      953400.45      3.1148309e-07  9.9637318e-09  3.0151936e-07  12233766     
    387000   8.3452339e-11  14415.313      5035.1441      953376.16      3.1148308e-07  9.96308e-09    3.0152e-07     12233791     
    388000   8.3667979e-11  14415.124      5035.1122      953360.3       3.1148419e-07  9.9681387e-09  3.0151605e-07  12233784     
    389000   8.3883618e-11  14415.139      5035.0775      953365.27      3.1148483e-07  9.9684648e-09  3.0151637e-07  12233840     
    390000   8.4099257e-11  14414.898      5035.1862      953330         3.1148529e-07  9.9739718e-09  3.0151132e-07  12233807     
    391000   8.4314896e-11  14414.902      5035.3201      953317.04      3.1148525e-07  9.9738381e-09  3.0151141e-07  12233839     
    392000   8.4530535e-11  14414.953      5035.4909      953305.09      3.1148516e-07  9.9726834e-09  3.0151248e-07  12233848     
    393000   8.4746174e-11  14415.127      5035.7934      953292.39      3.1148456e-07  9.9684425e-09  3.0151611e-07  12233837     
    394000   8.4961813e-11  14415.192      5036.0154      953276.7       3.1148349e-07  9.9660252e-09  3.0151746e-07  12233755     
    395000   8.5177452e-11  14415.369      5036.2111      953275.02      3.1148315e-07  9.961976e-09   3.0152117e-07  12233774     
    396000   8.5393092e-11  14415.389      5036.0935      953288.82      3.1148206e-07  9.9604697e-09  3.0152159e-07  12233697     
    397000   8.5608731e-11  14415.608      5036.4576      953274.51      3.1148056e-07  9.9543919e-09  3.0152617e-07  12233662     
    398000   8.582437e-11   14415.669      5036.7458      953251.83      3.1147967e-07  9.952227e-09   3.0152745e-07  12233598     
    399000   8.6040009e-11  14415.543      5036.6981      953243.85      3.1147977e-07  9.9549638e-09  3.0152481e-07  12233533     
    400000   8.6255648e-11  14415.326      5036.6361      953228.16      3.114791e-07   9.9588248e-09  3.0152028e-07  12233403     
    401000   8.6471287e-11  14415.805      5037.3171      953208.39      3.1147923e-07  9.948937e-09   3.0153029e-07  12233599     
    402000   8.6686926e-11  14416.198      5037.7017      953209.67      3.1147869e-07  9.9401709e-09  3.0153852e-07  12233722     
    403000   8.6902565e-11  14415.859      5037.7334      953172.19      3.1147822e-07  9.9468043e-09  3.0153142e-07  12233563     
    404000   8.7118204e-11  14416.023      5038.0945      953152.63      3.114799e-07   9.945045e-09   3.0153485e-07  12233737     
    405000   8.7333844e-11  14415.584      5037.8824      953129.55      3.1148083e-07  9.9551468e-09  3.0152568e-07  12233623     
    406000   8.7549483e-11  14415.784      5038.0973      953128.19      3.1148019e-07  9.9503385e-09  3.0152986e-07  12233669     
    407000   8.7765122e-11  14415.854      5038.2912      953115.87      3.1148001e-07  9.9486905e-09  3.0153132e-07  12233693     
    408000   8.7980761e-11  14415.16       5037.872       953087.64      3.1148115e-07  9.9643533e-09  3.015168e-07   12233502     
    409000   8.81964e-11    14415.981      5038.7822      953079.59      3.1148117e-07  9.9471877e-09  3.0153398e-07  12233823     
    410000   8.8412039e-11  14415.713      5038.4114      953089.63      3.1148038e-07  9.9520042e-09  3.0152838e-07  12233669     
    411000   8.8627678e-11  14415.853      5038.5419      953090.69      3.1148057e-07  9.9492635e-09  3.015313e-07   12233766     
    412000   8.8843317e-11  14415.758      5038.5077      953084.53      3.1148183e-07  9.9525095e-09  3.0152932e-07  12233826     
    413000   8.9058957e-11  14415.548      5038.5304      953061.04      3.114823e-07   9.9573656e-09  3.0152493e-07  12233797     
    414000   8.9274596e-11  14415.133      5038.1682      953055.3       3.1148282e-07  9.966576e-09   3.0151624e-07  12233699     
    415000   8.9490235e-11  14414.768      5037.8859      953046.63      3.1148288e-07  9.9742748e-09  3.015086e-07   12233574     
    416000   8.9705874e-11  14415.408      5038.7163      953028.22      3.114835e-07   9.9615096e-09  3.0152199e-07  12233851     
    417000   8.9921513e-11  14415.425      5038.7969      953021.87      3.1148359e-07  9.9612432e-09  3.0152234e-07  12233836     
    418000   9.0137152e-11  14415.335      5039.0013      952992.31      3.114831e-07   9.9626372e-09  3.0152046e-07  12233758     
    419000   9.0352791e-11  14415.309      5038.98        952991.83      3.1148266e-07  9.9627393e-09  3.0151992e-07  12233719     
    420000   9.056843e-11   14415.338      5038.9588      952996.92      3.1148249e-07  9.9619573e-09  3.0152054e-07  12233716     
    421000   9.078407e-11   14415.511      5039.236       952986.62      3.1148256e-07  9.9584097e-09  3.0152415e-07  12233774     
    422000   9.0999709e-11  14415.495      5039.2522      952983.36      3.1148235e-07  9.9585363e-09  3.0152381e-07  12233755     
    423000   9.1215348e-11  14415.386      5039.3313      952964.41      3.1148219e-07  9.9606688e-09  3.0152152e-07  12233709     
    424000   9.1430987e-11  14415.698      5039.7968      952949.39      3.1148224e-07  9.9541848e-09  3.0152806e-07  12233824     
    425000   9.1646626e-11  14415.884      5039.9761      952950.22      3.1148307e-07  9.9511273e-09  3.0153194e-07  12233927     
    426000   9.1862265e-11  14415.675      5039.8653      952940.24      3.1148268e-07  9.9550937e-09  3.0152758e-07  12233837     
    427000   9.2077904e-11  14415.431      5039.7311      952928.99      3.1148285e-07  9.9603747e-09  3.0152248e-07  12233755     
    428000   9.2293543e-11  14415.634      5040.101       952912.45      3.1148193e-07  9.9552114e-09  3.0152672e-07  12233774     
    429000   9.2509182e-11  14415.441      5040.1169      952891.35      3.1148273e-07  9.9600488e-09  3.0152268e-07  12233726     
    430000   9.2724822e-11  14416.037      5040.6999      952893.23      3.1148312e-07  9.9479765e-09  3.0153514e-07  12233956     
    431000   9.2940461e-11  14415.79       5040.4939      952888.94      3.1148279e-07  9.9528031e-09  3.0152999e-07  12233844     
    432000   9.31561e-11    14415.55       5040.4423      952869.8       3.1148198e-07  9.957016e-09   3.0152496e-07  12233725     
    433000   9.3371739e-11  14415.328      5040.4913      952842.47      3.1148207e-07  9.9617495e-09  3.0152032e-07  12233659     
    434000   9.3587378e-11  14415.202      5040.4826      952830.58      3.1148301e-07  9.9653325e-09  3.0151768e-07  12233698     
    435000   9.3803017e-11  14415.195      5040.6234      952815.82      3.1148312e-07  9.965575e-09   3.0151754e-07  12233718     
    436000   9.4018656e-11  14415.025      5040.501       952810.87      3.1148285e-07  9.9688666e-09  3.0151398e-07  12233626     
    437000   9.4234295e-11  14414.653      5040.2635      952796.99      3.1148181e-07  9.9756144e-09  3.0150619e-07  12233408     
    438000   9.4449935e-11  14414.874      5040.5232      952793.39      3.1148121e-07  9.9703829e-09  3.0151083e-07  12233452     
    439000   9.4665574e-11  14415.235      5040.983       952783.84      3.1148125e-07  9.9628754e-09  3.0151837e-07  12233575     
    440000   9.4881213e-11  14415.3        5041.9317      952695.45      3.1148155e-07  9.9618127e-09  3.0151973e-07  12233611     
    441000   9.5096852e-11  14415.523      5042.2861      952682.55      3.1148236e-07  9.9579586e-09  3.015244e-07   12233749     
    442000   9.5312491e-11  14415.49       5042.367       952671.09      3.114824e-07   9.9586917e-09  3.0152371e-07  12233746     
    443000   9.552813e-11   14415.317      5042.3118      952659.14      3.1148273e-07  9.9626361e-09  3.0152009e-07  12233721     
    444000   9.5743769e-11  14415.211      5042.282       952651.34      3.1148343e-07  9.9655698e-09  3.0151786e-07  12233728     
    445000   9.5959408e-11  14415.517      5042.803       952630.2       3.1148375e-07  9.9594685e-09  3.0152428e-07  12233861     
    446000   9.6175048e-11  14415.472      5043.4077      952565.1       3.1148308e-07  9.959744e-09   3.0152333e-07  12233778     
    447000   9.6390687e-11  14415.981      5043.903       952566.95      3.1148289e-07  9.9489215e-09  3.0153397e-07  12233936     
    448000   9.6606326e-11  14416.104      5044.0105      952568.7       3.1148255e-07  9.9459947e-09  3.0153656e-07  12233939     
    449000   9.6821965e-11  14416.149      5044.3669      952537.58      3.1148259e-07  9.9450848e-09  3.015375e-07   12233954     
    450000   9.7037604e-11  14415.78       5044.0637      952530.54      3.1148219e-07  9.9524174e-09  3.0152977e-07  12233796     
    451000   9.7253243e-11  14415.632      5043.8161      952540.43      3.1148121e-07  9.9545251e-09  3.0152669e-07  12233697     
    452000   9.7468882e-11  14415.767      5043.9044      952545.15      3.1148315e-07  9.9536564e-09  3.0152949e-07  12233887     
    453000   9.7684521e-11  14415.191      5043.4528      952532.14      3.1148325e-07  9.9658067e-09  3.0151745e-07  12233694     
    454000   9.790016e-11   14415.197      5043.3344      952544.65      3.1148372e-07  9.966133e-09   3.0151758e-07  12233757     
    455000   9.81158e-11    14414.896      5043.2221      952525.43      3.1148384e-07  9.9725636e-09  3.0151128e-07  12233663     
    456000   9.8331439e-11  14415.014      5043.4337      952516.18      3.1148429e-07  9.9705384e-09  3.0151375e-07  12233732     
    457000   9.8547078e-11  14415.302      5043.7436      952514.33      3.1148359e-07  9.9638009e-09  3.0151978e-07  12233778     
    458000   9.8762717e-11  14415.428      5043.8619      952515.2       3.1148259e-07  9.9601771e-09  3.0152241e-07  12233736     
    459000   9.8978356e-11  14415.788      5044.1936      952518.34      3.1148202e-07  9.9520818e-09  3.0152993e-07  12233825     
    460000   9.9193995e-11  14415.796      5044.2179      952516.8       3.1148275e-07  9.9526365e-09  3.0153012e-07  12233867     
    461000   9.9409634e-11  14415.983      5044.4771      952509.75      3.1148341e-07  9.9493852e-09  3.0153403e-07  12233995     
    462000   9.9625273e-11  14415.609      5044.2139      952498.25      3.1148424e-07  9.9580415e-09  3.015262e-07   12233924     
    463000   9.9840913e-11  14415.708      5044.4783      952481.82      3.1148482e-07  9.9565438e-09  3.0152827e-07  12234031     
    464000   1.0005655e-10  14415.447      5044.3116      952472.07      3.1148445e-07  9.9616485e-09  3.0152281e-07  12233937     
    465000   1.0027219e-10  14415.124      5044.2462      952446.02      3.1148406e-07  9.967996e-09   3.0151606e-07  12233784     
    466000   1.0048783e-10  14415.06       5044.2908      952435.09      3.1148462e-07  9.9699017e-09  3.0151472e-07  12233783     
    467000   1.0070347e-10  14415.538      5044.8804      952424.32      3.1148412e-07  9.959415e-09   3.015247e-07   12233930     
    468000   1.0091911e-10  14415.581      5045.0407      952412.68      3.1148428e-07  9.9586684e-09  3.0152562e-07  12233955     
    469000   1.0113475e-10  14415.459      5045.1292      952391.45      3.1148462e-07  9.9615611e-09  3.0152306e-07  12233929     
    470000   1.0135039e-10  14415.528      5045.2666      952384.67      3.1148511e-07  9.9606119e-09  3.015245e-07   12233980     
    471000   1.0156603e-10  14415.537      5045.2231      952389.92      3.1148487e-07  9.9601809e-09  3.0152469e-07  12233982     
    472000   1.0178166e-10  14415.219      5045.1582      952364.29      3.1148419e-07  9.966152e-09   3.0151804e-07  12233831     
    473000   1.019973e-10   14415.242      5045.0953      952372.92      3.1148438e-07  9.9658619e-09  3.0151852e-07  12233832     
    474000   1.0221294e-10  14415.237      5044.9775      952384.17      3.1148413e-07  9.9657246e-09  3.0151841e-07  12233803     
    475000   1.0242858e-10  14415.143      5044.9787      952374.55      3.1148395e-07  9.9675109e-09  3.0151644e-07  12233764     
    476000   1.0264422e-10  14415.167      5045.0135      952373.49      3.1148317e-07  9.9662233e-09  3.0151694e-07  12233734     
    477000   1.0285986e-10  14415.367      5045.1338      952381.73      3.1148303e-07  9.9618834e-09  3.0152114e-07  12233794     
    478000   1.030755e-10   14415.167      5044.8934      952385.51      3.1148178e-07  9.9648315e-09  3.0151694e-07  12233640     
    479000   1.0329114e-10  14415.262      5045.0964      952374.81      3.1148226e-07  9.9633236e-09  3.0151893e-07  12233691     
    480000   1.0350678e-10  14415.609      5045.3893      952380.62      3.1148245e-07  9.9562506e-09  3.015262e-07   12233803     
    481000   1.0372242e-10  14415.855      5045.7062      952373.69      3.114821e-07   9.9507631e-09  3.0153133e-07  12233842     
    482000   1.0393806e-10  14415.75       5045.6555      952368.16      3.114819e-07   9.9527632e-09  3.0152914e-07  12233766     
    483000   1.0415369e-10  14415.595      5045.6129      952356.77      3.1148142e-07  9.9555162e-09  3.015259e-07   12233690     
    484000   1.0436933e-10  14415.315      5045.3834      952351.45      3.1148129e-07  9.9612418e-09  3.0152005e-07  12233612     
    485000   1.0458497e-10  14414.674      5044.699       952355.17      3.1148172e-07  9.9750755e-09  3.0150664e-07  12233409     
    486000   1.0480061e-10  14414.892      5044.9954      952347.52      3.1148164e-07  9.970442e-09   3.015112e-07   12233488     
    487000   1.0501625e-10  14415.77       5046.0276      952332.96      3.1148273e-07  9.9531663e-09  3.0152956e-07  12233873     
    488000   1.0523189e-10  14415.851      5046.2502      952318.88      3.1148278e-07  9.9515176e-09  3.0153126e-07  12233885     
    489000   1.0544753e-10  14415.434      5045.8555      952316.2       3.1148239e-07  9.959865e-09   3.0152253e-07  12233682     
    490000   1.0566317e-10  14415.869      5046.4093      952304.76      3.1148222e-07  9.9505917e-09  3.0153163e-07  12233848     
    491000   1.0587881e-10  14415.387      5046.1051      952286.45      3.1148169e-07  9.9601416e-09  3.0152154e-07  12233647     
    492000   1.0609445e-10  14415.369      5046.1244      952282.73      3.1148145e-07  9.9602722e-09  3.0152117e-07  12233630     
    493000   1.0631009e-10  14415.524      5046.4097      952269.88      3.1148057e-07  9.9561483e-09  3.0152442e-07  12233627     
    494000   1.0652573e-10  14415.679      5046.6349      952263.02      3.1148002e-07  9.9523523e-09  3.0152767e-07  12233655     
    495000   1.0674136e-10  14415.373      5046.4264      952252.95      3.1148004e-07  9.9587742e-09  3.0152127e-07  12233524     
    496000   1.06957e-10    14415.428      5046.4405      952257.02      3.1148055e-07  9.9581516e-09  3.015224e-07   12233555     
    497000   1.0717264e-10  14415.76       5046.8254      952252.11      3.1147967e-07  9.9503127e-09  3.0152936e-07  12233626     
    498000   1.0738828e-10  14415.518      5046.7289      952237.34      3.1148111e-07  9.9568065e-09  3.015243e-07   12233624     
    499000   1.0760392e-10  14415.903      5047.0837      952240.68      3.1148198e-07  9.949644e-09   3.0153234e-07  12233819     
    500000   1.0781956e-10  14415.858      5047.0782      952236.66      3.114828e-07   9.9514081e-09  3.015314e-07   12233858     
    501000   1.080352e-10   14415.585      5046.9578      952221.13      3.1148278e-07  9.9570878e-09  3.0152569e-07  12233786     
    502000   1.0825084e-10  14415.596      5046.8986      952228.15      3.1148334e-07  9.9574221e-09  3.0152592e-07  12233851     
    503000   1.0846648e-10  14415.331      5046.5904      952232.25      3.1148314e-07  9.9627563e-09  3.0152038e-07  12233748     
    504000   1.0868212e-10  14415.219      5046.5642      952223.57      3.1148278e-07  9.9647363e-09  3.0151804e-07  12233696     
    505000   1.0889776e-10  14415.199      5046.6776      952210.22      3.1148183e-07  9.9641972e-09  3.0151763e-07  12233623     
    506000   1.0911339e-10  14415.348      5046.8847      952204.52      3.1148222e-07  9.9614793e-09  3.0152074e-07  12233704     
    507000   1.0932903e-10  14415.556      5047.1239      952201.57      3.1148286e-07  9.9577758e-09  3.0152508e-07  12233828     
    508000   1.0954467e-10  14415.526      5047.1547      952195.52      3.1148266e-07  9.958191e-09   3.0152447e-07  12233803     
    509000   1.0976031e-10  14415.46       5047.3684      952167.47      3.1148167e-07  9.9585815e-09  3.0152309e-07  12233711     
    510000   1.0997595e-10  14415.239      5047.2852      952153.37      3.1148191e-07  9.9634623e-09  3.0151845e-07  12233629     
    511000   1.1019159e-10  14415.206      5047.1701      952161.6       3.1148162e-07  9.9638546e-09  3.0151777e-07  12233586     
    512000   1.1040723e-10  14415.692      5047.6718      952160.51      3.1148248e-07  9.9545418e-09  3.0152794e-07  12233822     
    513000   1.1062287e-10  14415.523      5047.4904      952161.62      3.1148288e-07  9.958472e-09   3.0152441e-07  12233790     
    514000   1.1083851e-10  14415.398      5047.6774      952130.18      3.1148347e-07  9.9616932e-09  3.0152178e-07  12233774     
    515000   1.1105415e-10  14415.666      5048.0844      952116.59      3.1148274e-07  9.9553509e-09  3.0152739e-07  12233845     
    516000   1.1126979e-10  14415.315      5047.8398      952105.6       3.1148338e-07  9.9633293e-09  3.0152005e-07  12233753     
    517000   1.1148543e-10  14415.368      5047.8379      952111.12      3.1148346e-07  9.9623011e-09  3.0152116e-07  12233768     
    518000   1.1170106e-10  14415.685      5048.1934      952107.55      3.1148321e-07  9.9554298e-09  3.0152778e-07  12233868     
    519000   1.119167e-10   14415.733      5048.2049      952111.24      3.1148311e-07  9.9543301e-09  3.0152878e-07  12233889     
    520000   1.1213234e-10  14415.513      5048.5774      952051.71      3.114829e-07   9.958723e-09   3.0152418e-07  12233784     
    521000   1.1234798e-10  14415.444      5048.5264      952049.89      3.114836e-07   9.9608571e-09  3.0152275e-07  12233809     
    522000   1.1256362e-10  14415.113      5048.102       952058.92      3.1148286e-07  9.9670312e-09  3.0151582e-07  12233658     
    523000   1.1277926e-10  14415.379      5048.4323      952052.68      3.1148356e-07  9.9621814e-09  3.0152138e-07  12233817     
    524000   1.129949e-10   14415.481      5048.7372      952032.58      3.1148431e-07  9.9607813e-09  3.0152353e-07  12233912     
    525000   1.1321054e-10  14415.373      5049.0237      951992.9       3.1148289e-07  9.9616355e-09  3.0152125e-07  12233794     
    526000   1.1342618e-10  14415.01       5048.7484      951983.76      3.1148206e-07  9.9683982e-09  3.0151366e-07  12233591     
    527000   1.1364182e-10  14415.179      5048.9891      951976.75      3.1148202e-07  9.9648282e-09  3.015172e-07   12233619     
    528000   1.1385746e-10  14415.561      5049.45        951969.3       3.1148032e-07  9.9551166e-09  3.015252e-07   12233635     
    529000   1.1407309e-10  14416.016      5050.0302      951957.23      3.1148116e-07  9.9464385e-09  3.0153472e-07  12233833     
    530000   1.1428873e-10  14416.138      5050.1024      951962.31      3.1148151e-07  9.9442497e-09  3.0153726e-07  12233867     
    531000   1.1450437e-10  14415.885      5049.9204      951954.94      3.1148127e-07  9.9492947e-09  3.0153197e-07  12233752     
    532000   1.1472001e-10  14415.789      5049.8768      951949.58      3.114815e-07   9.9515455e-09  3.0152996e-07  12233740     
    533000   1.1493565e-10  14415.726      5049.7697      951953.9       3.1148146e-07  9.9528257e-09  3.0152864e-07  12233728     
    534000   1.1515129e-10  14415.714      5049.841       951945.61      3.1148172e-07  9.9533274e-09  3.015284e-07   12233751     
    535000   1.1536693e-10  14415.438      5049.8212      951919.68      3.1148113e-07  9.9585088e-09  3.0152262e-07  12233631     
    536000   1.1558257e-10  14415.117      5049.4241      951926.96      3.1148206e-07  9.9661514e-09  3.015159e-07   12233590     
    537000   1.1579821e-10  14415.377      5049.8005      951915.61      3.1148283e-07  9.961479e-09   3.0152135e-07  12233743     
    538000   1.1601385e-10  14415.935      5050.3901      951912.96      3.1148343e-07  9.9504141e-09  3.0153301e-07  12233986     
    539000   1.1622949e-10  14415.886      5050.384       951908.63      3.1148334e-07  9.9513476e-09  3.0153199e-07  12233962     
    540000   1.1644512e-10  14415.664      5050.3006      951894.5       3.1148226e-07  9.954916e-09   3.0152734e-07  12233808     
    541000   1.1666076e-10  14415.469      5050.0269      951902.18      3.114824e-07   9.9591419e-09  3.0152326e-07  12233720     
    542000   1.168764e-10   14415.554      5050.0157      951911.9       3.1148204e-07  9.9569974e-09  3.0152504e-07  12233719     
    543000   1.1709204e-10  14415.56       5050.3336      951880.74      3.1148174e-07  9.9565644e-09  3.0152518e-07  12233704     
    544000   1.1730768e-10  14415.863      5050.9296      951851.7       3.1148231e-07  9.9508006e-09  3.0153151e-07  12233867     
    545000   1.1752332e-10  14416.039      5051.2297      951839.48      3.1148301e-07  9.9478126e-09  3.015352e-07   12233999     
    546000   1.1773896e-10  14415.821      5050.9733      951843.07      3.1148293e-07  9.9522947e-09  3.0153063e-07  12233939     
    547000   1.179546e-10   14415.371      5050.5438      951840.56      3.1148281e-07  9.9615906e-09  3.0152122e-07  12233771     
    548000   1.1817024e-10  14415.522      5050.7036      951839.8       3.1148375e-07  9.959379e-09   3.0152437e-07  12233898     
    549000   1.1838588e-10  14415.403      5050.6892      951829.27      3.1148448e-07  9.9625853e-09  3.0152189e-07  12233899     
    550000   1.1860152e-10  14415.067      5050.3471      951829.57      3.1148501e-07  9.9701392e-09  3.0151487e-07  12233805     
    551000   1.1881716e-10  14414.929      5050.1147      951838.81      3.1148331e-07  9.9713374e-09  3.0151197e-07  12233649     
    552000   1.1903279e-10  14415.222      5050.6027      951819.65      3.1148307e-07  9.9649602e-09  3.0151811e-07  12233731     
    553000   1.1924843e-10  14415.177      5050.6153      951813.76      3.1148264e-07  9.965488e-09   3.0151715e-07  12233660     
    554000   1.1946407e-10  14415.52       5050.9081      951819.15      3.114828e-07   9.9584633e-09  3.0152433e-07  12233758     
    555000   1.1967971e-10  14416.073      5051.3852      951827.34      3.1148116e-07  9.9452493e-09  3.0153591e-07  12233835     
    556000   1.1989535e-10  14416.072      5051.4606      951819.65      3.1148077e-07  9.9448917e-09  3.0153588e-07  12233796     
    557000   1.2011099e-10  14416.005      5051.6244      951796.47      3.114815e-07   9.947025e-09   3.0153447e-07  12233812     
    558000   1.2032663e-10  14415.918      5051.5167      951798.5       3.1148187e-07  9.9492062e-09  3.0153266e-07  12233822     
    559000   1.2054227e-10  14415.662      5051.281       951796.2       3.1148266e-07  9.9553535e-09  3.0152731e-07  12233816     
    560000   1.2075791e-10  14415.243      5050.9043      951791.57      3.114831e-07   9.9645484e-09  3.0151855e-07  12233735     
    561000   1.2097355e-10  14414.469      5050.1752      951786.32      3.1148301e-07  9.9806486e-09  3.0150236e-07  12233469     
    562000   1.2118919e-10  14414.778      5050.6322      951771.78      3.1148346e-07  9.9746455e-09  3.0150882e-07  12233628     
    563000   1.2140482e-10  14415.145      5051.1027      951761.81      3.1148447e-07  9.9679709e-09  3.015165e-07   12233825     
    564000   1.2162046e-10  14415.391      5051.5239      951744.48      3.1148417e-07  9.9625357e-09  3.0152164e-07  12233895     
    565000   1.218361e-10   14415.143      5051.1814      951753.66      3.1148437e-07  9.967928e-09   3.0151644e-07  12233808     
    566000   1.2205174e-10  14415.115      5051.2511      951743.87      3.1148399e-07  9.9681307e-09  3.0151586e-07  12233768     
    567000   1.2226738e-10  14415.4        5051.8322      951714.58      3.1148387e-07  9.9620363e-09  3.0152184e-07  12233845     
    568000   1.2248302e-10  14415.481      5051.8788      951718.05      3.1148332e-07  9.9598063e-09  3.0152352e-07  12233816     
    569000   1.2269866e-10  14415.568      5052.1365      951701.08      3.1148308e-07  9.9577318e-09  3.0152534e-07  12233835     
    570000   1.229143e-10   14415.801      5052.4294      951695.24      3.1148254e-07  9.9523401e-09  3.015302e-07   12233897     
    571000   1.2312994e-10  14415.694      5052.5001      951677.4       3.1148175e-07  9.9537721e-09  3.0152797e-07  12233804     
    572000   1.2334558e-10  14415.715      5052.5678      951672.74      3.1148206e-07  9.9536411e-09  3.0152841e-07  12233826     
    573000   1.2356122e-10  14415.695      5052.5949      951668.05      3.1148242e-07  9.9544172e-09  3.01528e-07    12233839     
    574000   1.2377685e-10  14415.514      5052.885       951620.64      3.1148138e-07  9.9571719e-09  3.015242e-07   12233707     
    575000   1.2399249e-10  14415.278      5052.7564      951609.73      3.1148165e-07  9.9623684e-09  3.0151928e-07  12233634     
    576000   1.2420813e-10  14415.504      5053.1453      951593.61      3.1148202e-07  9.9580189e-09  3.01524e-07    12233725     
    577000   1.2442377e-10  14415.653      5053.4323      951579.93      3.1148105e-07  9.9539396e-09  3.0152712e-07  12233692     
    578000   1.2463941e-10  14415.978      5053.7717      951578.85      3.1148131e-07  9.9473915e-09  3.0153392e-07  12233816     
    579000   1.2485505e-10  14415.815      5053.66        951573.57      3.1148192e-07  9.9514074e-09  3.0153051e-07  12233795     
    580000   1.2507069e-10  14415.992      5054.2504      951532.36      3.1148213e-07  9.9479137e-09  3.0153421e-07  12233899     
    581000   1.2528633e-10  14415.762      5054.0703      951527.05      3.1148271e-07  9.9533222e-09  3.0152939e-07  12233850     
    582000   1.2550197e-10  14415.623      5054.2699      951493.07      3.1148253e-07  9.9560356e-09  3.0152649e-07  12233796     
    583000   1.2571761e-10  14415.184      5054.0754      951468.2       3.1148252e-07  9.9652008e-09  3.0151732e-07  12233636     
    584000   1.2593325e-10  14415.423      5054.3829      951461.53      3.1148255e-07  9.9602461e-09  3.0152231e-07  12233743     
    585000   1.2614889e-10  14415.341      5054.4112      951450.44      3.1148311e-07  9.9625109e-09  3.015206e-07   12233747     
    586000   1.2636452e-10  14415.326      5054.5456      951435.44      3.1148344e-07  9.9631646e-09  3.0152028e-07  12233777     
    587000   1.2658016e-10  14415.244      5054.4217      951439.58      3.114825e-07   9.9639318e-09  3.0151857e-07  12233709     
    588000   1.267958e-10   14415.32       5054.4839      951441.03      3.1148201e-07  9.9618522e-09  3.0152016e-07  12233730     
    589000   1.2701144e-10  14415.026      5054.371       951422.57      3.1148113e-07  9.9671285e-09  3.01514e-07    12233543     
    590000   1.2722708e-10  14415.186      5054.6585      951410.03      3.1148042e-07  9.9630632e-09  3.0151736e-07  12233531     
    591000   1.2744272e-10  14415.382      5054.8066      951415         3.1148072e-07  9.9592657e-09  3.0152145e-07  12233603     
    592000   1.2765836e-10  14415.388      5054.9924      951397.03      3.1148169e-07  9.96011e-09    3.0152158e-07  12233654     
    593000   1.27874e-10    14415.65       5055.311       951391.62      3.1148224e-07  9.9551814e-09  3.0152706e-07  12233812     
    594000   1.2808964e-10  14414.951      5054.7974      951372.35      3.1148239e-07  9.9699535e-09  3.0151244e-07  12233556     
    595000   1.2830528e-10  14415.474      5055.4454      951360.31      3.1148137e-07  9.9579993e-09  3.0152337e-07  12233688     
    596000   1.2852092e-10  14415.418      5055.2996      951369.27      3.1148157e-07  9.9593693e-09  3.015222e-07   12233638     
    597000   1.2873655e-10  14415.681      5055.5202      951373.78      3.1148232e-07  9.954618e-09   3.015277e-07   12233754     
    598000   1.2895219e-10  14415.501      5055.2877      951378.82      3.1148208e-07  9.958147e-09   3.0152393e-07  12233660     
    599000   1.2916783e-10  14415.347      5055.3748      951354.57      3.1148276e-07  9.9620419e-09  3.0152072e-07  12233679     
    600000   1.2938347e-10  14415.161      5055.2576      951347.53      3.1148363e-07  9.9667929e-09  3.0151684e-07  12233719     
    601000   1.2959911e-10  14414.77       5055.0431      951329.41      3.1148356e-07  9.9749193e-09  3.0150864e-07  12233609     
    602000   1.2981475e-10  14414.933      5055.1786      951332.37      3.1148431e-07  9.9722483e-09  3.0151206e-07  12233728     
    603000   1.3003039e-10  14415.192      5055.3428      951342.13      3.1148271e-07  9.9652262e-09  3.0151748e-07  12233717     
    604000   1.3024603e-10  14415.199      5055.4942      951327.69      3.1148179e-07  9.9641579e-09  3.0151763e-07  12233624     
    605000   1.3046167e-10  14415.416      5055.7213      951326.86      3.1148191e-07  9.9597479e-09  3.0152216e-07  12233657     
    606000   1.3067731e-10  14415.918      5056.2978      951319.89      3.1148227e-07  9.9496169e-09  3.0153266e-07  12233836     
    607000   1.3089295e-10  14416.15       5056.5762      951315.48      3.1148143e-07  9.9439188e-09  3.0153751e-07  12233860     
    608000   1.3110858e-10  14416.311      5056.7472      951314.6       3.1148177e-07  9.9408976e-09  3.0154087e-07  12233946     
    609000   1.3132422e-10  14416.291      5056.8744      951299.9       3.114816e-07   9.9411316e-09  3.0154046e-07  12233940     
    610000   1.3153986e-10  14415.607      5056.3609      951282.14      3.1148259e-07  9.9564363e-09  3.0152616e-07  12233757     
    611000   1.317555e-10   14415.443      5056.4893      951252.71      3.1148322e-07  9.9604887e-09  3.0152273e-07  12233754     
    612000   1.3197114e-10  14415.891      5056.9368      951253.24      3.1148334e-07  9.9512402e-09  3.015321e-07   12233952     
    613000   1.3218678e-10  14415.331      5056.7328      951217.03      3.1148366e-07  9.963277e-09   3.0152039e-07  12233768     
    614000   1.3240242e-10  14415.193      5056.658       951210.54      3.114834e-07   9.9659033e-09  3.0151749e-07  12233718     
    615000   1.3261806e-10  14415.433      5056.8776      951212.85      3.1148406e-07  9.9615449e-09  3.0152252e-07  12233859     
    616000   1.328337e-10   14415.66       5057.2631      951197.16      3.1148417e-07  9.9569102e-09  3.0152726e-07  12233963     
    617000   1.3304934e-10  14415.529      5057.4949      951160.71      3.1148415e-07  9.9596349e-09  3.0152452e-07  12233922     
    618000   1.3326498e-10  14415.205      5057.1953      951157.96      3.114833e-07   9.9655577e-09  3.0151774e-07  12233736     
    619000   1.3348062e-10  14415.631      5057.7134      951149.22      3.114831e-07   9.9564364e-09  3.0152666e-07  12233866     
    620000   1.3369625e-10  14415.877      5057.8887      951156.49      3.1148384e-07  9.9520387e-09  3.015318e-07   12233986     
    621000   1.3391189e-10  14416.001      5058.126       951145.24      3.1148369e-07  9.9492988e-09  3.0153439e-07  12234033     
    622000   1.3412753e-10  14415.287      5057.4724      951138.48      3.114841e-07   9.9646449e-09  3.0151945e-07  12233790     
    623000   1.3434317e-10  14415.137      5057.3961      951131.04      3.1148309e-07  9.9667578e-09  3.0151633e-07  12233689     
    624000   1.3455881e-10  14415.598      5057.7291      951144.23      3.1148297e-07  9.9570072e-09  3.0152596e-07  12233855     
    625000   1.3477445e-10  14415.627      5057.8438      951135.73      3.1148248e-07  9.9559068e-09  3.0152658e-07  12233819     
    626000   1.3499009e-10  14415.697      5058.014       951125.74      3.1148284e-07  9.9548084e-09  3.0152803e-07  12233861     
    627000   1.3520573e-10  14415.774      5058.2043      951114.54      3.1148387e-07  9.9542106e-09  3.0152966e-07  12233948     
    628000   1.3542137e-10  14415.681      5058.3114      951094.37      3.1148328e-07  9.9555787e-09  3.015277e-07   12233878     
    629000   1.3563701e-10  14415.266      5058.0635      951077.21      3.1148255e-07  9.9635337e-09  3.0151902e-07  12233679     
    630000   1.3585265e-10  14415.417      5058.1423      951084.65      3.1148289e-07  9.9606977e-09  3.0152219e-07  12233756     
    631000   1.3606828e-10  14415.272      5058.1897      951065.23      3.1148135e-07  9.9621952e-09  3.0151915e-07  12233610     
    632000   1.3628392e-10  14415.263      5058.3841      951044.89      3.1148101e-07  9.9620404e-09  3.0151897e-07  12233602     
    633000   1.3649956e-10  14415.227      5058.4857      951031.06      3.11481e-07    9.9627893e-09  3.0151821e-07  12233610     
    634000   1.367152e-10   14415.371      5058.665       951027.62      3.1148114e-07  9.9599249e-09  3.0152121e-07  12233676     
    635000   1.3693084e-10  14415.556      5058.9078      951022.08      3.1148199e-07  9.9568985e-09  3.015251e-07   12233777     
    636000   1.3714648e-10  14415.53       5058.9422      951016         3.114819e-07   9.9573485e-09  3.0152455e-07  12233742     
    637000   1.3736212e-10  14415.628      5059.1133      951008.8       3.1148251e-07  9.9559021e-09  3.015266e-07   12233797     
    638000   1.3757776e-10  14415.664      5059.166       951007.16      3.114829e-07   9.9555446e-09  3.0152736e-07  12233835     
    639000   1.377934e-10   14415.479      5059.0237      951002.68      3.1148225e-07  9.958768e-09   3.0152348e-07  12233739     
    640000   1.3800904e-10  14415.328      5059.1861      950971.19      3.1148139e-07  9.9610628e-09  3.0152033e-07  12233642     
    641000   1.3822468e-10  14415.24       5059.2416      950956.69      3.1148141e-07  9.9629312e-09  3.0151848e-07  12233619     
    642000   1.3844032e-10  14414.967      5059.0751      950945.77      3.1148253e-07  9.9697559e-09  3.0151277e-07  12233568     
    643000   1.3865595e-10  14415.401      5059.4739      950949.74      3.1148239e-07  9.960539e-09   3.0152185e-07  12233732     
    644000   1.3887159e-10  14415.347      5059.5491      950936.68      3.1148384e-07  9.9631263e-09  3.0152071e-07  12233791     
    645000   1.3908723e-10  14415.722      5059.9537      950934.15      3.1148302e-07  9.9544602e-09  3.0152856e-07  12233892     
    646000   1.3930287e-10  14415.339      5059.4995      950940.84      3.1148286e-07  9.9623185e-09  3.0152054e-07  12233737     
    647000   1.3951851e-10  14415.37       5059.6949      950924.43      3.1148265e-07  9.9614555e-09  3.0152119e-07  12233729     
    648000   1.3973415e-10  14415.713      5060.058       950922.76      3.1148304e-07  9.9546745e-09  3.0152837e-07  12233886     
    649000   1.3994979e-10  14415.808      5060.9469      950843.39      3.1148299e-07  9.9526343e-09  3.0153036e-07  12233938     
    650000   1.4016543e-10  14415.565      5060.8501      950828.49      3.1148362e-07  9.9583559e-09  3.0152527e-07  12233894     
    651000   1.4038107e-10  14415.302      5060.6668      950820.26      3.1148297e-07  9.9632019e-09  3.0151977e-07  12233755     
    652000   1.4059671e-10  14415.059      5060.5815      950804.31      3.1148292e-07  9.9682179e-09  3.015147e-07   12233656     
    653000   1.4081235e-10  14415.252      5060.8519      950796.74      3.1148337e-07  9.9646342e-09  3.0151874e-07  12233745     
    654000   1.4102798e-10  14415.645      5061.3105      950790.56      3.1148281e-07  9.9558516e-09  3.0152696e-07  12233849     
    655000   1.4124362e-10  14415.541      5061.2491      950786.14      3.1148261e-07  9.957845e-09   3.0152477e-07  12233796     
    656000   1.4145926e-10  14415.331      5061.1776      950772.11      3.1148304e-07  9.9626517e-09  3.0152039e-07  12233766     
    657000   1.416749e-10   14415.135      5061.0105      950768.97      3.1148365e-07  9.9673755e-09  3.0151628e-07  12233763     
    658000   1.4189054e-10  14415.025      5061.0497      950753.92      3.1148386e-07  9.9698875e-09  3.0151397e-07  12233753     
    659000   1.4210618e-10  14415.057      5061.0862      950753.54      3.1148315e-07  9.9684965e-09  3.0151465e-07  12233708     
    660000   1.4232182e-10  14415.124      5061.0655      950762.41      3.114839e-07   9.9678473e-09  3.0151606e-07  12233748     
    661000   1.4253746e-10  14415.325      5061.19        950770.24      3.1148454e-07  9.9642797e-09  3.0152026e-07  12233849     
    662000   1.427531e-10   14415.367      5061.3958      950753.86      3.1148402e-07  9.9628848e-09  3.0152113e-07  12233827     
    663000   1.4296874e-10  14415.662      5061.6748      950755.8       3.1148431e-07  9.9569998e-09  3.0152731e-07  12233949     
    664000   1.4318438e-10  14415.535      5061.4679      950763.65      3.1148383e-07  9.9591834e-09  3.0152465e-07  12233854     
    665000   1.4340001e-10  14415.607      5061.8358      950734.13      3.1148349e-07  9.9573306e-09  3.0152616e-07  12233867     
    666000   1.4361565e-10  14415.18       5061.617       950712.8       3.1148268e-07  9.965464e-09   3.0151722e-07  12233669     
    667000   1.4383129e-10  14415.029      5061.8076      950678.48      3.1148353e-07  9.9694645e-09  3.0151406e-07  12233671     
    668000   1.4404693e-10  14415.287      5062.3113      950654.16      3.1148312e-07  9.9636621e-09  3.0151946e-07  12233728     
    669000   1.4426257e-10  14415.697      5063.0808      950618.63      3.1148222e-07  9.954177e-09   3.0152805e-07  12233794     
    670000   1.4447821e-10  14416.151      5063.5636      950616.15      3.1148185e-07  9.9443204e-09  3.0153753e-07  12233925     
    671000   1.4469385e-10  14415.981      5063.741       950581.23      3.1148179e-07  9.9478081e-09  3.0153398e-07  12233851     
    672000   1.4490949e-10  14415.872      5063.6346      950580.84      3.1148126e-07  9.9495591e-09  3.015317e-07   12233787     
    673000   1.4512513e-10  14415.572      5063.2786      950586.15      3.1148191e-07  9.9564837e-09  3.0152542e-07  12233726     
    674000   1.4534077e-10  14415.297      5063.0568      950580.51      3.1148278e-07  9.9631133e-09  3.0151966e-07  12233698     
    675000   1.4555641e-10  14415.423      5063.1717      950581.81      3.1148297e-07  9.9606611e-09  3.0152231e-07  12233777     
    676000   1.4577205e-10  14415.449      5063.325       950569.12      3.1148249e-07  9.9596292e-09  3.0152286e-07  12233751     
    677000   1.4598768e-10  14415.299      5063.2272      950563.68      3.1148238e-07  9.9626718e-09  3.0151971e-07  12233670     
    678000   1.4620332e-10  14415.538      5063.4464      950565.87      3.1148317e-07  9.9584635e-09  3.015247e-07   12233799     
    679000   1.4641896e-10  14415.688      5063.7206      950553.67      3.114833e-07   9.9554469e-09  3.0152786e-07  12233877     
    680000   1.466346e-10   14415.364      5063.5201      950540.92      3.1148296e-07  9.9618927e-09  3.0152107e-07  12233744     
    681000   1.4685024e-10  14415.207      5063.3928      950537.8       3.1148335e-07  9.9655636e-09  3.0151779e-07  12233733     
    682000   1.4706588e-10  14415.275      5063.5508      950528.91      3.1148338e-07  9.9641636e-09  3.0151922e-07  12233773     
    683000   1.4728152e-10  14415.576      5063.9449      950519.86      3.1148356e-07  9.9580549e-09  3.0152551e-07  12233894     
    684000   1.4749716e-10  14415.472      5063.8238      950521.45      3.1148273e-07  9.9594011e-09  3.0152333e-07  12233783     
    685000   1.477128e-10   14415.533      5063.9361      950516.42      3.1148202e-07  9.9574059e-09  3.0152461e-07  12233747     
    686000   1.4792844e-10  14415.283      5063.9694      950487.8       3.114819e-07   9.9625191e-09  3.0151938e-07  12233614     
    687000   1.4814408e-10  14415.798      5064.4518      950491.55      3.1148214e-07  9.9519936e-09  3.0153015e-07  12233836     
    688000   1.4835971e-10  14415.4        5063.987       950497.88      3.1148165e-07  9.9598153e-09  3.0152183e-07  12233674     
    689000   1.4857535e-10  14415.864      5064.605       950482.89      3.1148205e-07  9.9505172e-09  3.0153153e-07  12233900     
    690000   1.4879099e-10  14415.591      5064.3603      950479.79      3.1148235e-07  9.9565274e-09  3.0152582e-07  12233828     
    691000   1.4900663e-10  14415.068      5063.8279      950480.2       3.1148282e-07  9.967942e-09   3.0151488e-07  12233667     
    692000   1.4922227e-10  14414.973      5064.2476      950428.6       3.1148253e-07  9.9696339e-09  3.015129e-07   12233617     
    693000   1.4943791e-10  14415.173      5064.5563      950417.87      3.1148293e-07  9.9658623e-09  3.0151707e-07  12233692     
    694000   1.4965355e-10  14415.605      5064.8604      950431.14      3.1148301e-07  9.956897e-09   3.0152611e-07  12233829     
    695000   1.4986919e-10  14415.647      5064.9488      950426.55      3.1148252e-07  9.9555241e-09  3.0152699e-07  12233803     
    696000   1.5008483e-10  14415.771      5065.0672      950427.21      3.1148196e-07  9.9523772e-09  3.0152958e-07  12233829     
    697000   1.5030047e-10  14415.683      5064.8512      950439.94      3.114821e-07   9.9543603e-09  3.0152774e-07  12233801     
    698000   1.5051611e-10  14415.55       5064.7321      950438.4       3.1148262e-07  9.9576598e-09  3.0152496e-07  12233780     
    699000   1.5073174e-10  14415.13       5064.4872      950420.46      3.1148217e-07  9.9659976e-09  3.0151617e-07  12233583     
    700000   1.5094738e-10  14415.405      5065.236       950373.34      3.1148193e-07  9.9600015e-09  3.0152193e-07  12233659     
    701000   1.5116302e-10  14415.607      5065.6156      950355.76      3.1148171e-07  9.9555533e-09  3.0152616e-07  12233721     
    702000   1.5137866e-10  14415.386      5065.3983      950355.16      3.1148159e-07  9.9600584e-09  3.0152153e-07  12233643     
    703000   1.515943e-10   14415.051      5064.9891      950362.3       3.1148168e-07  9.9671481e-09  3.0151453e-07  12233532     
    704000   1.5180994e-10  14415.088      5065.2257      950342.33      3.1148167e-07  9.966363e-09   3.015153e-07   12233555     
    705000   1.5202558e-10  14415.607      5065.7554      950341.76      3.114828e-07   9.9566496e-09  3.0152615e-07  12233832     
    706000   1.5224122e-10  14415.448      5065.6025      950341.01      3.114822e-07   9.9593657e-09  3.0152283e-07  12233738     
    707000   1.5245686e-10  14415.297      5065.5448      950331.45      3.1148274e-07  9.9630802e-09  3.0151966e-07  12233710     
    708000   1.526725e-10   14415.376      5065.7208      950321.86      3.1148258e-07  9.9612604e-09  3.0152132e-07  12233730     
    709000   1.5288814e-10  14415.544      5065.9915      950311.8       3.1148198e-07  9.9571354e-09  3.0152485e-07  12233767     
    710000   1.5310378e-10  14415.189      5065.6484      950310.26      3.1148168e-07  9.9642625e-09  3.0151742e-07  12233624     
    711000   1.5331941e-10  14415.483      5065.9724      950307.53      3.1148192e-07  9.9583572e-09  3.0152357e-07  12233770     
    712000   1.5353505e-10  14415.426      5065.9424      950304.73      3.1148184e-07  9.9594777e-09  3.0152237e-07  12233730     
    713000   1.5375069e-10  14415.995      5066.3505      950321.43      3.1148209e-07  9.9478151e-09  3.0153427e-07  12233939     
    714000   1.5396633e-10  14416.162      5066.5758      950315.73      3.1148233e-07  9.9445649e-09  3.0153776e-07  12233989     
    715000   1.5418197e-10  14416.009      5066.5442      950303.46      3.1148209e-07  9.9475241e-09  3.0153457e-07  12233899     
    716000   1.5439761e-10  14416.28       5066.8719      950298.03      3.1148174e-07  9.9415068e-09  3.0154023e-07  12233974     
    717000   1.5461325e-10  14416.039      5066.7277      950288.08      3.1148227e-07  9.9470794e-09  3.0153519e-07  12233910     
    718000   1.5482889e-10  14415.272      5065.9823      950285.19      3.1148155e-07  9.9624035e-09  3.0151915e-07  12233575     
    719000   1.5504453e-10  14415.334      5066.0965      950280.03      3.1148294e-07  9.9624949e-09  3.0152045e-07  12233692     
    720000   1.5526017e-10  14415.639      5066.5479      950265.68      3.114828e-07   9.9559687e-09  3.0152683e-07  12233814     
    721000   1.5547581e-10  14415.561      5066.5392      950258.65      3.1148288e-07  9.9576823e-09  3.0152519e-07  12233808     
    722000   1.5569144e-10  14415.188      5066.1         950264.87      3.1148263e-07  9.9652435e-09  3.0151738e-07  12233657     
    723000   1.5590708e-10  14415.241      5066.2529      950255         3.1148192e-07  9.9634104e-09  3.0151851e-07  12233666     
    724000   1.5612272e-10  14415.176      5066.0036      950273.32      3.1148171e-07  9.9645731e-09  3.0151714e-07  12233644     
    725000   1.5633836e-10  14415.073      5065.9446      950268.83      3.1148211e-07  9.9671289e-09  3.0151498e-07  12233626     
    726000   1.56554e-10    14415.273      5066.1526      950268.24      3.114819e-07   9.9627341e-09  3.0151917e-07  12233684     
    727000   1.5676964e-10  14415.477      5066.5047      950253.62      3.1148114e-07  9.9577e-09     3.0152344e-07  12233700     
    728000   1.5698528e-10  14415.641      5066.8226      950238.33      3.1148143e-07  9.9545748e-09  3.0152686e-07  12233741     
    729000   1.5720092e-10  14415.901      5066.936       950253.3       3.1148278e-07  9.9504726e-09  3.015323e-07   12233889     
    730000   1.5741656e-10  14415.677      5066.881       950236.15      3.1148174e-07  9.9541191e-09  3.0152762e-07  12233735     
    731000   1.576322e-10   14415.727      5067.0035      950228.92      3.1148159e-07  9.9529364e-09  3.0152866e-07  12233766     
    732000   1.5784784e-10  14415.691      5067.0467      950221.04      3.1148208e-07  9.954154e-09   3.0152792e-07  12233796     
    733000   1.5806347e-10  14415.803      5067.1596      950221.01      3.114824e-07   9.9521476e-09  3.0153025e-07  12233864     
    734000   1.5827911e-10  14415.804      5067.2489      950212.18      3.1148268e-07  9.9524029e-09  3.0153028e-07  12233882     
    735000   1.5849475e-10  14415.592      5067.1688      950198.82      3.1148329e-07  9.9574339e-09  3.0152585e-07  12233856     
    736000   1.5871039e-10  14415.408      5066.9142      950205.66      3.1148281e-07  9.9608124e-09  3.01522e-07    12233772     
    737000   1.5892603e-10  14415.359      5066.9661      950195.55      3.1148209e-07  9.9611132e-09  3.0152098e-07  12233723     
    738000   1.5914167e-10  14415.166      5066.7389      950198.69      3.1148318e-07  9.9662586e-09  3.0151692e-07  12233713     
    739000   1.5935731e-10  14415.085      5066.6297      950201.48      3.114838e-07   9.9685632e-09  3.0151524e-07  12233733     
    740000   1.5957295e-10  14414.925      5066.6022      950188.08      3.1148381e-07  9.9719113e-09  3.015119e-07   12233701     
    741000   1.5978859e-10  14414.749      5066.5882      950171.63      3.1148393e-07  9.9757211e-09  3.0150821e-07  12233664     
    742000   1.6000423e-10  14414.893      5066.7613      950168.87      3.1148425e-07  9.973037e-09   3.0151122e-07  12233742     
    743000   1.6021987e-10  14415.387      5067.3046      950164.41      3.1148507e-07  9.9635248e-09  3.0152155e-07  12233965     
    744000   1.6043551e-10  14415.424      5067.4083      950157.78      3.1148566e-07  9.9633374e-09  3.0152232e-07  12233973     
    745000   1.6065114e-10  14415.519      5067.5197      950156.25      3.1148476e-07  9.9604506e-09  3.0152431e-07  12233923     
    746000   1.6086678e-10  14415.335      5067.4664      950143.03      3.1148382e-07  9.963344e-09   3.0152047e-07  12233785     
    747000   1.6108242e-10  14415.229      5067.506       950128.3       3.1148268e-07  9.9644292e-09  3.0151825e-07  12233672     
    748000   1.6129806e-10  14415.785      5068.0082      950134.23      3.1148196e-07  9.9520881e-09  3.0152987e-07  12233827     
    749000   1.615137e-10   14415.867      5068.0044      950142.96      3.1148204e-07  9.9504382e-09  3.015316e-07   12233834     
    750000   1.6172934e-10  14415.645      5068.0184      950119.09      3.1148222e-07  9.955268e-09   3.0152695e-07  12233745     
    751000   1.6194498e-10  14415.67       5068.0544      950118.02      3.1148188e-07  9.9544046e-09  3.0152748e-07  12233740     
    752000   1.6216062e-10  14416.074      5068.4346      950120.76      3.1148133e-07  9.9454101e-09  3.0153592e-07  12233869     
    753000   1.6237626e-10  14415.787      5068.2903      950106.27      3.114823e-07   9.9523672e-09  3.0152993e-07  12233821     
    754000   1.625919e-10   14415.527      5068.1558      950093.37      3.1148269e-07  9.9582157e-09  3.0152448e-07  12233775     
    755000   1.6280754e-10  14415.231      5067.9799      950081.12      3.114829e-07   9.9645976e-09  3.015183e-07   12233696     
    756000   1.6302317e-10  14415.391      5068.2069      950074.55      3.1148297e-07  9.9613318e-09  3.0152164e-07  12233766     
    757000   1.6323881e-10  14415.431      5068.6477      950034.4       3.1148211e-07  9.9596502e-09  3.0152246e-07  12233711     
    758000   1.6345445e-10  14415.545      5068.8375      950026.98      3.1148174e-07  9.9568851e-09  3.0152486e-07  12233720     
    759000   1.6367009e-10  14415.602      5068.9428      950022.19      3.1148201e-07  9.9559602e-09  3.0152605e-07  12233746     
    760000   1.6388573e-10  14415.582      5069.1291      950001.53      3.1148262e-07  9.9569851e-09  3.0152563e-07  12233791     
    761000   1.6410137e-10  14415.351      5069.092       949981.89      3.1148231e-07  9.9615038e-09  3.015208e-07   12233723     
    762000   1.6431701e-10  14415.154      5068.9639      949974.82      3.1148219e-07  9.9655043e-09  3.0151669e-07  12233666     
    763000   1.6453265e-10  14415.045      5068.7695      949983.2       3.1148338e-07  9.9689854e-09  3.0151439e-07  12233683     
    764000   1.6474829e-10  14415.353      5069.2305      949968.22      3.1148396e-07  9.9631183e-09  3.0152084e-07  12233824     
    765000   1.6496393e-10  14415.211      5069.1588      949961.01      3.1148322e-07  9.9653513e-09  3.0151787e-07  12233712     
    766000   1.6517957e-10  14415.435      5069.499       949949.59      3.1148285e-07  9.9603053e-09  3.0152255e-07  12233764     
    767000   1.6539521e-10  14415.861      5069.8386      949958.75      3.1148314e-07  9.9516609e-09  3.0153148e-07  12233921     
    768000   1.6561084e-10  14416.004      5070.1252      949944.44      3.1148343e-07  9.9489829e-09  3.0153445e-07  12233981     
    769000   1.6582648e-10  14416.164      5070.237       949949.49      3.1148345e-07  9.9456423e-09  3.0153781e-07  12234060     
    770000   1.6604212e-10  14415.59       5069.9254      949922.62      3.1148377e-07  9.9579689e-09  3.015258e-07   12233865     
    771000   1.6625776e-10  14415.508      5069.8116      949925.77      3.1148441e-07  9.9603203e-09  3.0152409e-07  12233901     
    772000   1.664734e-10   14414.989      5069.5455      949899.9       3.1148371e-07  9.9704761e-09  3.0151323e-07  12233700     
    773000   1.6668904e-10  14414.867      5069.4737      949894.74      3.1148438e-07  9.9737015e-09  3.0151068e-07  12233723     
    774000   1.6690468e-10  14415.049      5069.7407      949886.45      3.1148426e-07  9.9697658e-09  3.0151449e-07  12233778     
    775000   1.6712032e-10  14415.249      5069.8428      949896.4       3.114844e-07   9.9657403e-09  3.0151866e-07  12233847     
    776000   1.6733596e-10  14415.495      5070.2963      949875.91      3.1148438e-07  9.9605684e-09  3.0152382e-07  12233943     
    777000   1.675516e-10   14415.58       5070.765       949837.61      3.1148334e-07  9.9577453e-09  3.015256e-07   12233918     
    778000   1.6776724e-10  14415.313      5070.4091      949846.25      3.1148379e-07  9.96377e-09    3.0152002e-07  12233824     
    779000   1.6798287e-10  14415.614      5070.807       949836.79      3.1148348e-07  9.9571823e-09  3.015263e-07   12233908     
    780000   1.6819851e-10  14415.41       5070.7113      949825.78      3.1148262e-07  9.960579e-09   3.0152204e-07  12233765     
    781000   1.6841415e-10  14415.207      5070.5635      949820.03      3.1148223e-07  9.9644406e-09  3.0151779e-07  12233667     
    782000   1.6862979e-10  14415.018      5070.381       949819.17      3.1148279e-07  9.9689601e-09  3.0151383e-07  12233620     
    783000   1.6884543e-10  14415.169      5070.6328      949809.28      3.1148354e-07  9.9665376e-09  3.01517e-07    12233720     
    784000   1.6906107e-10  14415.664      5071.1075      949811.82      3.1148373e-07  9.9563769e-09  3.0152736e-07  12233915     
    785000   1.6927671e-10  14415.583      5071.2573      949788.65      3.1148262e-07  9.9569576e-09  3.0152566e-07  12233799     
    786000   1.6949235e-10  14415.615      5071.4018      949777.33      3.1148346e-07  9.9571481e-09  3.0152631e-07  12233845     
    787000   1.6970799e-10  14415.528      5071.1966      949789.12      3.1148187e-07  9.957369e-09   3.0152451e-07  12233703     
    788000   1.6992363e-10  14415.716      5071.4516      949782.59      3.1148192e-07  9.9534816e-09  3.0152843e-07  12233763     
    789000   1.7013927e-10  14415.786      5071.5543      949779.44      3.1148182e-07  9.951916e-09   3.0152991e-07  12233798     
    790000   1.703549e-10   14415.463      5071.312       949770.96      3.1148272e-07  9.9595843e-09  3.0152314e-07  12233769     
    791000   1.7057054e-10  14415.294      5071.2939      949755.75      3.1148296e-07  9.9633402e-09  3.0151962e-07  12233735     
    792000   1.7078618e-10  14415.476      5071.3607      949767.44      3.1148246e-07  9.9590394e-09  3.0152342e-07  12233775     
    793000   1.7100182e-10  14415.672      5071.7304      949750.24      3.1148303e-07  9.9555087e-09  3.0152752e-07  12233889     
    794000   1.7121746e-10  14415.477      5071.643       949739.25      3.1148306e-07  9.9596228e-09  3.0152343e-07  12233830     
    795000   1.714331e-10   14415.536      5071.7089      949738.63      3.1148293e-07  9.9582576e-09  3.0152467e-07  12233844     
    796000   1.7164874e-10  14415.587      5071.7763      949737.01      3.1148253e-07  9.9568026e-09  3.0152573e-07  12233829     
    797000   1.7186438e-10  14415.451      5071.8836      949712.61      3.1148336e-07  9.9604602e-09  3.015229e-07   12233793     
    798000   1.7208002e-10  14415.837      5072.2816      949711.77      3.1148139e-07  9.9504236e-09  3.0153097e-07  12233793     
    799000   1.7229566e-10  14416.086      5072.5415      949710.94      3.1148063e-07  9.9444506e-09  3.0153618e-07  12233825     
    800000   1.725113e-10   14415.592      5072.1147      949703.7       3.114808e-07   9.9549598e-09  3.0152585e-07  12233659     
    801000   1.7272694e-10  14415.324      5071.8389      949704.16      3.1148078e-07  9.9605538e-09  3.0152023e-07  12233584     
    802000   1.7294257e-10  14415.312      5071.9333      949693.5       3.1148075e-07  9.9607717e-09  3.0151998e-07  12233586     
    803000   1.7315821e-10  14415.088      5071.9381      949670.46      3.1148178e-07  9.9664681e-09  3.0151531e-07  12233556     
    804000   1.7337385e-10  14415.518      5072.3107      949676.53      3.1148265e-07  9.9583709e-09  3.0152428e-07  12233776     
    805000   1.7358949e-10  14415.452      5072.2775      949673.24      3.114826e-07   9.9596889e-09  3.0152292e-07  12233753     
    806000   1.7380513e-10  14415.378      5072.372       949656.28      3.1148213e-07  9.9607715e-09  3.0152136e-07  12233702     
    807000   1.7402077e-10  14415.501      5072.5157      949654.36      3.1148246e-07  9.9585177e-09  3.0152394e-07  12233764     
    808000   1.7423641e-10  14415.907      5072.992       949647.73      3.114826e-07   9.9501723e-09  3.0153243e-07  12233920     
    809000   1.7445205e-10  14415.655      5072.7999      949641.46      3.1148122e-07  9.9540571e-09  3.0152716e-07  12233724     
    810000   1.7466769e-10  14415.663      5073.0635      949615.85      3.1148152e-07  9.9542041e-09  3.0152732e-07  12233735     
    811000   1.7488333e-10  14415.693      5073.1383      949611.48      3.1148193e-07  9.9539696e-09  3.0152796e-07  12233776     
    812000   1.7509897e-10  14415.693      5073.2329      949602.01      3.1148235e-07  9.9543889e-09  3.0152796e-07  12233812     
    813000   1.753146e-10   14415.383      5072.9328      949600.7       3.1148223e-07  9.960751e-09   3.0152148e-07  12233681     
    814000   1.7553024e-10  14415.411      5073.0422      949592.5       3.1148123e-07  9.9591829e-09  3.0152205e-07  12233640     
    815000   1.7574588e-10  14415.21       5072.8642      949590.08      3.1148151e-07  9.963646e-09   3.0151786e-07  12233580     
    816000   1.7596152e-10  14415.43       5073.0687      949591.86      3.1148073e-07  9.9582638e-09  3.0152246e-07  12233605     
    817000   1.7617716e-10  14415.836      5073.7255      949567.1       3.1148082e-07  9.9498784e-09  3.0153094e-07  12233726     
    818000   1.763928e-10   14416.222      5074.2634      949552.3       3.1148014e-07  9.9411175e-09  3.0153902e-07  12233796     
    819000   1.7660844e-10  14416.126      5074.3278      949536.17      3.1148047e-07  9.9434543e-09  3.0153702e-07  12233753     
    820000   1.7682408e-10  14415.724      5073.9876      949529.52      3.1148032e-07  9.9517226e-09  3.015286e-07   12233603     
    821000   1.7703972e-10  14415.692      5074.0934      949515.72      3.1148058e-07  9.9526448e-09  3.0152793e-07  12233628     
    822000   1.7725536e-10  14415.577      5074.0897      949504.5       3.1148049e-07  9.9549612e-09  3.0152553e-07  12233594     
    823000   1.77471e-10    14415.942      5074.4987      949500.43      3.1148041e-07  9.9472435e-09  3.0153316e-07  12233758     
    824000   1.7768663e-10  14415.516      5074.0999      949497.27      3.1148073e-07  9.9564805e-09  3.0152425e-07  12233624     
    825000   1.7790227e-10  14415.545      5074.2464      949485.5       3.1148155e-07  9.9567004e-09  3.0152485e-07  12233687     
    826000   1.7811791e-10  14415.342      5074.1638      949473.28      3.1148162e-07  9.9610072e-09  3.0152061e-07  12233609     
    827000   1.7833355e-10  14415.468      5074.3075      949471.64      3.1148243e-07  9.9591785e-09  3.0152325e-07  12233720     
    828000   1.7854919e-10  14415.851      5075.0991      949431.09      3.1148227e-07  9.9510187e-09  3.0153125e-07  12233857     
    829000   1.7876483e-10  14416.044      5075.3728      949423.24      3.1148259e-07  9.9472985e-09  3.0153529e-07  12233933     
    830000   1.7898047e-10  14415.767      5075.0713      949425.4       3.1148192e-07  9.9524217e-09  3.015295e-07   12233789     
    831000   1.7919611e-10  14415.399      5074.8189      949413.46      3.1148156e-07  9.9597572e-09  3.015218e-07   12233643     
    832000   1.7941175e-10  14415.246      5074.9289      949387.04      3.1148159e-07  9.9629824e-09  3.0151861e-07  12233592     
    833000   1.7962739e-10  14415.766      5075.3753      949394.84      3.1148144e-07  9.9519697e-09  3.0152947e-07  12233779     
    834000   1.7984303e-10  14415.655      5075.2487      949396.32      3.1148241e-07  9.955257e-09   3.0152715e-07  12233789     
    835000   1.8005867e-10  14415.567      5075.3214      949380.15      3.1148264e-07  9.9573258e-09  3.0152531e-07  12233780     
    836000   1.802743e-10   14415.803      5075.5671      949379.43      3.1148349e-07  9.9532378e-09  3.0153025e-07  12233940     
    837000   1.8048994e-10  14415.762      5075.5979      949372.18      3.1148385e-07  9.9544554e-09  3.0152939e-07  12233954     
    838000   1.8070558e-10  14415.769      5075.6332      949369.4       3.1148423e-07  9.9546771e-09  3.0152955e-07  12233980     
    839000   1.8092122e-10  14415.787      5075.7075      949363.74      3.1148406e-07  9.9541419e-09  3.0152992e-07  12233977     
    840000   1.8113686e-10  14415.378      5075.4532      949347.85      3.1148336e-07  9.9619969e-09  3.0152136e-07  12233776     
    841000   1.813525e-10   14415.476      5075.6623      949336.84      3.114823e-07   9.9588897e-09  3.0152341e-07  12233767     
    842000   1.8156814e-10  14415.279      5075.5823      949324.91      3.1148181e-07  9.9625245e-09  3.0151929e-07  12233669     
    843000   1.8178378e-10  14414.985      5076.2568      949227.72      3.1148156e-07  9.9684108e-09  3.0151315e-07  12233541     
    844000   1.8199942e-10  14415.16       5076.7417      949196.9       3.1148176e-07  9.9649431e-09  3.0151682e-07  12233599     
    845000   1.8221506e-10  14415.392      5076.9159      949202.84      3.1148169e-07  9.9600413e-09  3.0152165e-07  12233668     
    846000   1.824307e-10   14415.545      5077.3671      949173.14      3.1148111e-07  9.9562569e-09  3.0152485e-07  12233692     
    847000   1.8264633e-10  14415.573      5077.4532      949167.41      3.1148123e-07  9.9557781e-09  3.0152545e-07  12233707     
    848000   1.8286197e-10  14415.499      5077.4973      949155.48      3.1148103e-07  9.9571383e-09  3.0152389e-07  12233672     
    849000   1.8307761e-10  14415.337      5077.3684      949152         3.1148143e-07  9.9609266e-09  3.0152051e-07  12233637     
    850000   1.8329325e-10  14415.548      5077.6126      949148.87      3.1148107e-07  9.9561568e-09  3.0152492e-07  12233708     
    851000   1.8350889e-10  14415.125      5077.4621      949121.22      3.1148167e-07  9.9655911e-09  3.0151608e-07  12233562     
    852000   1.8372453e-10  14415.668      5078.0422      949118         3.11482e-07    9.9545762e-09  3.0152743e-07  12233779     
    853000   1.8394017e-10  14415.628      5078.1438      949103.81      3.1148155e-07  9.9549615e-09  3.0152659e-07  12233736     
    854000   1.8415581e-10  14415.227      5077.9087      949086.82      3.114816e-07   9.9633954e-09  3.0151821e-07  12233568     
    855000   1.8437145e-10  14415.389      5078.3043      949063.56      3.114813e-07   9.9597059e-09  3.0152159e-07  12233598     
    856000   1.8458709e-10  14415.51       5078.512       949055.07      3.114806e-07   9.9564611e-09  3.0152414e-07  12233598     
    857000   1.8480273e-10  14415.668      5078.6643      949055.72      3.1148019e-07  9.9527689e-09  3.0152742e-07  12233643     
    858000   1.8501836e-10  14415.665      5078.746       949047.26      3.1148036e-07  9.9529925e-09  3.0152736e-07  12233667     
    859000   1.85234e-10    14415.413      5078.6202      949034.35      3.1148108e-07  9.9589901e-09  3.0152209e-07  12233600     
    860000   1.8544964e-10  14415.599      5078.8159      949033.62      3.114806e-07   9.9546093e-09  3.0152599e-07  12233633     
    861000   1.8566528e-10  14415.317      5078.5913      949027.54      3.1148009e-07  9.9600103e-09  3.0152008e-07  12233498     
    862000   1.8588092e-10  14415.507      5078.8332      949022.57      3.1148116e-07  9.9570969e-09  3.0152406e-07  12233635     
    863000   1.8609656e-10  14415.92       5079.4861      948998.94      3.1148151e-07  9.9488103e-09  3.015327e-07   12233824     
    864000   1.863122e-10   14415.884      5079.4445      948999.46      3.1148217e-07  9.9502311e-09  3.0153194e-07  12233847     
    865000   1.8652784e-10  14415.726      5079.3889      948989.11      3.114824e-07   9.9537552e-09  3.0152865e-07  12233791     
    866000   1.8674348e-10  14415.677      5079.2279      949000.21      3.1148232e-07  9.9547057e-09  3.0152761e-07  12233757     
    867000   1.8695912e-10  14415.759      5079.343       948996.98      3.1148184e-07  9.9525127e-09  3.0152932e-07  12233752     
    868000   1.8717476e-10  14416.147      5079.7254      948997.93      3.1148083e-07  9.9433856e-09  3.0153744e-07  12233830     
    869000   1.873904e-10   14416.098      5079.7097      948994.59      3.1148123e-07  9.9448073e-09  3.0153643e-07  12233827     
    870000   1.8760603e-10  14416.362      5080.0483      948987.38      3.1148096e-07  9.9390116e-09  3.0154195e-07  12233933     
    871000   1.8782167e-10  14415.951      5079.8704      948963.61      3.1148143e-07  9.9480835e-09  3.0153334e-07  12233824     
    872000   1.8803731e-10  14415.414      5079.4706      948949.39      3.1148108e-07  9.9589621e-09  3.0152212e-07  12233620     
    873000   1.8825295e-10  14415.052      5079.1114      948948.67      3.1148187e-07  9.9673299e-09  3.0151454e-07  12233536     
    874000   1.8846859e-10  14415.013      5079.218       948934.13      3.1148133e-07  9.9675961e-09  3.0151374e-07  12233491     
    875000   1.8868423e-10  14415.776      5079.9878      948934.24      3.1148081e-07  9.9511142e-09  3.015297e-07   12233748     
    876000   1.8889987e-10  14415.61       5079.8834      948927.83      3.1148096e-07  9.9547529e-09  3.0152621e-07  12233674     
    877000   1.8911551e-10  14415.739      5079.9339      948935.82      3.1148078e-07  9.9518649e-09  3.0152891e-07  12233705     
    878000   1.8933115e-10  14416.068      5080.4718      948915.24      3.1148184e-07  9.9460515e-09  3.0153579e-07  12233898     
    879000   1.8954679e-10  14415.65       5080.0965      948910.58      3.1148141e-07  9.9543576e-09  3.0152706e-07  12233713     
    880000   1.8976243e-10  14415.912      5081.2978      948816.83      3.114819e-07   9.9493568e-09  3.0153254e-07  12233843     
    881000   1.8997806e-10  14415.936      5081.4951      948799.53      3.1148103e-07  9.9479862e-09  3.0153304e-07  12233777     
    882000   1.901937e-10   14415.984      5081.5713      948796.69      3.1148013e-07  9.9460986e-09  3.0153403e-07  12233721     
    883000   1.9040934e-10  14416.15       5081.782       948792.41      3.1148068e-07  9.9431672e-09  3.0153751e-07  12233828     
    884000   1.9062498e-10  14415.909      5081.5712      948789.11      3.1148117e-07  9.9487037e-09  3.0153246e-07  12233803     
    885000   1.9084062e-10  14414.966      5080.738       948777.19      3.1148088e-07  9.9681351e-09  3.0151274e-07  12233464     
    886000   1.9105626e-10  14414.793      5080.5902      948774.56      3.1148082e-07  9.9716842e-09  3.0150914e-07  12233422     
    887000   1.912719e-10   14414.855      5080.8882      948750.95      3.1148134e-07  9.9709163e-09  3.0151043e-07  12233486     
    888000   1.9148754e-10  14415.031      5081.1155      948746.04      3.1148166e-07  9.9675439e-09  3.0151412e-07  12233561     
    889000   1.9170318e-10  14415.266      5081.3841      948742.83      3.114821e-07   9.9630883e-09  3.0151902e-07  12233644     
    890000   1.9191882e-10  14415.558      5081.8632      948724.43      3.1148165e-07  9.9565195e-09  3.0152513e-07  12233711     
    891000   1.9213446e-10  14415.625      5081.9769      948719.79      3.1148248e-07  9.9559548e-09  3.0152653e-07  12233793     
    892000   1.923501e-10   14415.442      5081.8689      948712.18      3.1148298e-07  9.9602643e-09  3.0152271e-07  12233755     
    893000   1.9256573e-10  14415.625      5082.0426      948713.27      3.1148234e-07  9.9558036e-09  3.0152654e-07  12233782     
    894000   1.9278137e-10  14415.893      5082.3024      948714.31      3.1148213e-07  9.9499923e-09  3.0153213e-07  12233878     
    895000   1.9299701e-10  14415.122      5081.8447      948682.17      3.1148193e-07  9.9659224e-09  3.01516e-07    12233569     
    896000   1.9321265e-10  14415.199      5081.9254      948681.9       3.1148172e-07  9.9641037e-09  3.0151762e-07  12233589     
    897000   1.9342829e-10  14415.22       5082.2245      948654.14      3.1148078e-07  9.9627077e-09  3.0151807e-07  12233527     
    898000   1.9364393e-10  14415.57       5082.7114      948640.75      3.1148044e-07  9.9550605e-09  3.0152538e-07  12233639     
    899000   1.9385957e-10  14415.431      5082.7789      948619.96      3.1148074e-07  9.9582559e-09  3.0152248e-07  12233604     
    900000   1.9407521e-10  14415.322      5082.6981      948616.96      3.1148142e-07  9.9612321e-09  3.0152019e-07  12233615     
    901000   1.9429085e-10  14415.269      5082.6533      948616.16      3.1148188e-07  9.9627911e-09  3.0151909e-07  12233652     
    902000   1.9450649e-10  14415.52       5082.8969      948617.11      3.1148216e-07  9.9578283e-09  3.0152433e-07  12233792     
    903000   1.9472213e-10  14415.237      5082.6587      948612.34      3.1148329e-07  9.9648723e-09  3.0151841e-07  12233731     
    904000   1.9493776e-10  14415.515      5082.9442      948611.84      3.1148382e-07  9.9595999e-09  3.0152422e-07  12233834     
    905000   1.951534e-10   14415.542      5083.1075      948598.27      3.1148294e-07  9.9581456e-09  3.015248e-07   12233772     
    906000   1.9536904e-10  14415.924      5083.5462      948593         3.1148236e-07  9.949562e-09   3.0153279e-07  12233893     
    907000   1.9558468e-10  14415.701      5083.3633      948588.71      3.114824e-07   9.9542774e-09  3.0152812e-07  12233827     
    908000   1.9580032e-10  14415.401      5083.2686      948567.89      3.114828e-07   9.9609535e-09  3.0152185e-07  12233765     
    909000   1.9601596e-10  14415.245      5083.05        948574.02      3.1148358e-07  9.9649928e-09  3.0151859e-07  12233784     
    910000   1.962316e-10   14414.847      5082.8632      948552.43      3.1148236e-07  9.9721059e-09  3.0151026e-07  12233559     
    911000   1.9644724e-10  14414.933      5082.9298      948554.45      3.1148216e-07  9.9701073e-09  3.0151205e-07  12233558     
    912000   1.9666288e-10  14415.058      5083.0328      948556.76      3.1148275e-07  9.9680872e-09  3.0151466e-07  12233628     
    913000   1.9687852e-10  14415.618      5083.6839      948548.27      3.1148259e-07  9.9561957e-09  3.0152639e-07  12233841     
    914000   1.9709416e-10  14415.54       5083.6566      948543.09      3.114825e-07   9.9577449e-09  3.0152475e-07  12233798     
    915000   1.9730979e-10  14415.559      5083.7926      948531.37      3.114827e-07   9.9575527e-09  3.0152515e-07  12233803     
    916000   1.9752543e-10  14415.386      5083.8101      948512.2       3.1148184e-07  9.9602998e-09  3.0152154e-07  12233681     
    917000   1.9774107e-10  14415.189      5083.9632      948476.88      3.1148201e-07  9.9646089e-09  3.015174e-07   12233618     
    918000   1.9795671e-10  14415.22       5084.0603      948470.37      3.1148314e-07  9.9650758e-09  3.0151807e-07  12233706     
    919000   1.9817235e-10  14415.342      5084.2319      948465.51      3.1148246e-07  9.9618475e-09  3.0152062e-07  12233725     
    920000   1.9838799e-10  14415.324      5084.4915      948437.72      3.1148288e-07  9.9626375e-09  3.0152024e-07  12233748     
    921000   1.9860363e-10  14415.396      5085.0979      948384.3       3.114825e-07   9.9607517e-09  3.0152175e-07  12233744     
    922000   1.9881927e-10  14415.382      5085.212       948371.4       3.1148237e-07  9.9609282e-09  3.0152144e-07  12233697     
    923000   1.9903491e-10  14415.72       5085.7506      948351.69      3.1148211e-07  9.9535927e-09  3.0152852e-07  12233786     
    924000   1.9925055e-10  14415.856      5085.9113      948349.38      3.1148173e-07  9.950361e-09   3.0153137e-07  12233792     
    925000   1.9946619e-10  14415.731      5085.7582      948352.05      3.114809e-07   9.9521488e-09  3.0152875e-07  12233673     
    926000   1.9968183e-10  14415.888      5086.1335      948330.36      3.1148054e-07  9.9485009e-09  3.0153204e-07  12233720     
    927000   1.9989746e-10  14415.497      5085.7855      948325.62      3.1148133e-07  9.9574761e-09  3.0152385e-07  12233641     
    928000   2.001131e-10   14415.709      5085.9496      948330.69      3.1148121e-07  9.9529155e-09  3.015283e-07   12233742     
    929000   2.0032874e-10  14415.633      5085.9279      948325.1       3.1148116e-07  9.95447e-09    3.0152669e-07  12233724     
    930000   2.0054438e-10  14415.64       5086.0893      948309.73      3.1148145e-07  9.9545952e-09  3.0152685e-07  12233741     
    931000   2.0076002e-10  14415.761      5086.2018      948310.64      3.1148164e-07  9.9522725e-09  3.0152937e-07  12233785     
    932000   2.0097566e-10  14415.268      5086.003       948280.67      3.1148146e-07  9.9624028e-09  3.0151905e-07  12233578     
    933000   2.011913e-10   14415.564      5086.2873      948282.14      3.114813e-07   9.9560498e-09  3.0152525e-07  12233717     
    934000   2.0140694e-10  14415.437      5086.2334      948274.69      3.1148271e-07  9.9601178e-09  3.0152259e-07  12233758     
    935000   2.0162258e-10  14415.467      5086.2519      948275.96      3.1148205e-07  9.9588162e-09  3.0152324e-07  12233731     
    936000   2.0183822e-10  14415.214      5086.1917      948256.36      3.1148259e-07  9.9646627e-09  3.0151793e-07  12233656     
    937000   2.0205386e-10  14415.337      5086.3601      948251.92      3.1148145e-07  9.9609512e-09  3.015205e-07   12233611     
    938000   2.0226949e-10  14415.86       5086.8698      948253.81      3.1148197e-07  9.950519e-09   3.0153145e-07  12233825     
    939000   2.0248513e-10  14415.884      5087.0864      948234.53      3.1148151e-07  9.9495657e-09  3.0153195e-07  12233793     
    940000   2.0270077e-10  14415.577      5087.0523      948206.88      3.1148073e-07  9.9552118e-09  3.0152552e-07  12233627     
    941000   2.0291641e-10  14415.713      5087.482       948177.68      3.1148144e-07  9.9530652e-09  3.0152837e-07  12233726     
    942000   2.0313205e-10  14415.908      5087.7392      948171.64      3.1148066e-07  9.9482108e-09  3.0153245e-07  12233735     
    943000   2.0334769e-10  14415.81       5087.5743      948178.27      3.1148076e-07  9.9503465e-09  3.0153041e-07  12233685     
    944000   2.0356333e-10  14415.567      5087.4905      948162.1       3.1148079e-07  9.955458e-09   3.0152533e-07  12233605     
    945000   2.0377897e-10  14415.266      5087.5408      948126.6       3.1148099e-07  9.9619658e-09  3.0151902e-07  12233535     
    946000   2.0399461e-10  14415.561      5087.7968      948130.77      3.1148109e-07  9.9559044e-09  3.0152519e-07  12233704     
    947000   2.0421025e-10  14415.437      5087.5993      948138.03      3.1148253e-07  9.9599296e-09  3.015226e-07   12233765     
    948000   2.0442589e-10  14415.311      5087.7206      948113.15      3.1148322e-07  9.9632554e-09  3.0151997e-07  12233769     
    949000   2.0464152e-10  14415.35       5088.1606      948073.03      3.1148325e-07  9.9624669e-09  3.0152078e-07  12233781     
    950000   2.0485716e-10  14416.069      5088.8483      948076.86      3.1148341e-07  9.9475978e-09  3.0153581e-07  12234057     
    951000   2.050728e-10   14415.689      5088.7469      948048.58      3.1148308e-07  9.9552182e-09  3.0152786e-07  12233892     
    952000   2.0528844e-10  14415.191      5088.2861      948044.39      3.1148302e-07  9.9655672e-09  3.0151745e-07  12233713     
    953000   2.0550408e-10  14414.994      5088.1048      948042.65      3.1148277e-07  9.9694369e-09  3.0151334e-07  12233635     
    954000   2.0571972e-10  14414.9        5088.0891      948034.68      3.1148218e-07  9.9708227e-09  3.0151136e-07  12233574     
    955000   2.0593536e-10  14415.429      5088.8065      948016.39      3.114823e-07   9.9598679e-09  3.0152244e-07  12233765     
    956000   2.06151e-10    14415.388      5088.6246      948030.42      3.1148142e-07  9.959849e-09   3.0152157e-07  12233661     
    957000   2.0636664e-10  14415.605      5088.8859      948026.23      3.1148138e-07  9.9552654e-09  3.0152612e-07  12233728     
    958000   2.0658228e-10  14415.785      5089.0252      948030.48      3.1148212e-07  9.9522361e-09  3.0152988e-07  12233834     
    959000   2.0679792e-10  14415.617      5088.873       948028.68      3.1148159e-07  9.9552306e-09  3.0152636e-07  12233735     
    960000   2.0701356e-10  14415.281      5088.7551      948006.56      3.1148064e-07  9.961304e-09   3.0151934e-07  12233544     
    961000   2.0722919e-10  14415.457      5089.0629      947993.55      3.114805e-07   9.9574811e-09  3.0152302e-07  12233602     
    962000   2.0744483e-10  14415.322      5089.0939      947976.83      3.1148161e-07  9.9614089e-09  3.015202e-07   12233617     
    963000   2.0766047e-10  14415.665      5089.5454      947966.28      3.1148207e-07  9.9547024e-09  3.0152737e-07  12233790     
    964000   2.0787611e-10  14415.704      5089.6878      947955.97      3.1148321e-07  9.955021e-09   3.0152819e-07  12233889     
    965000   2.0809175e-10  14415.3        5089.523       947931.59      3.1148258e-07  9.9628537e-09  3.0151973e-07  12233720     
    966000   2.0830739e-10  14414.84       5089.1621      947921.22      3.1148303e-07  9.9729158e-09  3.0151011e-07  12233582     
    967000   2.0852303e-10  14415.222      5089.6256      947913.43      3.1148311e-07  9.9650071e-09  3.015181e-07   12233732     
    968000   2.0873867e-10  14415.306      5089.7057      947913.95      3.1148246e-07  9.9625947e-09  3.0151986e-07  12233713     
    969000   2.0895431e-10  14415.265      5090.3478      947845.46      3.114822e-07   9.9632072e-09  3.0151899e-07  12233668     
    970000   2.0916995e-10  14415.58       5090.8368      947828.35      3.1148195e-07  9.9563739e-09  3.0152558e-07  12233771     
    971000   2.0938559e-10  14414.921      5090.4133      947804.21      3.1148167e-07  9.9698578e-09  3.0151182e-07  12233471     
    972000   2.0960122e-10  14415.037      5090.5044      947806.77      3.1148147e-07  9.9672369e-09  3.0151423e-07  12233488     
    973000   2.0981686e-10  14415.599      5091.1753      947796.46      3.1148224e-07  9.9562517e-09  3.0152599e-07  12233760     
    974000   2.100325e-10   14415.863      5091.4925      947791.43      3.1148208e-07  9.9505632e-09  3.0153152e-07  12233864     
    975000   2.1024814e-10  14415.983      5091.6908      947783.64      3.1148203e-07  9.9480139e-09  3.0153402e-07  12233910     
    976000   2.1046378e-10  14415.669      5091.5699      947764.02      3.1148246e-07  9.9550117e-09  3.0152745e-07  12233804     
    977000   2.1067942e-10  14415.278      5091.2103      947760.52      3.1148319e-07  9.9639139e-09  3.0151928e-07  12233705     
    978000   2.1089506e-10  14415.464      5091.4999      947750.26      3.1148237e-07  9.9592167e-09  3.0152316e-07  12233750     
    979000   2.111107e-10   14415.332      5091.5109      947735.83      3.1148218e-07  9.9617858e-09  3.015204e-07   12233704     
    980000   2.1132634e-10  14415.253      5091.4842      947730.55      3.114821e-07   9.9633443e-09  3.0151875e-07  12233664     
    981000   2.1154198e-10  14415.367      5091.79        947711.41      3.1148229e-07  9.9611687e-09  3.0152113e-07  12233712     
    982000   2.1175762e-10  14415.725      5092.062       947720.41      3.1148221e-07  9.9535932e-09  3.0152862e-07  12233839     
    983000   2.1197325e-10  14415.423      5092.2716      947668.92      3.1148255e-07  9.9602375e-09  3.0152231e-07  12233744     
    984000   2.1218889e-10  14415.568      5092.4879      947661.88      3.1148209e-07  9.9567576e-09  3.0152533e-07  12233793     
    985000   2.1240453e-10  14415.568      5092.9861      947612.09      3.1148276e-07  9.9574072e-09  3.0152535e-07  12233833     
    986000   2.1262017e-10  14415.243      5092.6535      947612.44      3.1148283e-07  9.964295e-09   3.0151853e-07  12233698     
    987000   2.1283581e-10  14415.755      5093.228       947606.71      3.1148233e-07  9.9530852e-09  3.0152924e-07  12233852     
    988000   2.1305145e-10  14415.858      5093.3807      947601.89      3.1148162e-07  9.9502113e-09  3.0153141e-07  12233839     
    989000   2.1326709e-10  14415.371      5092.9966      947591.06      3.1148121e-07  9.959996e-09   3.0152122e-07  12233609     
    990000   2.1348273e-10  14415.537      5093.2994      947577.58      3.1148085e-07  9.95615e-09    3.015247e-07   12233651     
    991000   2.1369837e-10  14415.159      5092.9342      947575.85      3.1148134e-07  9.9645606e-09  3.0151678e-07  12233536     
    992000   2.1391401e-10  14415.611      5093.2904      947585.97      3.114821e-07   9.9558507e-09  3.0152625e-07  12233768     
    993000   2.1412965e-10  14415.216      5092.9943      947575.64      3.1148195e-07  9.9639727e-09  3.0151798e-07  12233610     
    994000   2.1434529e-10  14415.431      5093.3387      947562.92      3.1148199e-07  9.9595116e-09  3.0152248e-07  12233704     
    995000   2.1456092e-10  14415.437      5093.3946      947557.87      3.1148361e-07  9.9610168e-09  3.0152259e-07  12233798     
    996000   2.1477656e-10  14415.684      5093.9442      947527.87      3.1148382e-07  9.9560563e-09  3.0152776e-07  12233904     
    997000   2.149922e-10   14415.55       5093.9045      947518.3       3.1148389e-07  9.9589244e-09  3.0152496e-07  12233864     
    998000   2.1520784e-10  14415.509      5093.9002      947514.58      3.1148361e-07  9.9595019e-09  3.0152411e-07  12233844     
    999000   2.1542348e-10  14415.754      5094.2705      947502.27      3.1148295e-07  9.9537221e-09  3.0152923e-07  12233897     
   1000000   2.1563912e-10  14415.524      5094.092       947496.93      3.1148234e-07  9.9579136e-09  3.0152443e-07  12233751     
   1001000   2.1585476e-10  14415.5        5094.0083      947502.81      3.1148275e-07  9.9588396e-09  3.0152391e-07  12233751     
   1002000   2.160704e-10   14415.401      5093.859       947507.82      3.1148258e-07  9.9607228e-09  3.0152185e-07  12233702     
   1003000   2.1628604e-10  14415.827      5094.4557      947491.1       3.1148232e-07  9.9515644e-09  3.0153075e-07  12233853     
   1004000   2.1650168e-10  14415.8        5094.5147      947482.47      3.1148132e-07  9.9511277e-09  3.0153019e-07  12233752     
   1005000   2.1671732e-10  14416.015      5094.7225      947483.4       3.1147956e-07  9.9448742e-09  3.0153468e-07  12233710     
   1006000   2.1693295e-10  14415.756      5094.5127      947478.2       3.114794e-07   9.9501391e-09  3.0152926e-07  12233594     
   1007000   2.1714859e-10  14415.761      5094.5721      947472.8       3.1148e-07     9.9506217e-09  3.0152938e-07  12233641     
   1008000   2.1736423e-10  14415.73       5094.6124      947465.59      3.1148078e-07  9.95206e-09    3.0152872e-07  12233674     
   1009000   2.1757987e-10  14415.738      5094.6201      947465.68      3.1148178e-07  9.9528857e-09  3.015289e-07   12233738     
   1010000   2.1779551e-10  14415.787      5094.7866      947453.93      3.1148177e-07  9.951858e-09   3.0152991e-07  12233771     
   1011000   2.1801115e-10  14416.092      5095.0411      947459.36      3.1148207e-07  9.9457657e-09  3.0153631e-07  12233940     
   1012000   2.1822679e-10  14415.383      5094.4029      947451.55      3.1148303e-07  9.9615584e-09  3.0152147e-07  12233755     
   1013000   2.1844243e-10  14415.434      5094.4464      947452.3       3.1148354e-07  9.9610059e-09  3.0152253e-07  12233832     
   1014000   2.1865807e-10  14415.247      5094.3126      947446.81      3.114841e-07   9.9654764e-09  3.0151863e-07  12233780     
   1015000   2.1887371e-10  14415.507      5094.4224      947462.15      3.1148333e-07  9.9592592e-09  3.0152407e-07  12233820     
   1016000   2.1908935e-10  14415.264      5094.4171      947438.06      3.114829e-07   9.9639187e-09  3.0151898e-07  12233691     
   1017000   2.1930499e-10  14415.097      5094.4597      947416.89      3.1148317e-07  9.9676875e-09  3.0151548e-07  12233646     
   1018000   2.1952062e-10  14415.321      5094.7769      947407.8       3.1148291e-07  9.9627396e-09  3.0152017e-07  12233725     
   1019000   2.1973626e-10  14415.585      5094.9488      947417.34      3.1148229e-07  9.9565895e-09  3.015257e-07   12233778     
   1020000   2.199519e-10   14415.72       5095.2755      947398.28      3.1148169e-07  9.9531676e-09  3.0152852e-07  12233771     
   1021000   2.2016754e-10  14415.909      5095.6153      947383.29      3.1148166e-07  9.9491968e-09  3.0153246e-07  12233819     
   1022000   2.2038318e-10  14415.884      5095.7472      947367.59      3.1148093e-07  9.9489852e-09  3.0153194e-07  12233766     
   1023000   2.2059882e-10  14415.374      5095.2229      947368.49      3.1148111e-07  9.9598334e-09  3.0152127e-07  12233574     
   1024000   2.2081446e-10  14415.719      5095.6052      947365.14      3.1148172e-07  9.9532213e-09  3.015285e-07   12233761     
   1025000   2.210301e-10   14415.467      5095.4309      947357.16      3.1148164e-07  9.958406e-09   3.0152324e-07  12233673     
   1026000   2.2124574e-10  14415.341      5095.4076      947346.75      3.1148099e-07  9.9603881e-09  3.015206e-07   12233610     
   1027000   2.2146138e-10  14414.948      5095.1616      947331.63      3.11481e-07    9.9686248e-09  3.0151238e-07  12233484     
   1028000   2.2167702e-10  14414.601      5094.918       947320.93      3.1148173e-07  9.9766074e-09  3.0150512e-07  12233412     
   1029000   2.2189265e-10  14414.956      5095.288       947319.79      3.1148296e-07  9.970414e-09   3.0151255e-07  12233633     
   1030000   2.2210829e-10  14415.196      5095.6626      947306.54      3.1148364e-07  9.9660787e-09  3.0151756e-07  12233768     
   1031000   2.2232393e-10  14415.258      5095.8799      947291.05      3.1148384e-07  9.9649816e-09  3.0151886e-07  12233813     
   1032000   2.2253957e-10  14414.862      5095.5337      947285.67      3.1148373e-07  9.9731548e-09  3.0151057e-07  12233656     
   1033000   2.2275521e-10  14415.017      5095.7273      947281.94      3.1148316e-07  9.9693475e-09  3.0151381e-07  12233689     
   1034000   2.2297085e-10  14415.248      5096.0312      947274.86      3.114835e-07   9.9648573e-09  3.0151864e-07  12233790     
   1035000   2.2318649e-10  14415.21       5095.9911      947275.05      3.1148321e-07  9.9653619e-09  3.0151785e-07  12233757     
   1036000   2.2340213e-10  14415.068      5095.9891      947260.88      3.114823e-07   9.9674233e-09  3.0151488e-07  12233636     
   1037000   2.2361777e-10  14415.604      5096.6996      947243.95      3.11483e-07    9.9569087e-09  3.0152609e-07  12233866     
   1038000   2.2383341e-10  14415.707      5097.5964      947164.63      3.1148302e-07  9.9547662e-09  3.0152825e-07  12233880     
   1039000   2.2404905e-10  14415.711      5097.5968      947164.99      3.1148336e-07  9.9550304e-09  3.0152833e-07  12233894     
   1040000   2.2426468e-10  14415.279      5097.1117      947169.83      3.1148411e-07  9.9648201e-09  3.0151929e-07  12233775     
   1041000   2.2448032e-10  14414.94       5096.9493      947151.88      3.1148348e-07  9.9712685e-09  3.0151221e-07  12233645     
   1042000   2.2469596e-10  14414.665      5096.8353      947135.48      3.1148407e-07  9.9776072e-09  3.0150646e-07  12233608     
   1043000   2.249116e-10   14414.78       5097.1107      947119.5       3.1148369e-07  9.9748381e-09  3.0150885e-07  12233634     
   1044000   2.2512724e-10  14415.025      5097.4505      947110.31      3.1148365e-07  9.9696587e-09  3.0151399e-07  12233708     
   1045000   2.2534288e-10  14415.48       5097.8474      947116.49      3.1148315e-07  9.9596638e-09  3.0152349e-07  12233826     
   1046000   2.2555852e-10  14415.552      5098.5439      947054.08      3.1148276e-07  9.9577553e-09  3.01525e-07    12233794     
   1047000   2.2577416e-10  14416.107      5099.2234      947042.19      3.1148212e-07  9.9455109e-09  3.0153661e-07  12233954     
   1048000   2.259898e-10   14415.588      5098.8195      947030.17      3.1148194e-07  9.9561767e-09  3.0152576e-07  12233731     
   1049000   2.2620544e-10  14415.559      5098.7861      947030.61      3.1148159e-07  9.9564335e-09  3.0152516e-07  12233706     
   1050000   2.2642108e-10  14415.657      5098.9751      947021.57      3.1148165e-07  9.9544464e-09  3.0152721e-07  12233748     
   1051000   2.2663672e-10  14415.732      5099.1565      947010.98      3.1148165e-07  9.9528775e-09  3.0152877e-07  12233759     
   1052000   2.2685235e-10  14416.027      5099.4781      947008.62      3.1148223e-07  9.9472844e-09  3.0153494e-07  12233894     
   1053000   2.2706799e-10  14415.756      5099.7469      946954.31      3.1148174e-07  9.9524641e-09  3.0152927e-07  12233761     
   1054000   2.2728363e-10  14415.778      5099.8499      946946.25      3.1148227e-07  9.9525343e-09  3.0152974e-07  12233818     
   1055000   2.2749927e-10  14415.607      5099.6984      946944.14      3.1148294e-07  9.9567745e-09  3.0152617e-07  12233808     
   1056000   2.2771491e-10  14415.626      5099.9197      946923.82      3.1148302e-07  9.9564755e-09  3.0152654e-07  12233832     
   1057000   2.2793055e-10  14415.252      5099.6913      946908.87      3.114822e-07   9.9634746e-09  3.0151872e-07  12233654     
   1058000   2.2814619e-10  14415.262      5099.7752      946901.48      3.1148176e-07  9.9628304e-09  3.0151893e-07  12233643     
   1059000   2.2836183e-10  14415.534      5099.9258      946913.97      3.1148251e-07  9.9578802e-09  3.0152463e-07  12233794     
   1060000   2.2857747e-10  14415.447      5099.9102      946906.68      3.114831e-07   9.960298e-09   3.015228e-07   12233790     
   1061000   2.2879311e-10  14415.328      5099.7623      946909.46      3.1148279e-07  9.9624766e-09  3.0152031e-07  12233736     
   1062000   2.2900875e-10  14415.199      5099.6683      946905.82      3.1148298e-07  9.965363e-09   3.0151761e-07  12233696     
   1063000   2.2922438e-10  14415.706      5100.3507      946888.77      3.1148328e-07  9.9550677e-09  3.0152822e-07  12233901     
   1064000   2.2944002e-10  14415.524      5100.172       946888.34      3.1148288e-07  9.9584523e-09  3.0152443e-07  12233775     
   1065000   2.2965566e-10  14415.794      5100.5192      946880.84      3.1148235e-07  9.9522847e-09  3.0153007e-07  12233836     
   1066000   2.298713e-10   14415.695      5100.6622      946856.48      3.1148187e-07  9.9538835e-09  3.0152799e-07  12233784     
   1067000   2.3008694e-10  14415.524      5100.6071      946844.74      3.1148254e-07  9.9581205e-09  3.0152442e-07  12233767     
   1068000   2.3030258e-10  14415.556      5100.6346      946845.26      3.1148327e-07  9.9581722e-09  3.0152509e-07  12233834     
   1069000   2.3051822e-10  14415.305      5100.4749      946835.86      3.1148394e-07  9.9640943e-09  3.0151984e-07  12233802     
   1070000   2.3073386e-10  14415.435      5100.6691      946829.51      3.1148326e-07  9.96071e-09    3.0152255e-07  12233808     
   1071000   2.309495e-10   14415.563      5100.8072      946828.65      3.1148221e-07  9.956975e-09   3.0152523e-07  12233784     
   1072000   2.3116514e-10  14415.564      5100.7436      946835.14      3.1148131e-07  9.9560546e-09  3.0152526e-07  12233712     
   1073000   2.3138078e-10  14415.642      5100.8395      946833.45      3.1148236e-07  9.95547e-09    3.0152689e-07  12233791     
   1074000   2.3159641e-10  14415.621      5100.8722      946828.05      3.1148204e-07  9.9555816e-09  3.0152646e-07  12233759     
   1075000   2.3181205e-10  14415.679      5101.1972      946801.31      3.114811e-07   9.9534438e-09  3.0152765e-07  12233711     
   1076000   2.3202769e-10  14415.891      5101.4793      946794.5       3.1148176e-07  9.9496704e-09  3.0153209e-07  12233795     
   1077000   2.3224333e-10  14416.236      5101.7443      946802.9       3.1148171e-07  9.9424002e-09  3.0153931e-07  12233891     
   1078000   2.3245897e-10  14416.042      5101.6266      946795.08      3.1148253e-07  9.9472721e-09  3.0153526e-07  12233875     
   1079000   2.3267461e-10  14415.862      5101.5921      946780.33      3.1148233e-07  9.9508409e-09  3.0153149e-07  12233839     
   1080000   2.3289025e-10  14415.869      5101.6352      946776.71      3.1148224e-07  9.9506081e-09  3.0153163e-07  12233864     
   1081000   2.3310589e-10  14415.559      5101.5266      946756.21      3.1148192e-07  9.9567769e-09  3.0152514e-07  12233745     
   1082000   2.3332153e-10  14415.372      5101.5058      946739.43      3.1148268e-07  9.9614366e-09  3.0152124e-07  12233750     
   1083000   2.3353717e-10  14415.015      5101.1137      946742.58      3.1148268e-07  9.9689109e-09  3.0151377e-07  12233637     
   1084000   2.3375281e-10  14414.94       5101.0776      946738.57      3.1148241e-07  9.970217e-09   3.015122e-07   12233610     
   1085000   2.3396845e-10  14414.986      5101.3743      946713.59      3.11482e-07    9.9688258e-09  3.0151317e-07  12233621     
   1086000   2.3418408e-10  14415.323      5101.7313      946711.91      3.1148383e-07  9.9636152e-09  3.0152022e-07  12233851     
   1087000   2.3439972e-10  14415.609      5102.0228      946711.6       3.1148376e-07  9.9575686e-09  3.0152619e-07  12233942     
   1088000   2.3461536e-10  14415.629      5102.0201      946713.87      3.1148468e-07  9.9580714e-09  3.015266e-07   12233987     
   1089000   2.34831e-10    14415.664      5102.1232      946707.12      3.1148502e-07  9.9576732e-09  3.0152734e-07  12234016     
   1090000   2.3504664e-10  14415.205      5101.699       946703.17      3.114854e-07   9.9676614e-09  3.0151774e-07  12233871     
   1091000   2.3526228e-10  14415.505      5102.0626      946697.09      3.1148433e-07  9.9603158e-09  3.0152401e-07  12233938     
   1092000   2.3547792e-10  14415.223      5101.821       946692.83      3.1148434e-07  9.9662157e-09  3.0151813e-07  12233806     
   1093000   2.3569356e-10  14414.973      5101.7985      946669.78      3.1148479e-07  9.9718979e-09  3.0151289e-07  12233728     
   1094000   2.359092e-10   14414.906      5101.7502      946667.81      3.1148343e-07  9.9719417e-09  3.0151149e-07  12233633     
   1095000   2.3612484e-10  14414.96       5102.1721      946631.03      3.1148385e-07  9.9712383e-09  3.0151261e-07  12233662     
   1096000   2.3634048e-10  14415.332      5102.4832      946637.55      3.1148198e-07  9.9615788e-09  3.0152041e-07  12233677     
   1097000   2.3655611e-10  14415.505      5102.6945      946633.9       3.1148214e-07  9.9581153e-09  3.0152403e-07  12233732     
   1098000   2.3677175e-10  14415.065      5102.3666      946622.2       3.1148371e-07  9.9688936e-09  3.0151482e-07  12233660     
   1099000   2.3698739e-10  14415.069      5102.4201      946617.22      3.1148262e-07  9.9677275e-09  3.0151489e-07  12233619     
   1100000   2.3720303e-10  14415.424      5102.8735      946607.8       3.1148269e-07  9.9603515e-09  3.0152233e-07  12233744     
   1101000   2.3741867e-10  14415.622      5102.9377      946621.35      3.114824e-07   9.9559369e-09  3.0152647e-07  12233781     
   1102000   2.3763431e-10  14415.331      5102.7086      946614.88      3.1148132e-07  9.9609402e-09  3.0152038e-07  12233580     
   1103000   2.3784995e-10  14415.801      5103.1902      946614.23      3.1148107e-07  9.950845e-09   3.0153022e-07  12233731     
   1104000   2.3806559e-10  14415.916      5103.3273      946612.11      3.1148113e-07  9.9485021e-09  3.0153262e-07  12233766     
   1105000   2.3828123e-10  14415.977      5103.4572      946605.26      3.1148162e-07  9.9477208e-09  3.015339e-07   12233817     
   1106000   2.3849687e-10  14416.157      5103.7673      946592.42      3.1148139e-07  9.9437309e-09  3.0153766e-07  12233875     
   1107000   2.3871251e-10  14415.678      5103.9061      946530.1       3.1148172e-07  9.9540724e-09  3.0152764e-07  12233723     
   1108000   2.3892814e-10  14415.272      5103.5824      946521.46      3.1148209e-07  9.9629342e-09  3.0151915e-07  12233629     
   1109000   2.3914378e-10  14414.937      5103.3194      946513.85      3.1148195e-07  9.9698189e-09  3.0151213e-07  12233506     
   1110000   2.3935942e-10  14415.247      5103.6611      946511.08      3.1148169e-07  9.9630515e-09  3.0151863e-07  12233606     
   1111000   2.3957506e-10  14415.702      5103.9316      946529.98      3.1148318e-07  9.9550295e-09  3.0152815e-07  12233863     
   1112000   2.397907e-10   14415.641      5103.9591      946521.02      3.1148298e-07  9.9561143e-09  3.0152686e-07  12233821     
   1113000   2.4000634e-10  14415.499      5104.0757      946495.06      3.1148286e-07  9.9589544e-09  3.0152391e-07  12233758     
   1114000   2.4022198e-10  14415.761      5104.3834      946490.7       3.1148314e-07  9.9537581e-09  3.0152938e-07  12233891     
   1115000   2.4043762e-10  14415.567      5104.2616      946483.23      3.1148332e-07  9.9580054e-09  3.0152531e-07  12233823     
   1116000   2.4065326e-10  14415.8        5104.581       946474.85      3.1148326e-07  9.9530717e-09  3.0153019e-07  12233893     
   1117000   2.408689e-10   14415.551      5104.4449      946463.34      3.1148213e-07  9.9571372e-09  3.0152499e-07  12233711     
   1118000   2.4108454e-10  14415.852      5104.8109      946457.11      3.114816e-07   9.9503168e-09  3.0153128e-07  12233778     
   1119000   2.4130018e-10  14415.847      5104.8649      946451.22      3.1148007e-07  9.9488876e-09  3.0153118e-07  12233669     
   1120000   2.4151581e-10  14415.801      5104.8502      946447.98      3.1148097e-07  9.9507676e-09  3.0153021e-07  12233725     
   1121000   2.4173145e-10  14415.43       5104.5997      946435.56      3.1148134e-07  9.9588909e-09  3.0152245e-07  12233627     
   1122000   2.4194709e-10  14415.684      5104.7788      946443.3       3.114817e-07   9.9539413e-09  3.0152776e-07  12233747     
   1123000   2.4216273e-10  14415.759      5104.9885      946429.88      3.1148162e-07  9.9522919e-09  3.0152933e-07  12233764     
   1124000   2.4237837e-10  14415.768      5105.1631      946413.4       3.114825e-07   9.9529712e-09  3.0152953e-07  12233832     
   1125000   2.4259401e-10  14415.655      5105.0046      946417.75      3.1148179e-07  9.9546439e-09  3.0152715e-07  12233753     
   1126000   2.4280965e-10  14415.71       5105.2379      946400.04      3.1148125e-07  9.9529391e-09  3.0152832e-07  12233739     
   1127000   2.4302529e-10  14415.791      5105.4274      946389.26      3.1148157e-07  9.9515579e-09  3.0153001e-07  12233782     
   1128000   2.4324093e-10  14416.323      5106.0619      946379.49      3.114815e-07   9.9403672e-09  3.0154113e-07  12233977     
   1129000   2.4345657e-10  14416.058      5105.9485      946364.03      3.1148054e-07  9.9449533e-09  3.0153558e-07  12233814     
   1130000   2.4367221e-10  14415.959      5105.8239      946366.51      3.1148152e-07  9.9480064e-09  3.0153352e-07  12233838     
   1131000   2.4388784e-10  14415.878      5105.7779      946362.9       3.1148115e-07  9.9493299e-09  3.0153182e-07  12233790     
   1132000   2.4410348e-10  14415.383      5105.3124      946359.53      3.114813e-07   9.9598184e-09  3.0152148e-07  12233610     
   1133000   2.4431912e-10  14415.787      5105.8569      946345.86      3.1148122e-07  9.9512925e-09  3.0152993e-07  12233761     
   1134000   2.4453476e-10  14415.733      5105.9721      946328.81      3.1148134e-07  9.952562e-09   3.0152878e-07  12233734     
   1135000   2.447504e-10   14415.672      5106.0607      946313.79      3.1148135e-07  9.953834e-09   3.0152751e-07  12233715     
   1136000   2.4496604e-10  14415.9        5106.5964      946283.19      3.1148124e-07  9.9489709e-09  3.0153227e-07  12233812     
   1137000   2.4518168e-10  14415.499      5106.2956      946272.79      3.1148269e-07  9.9588003e-09  3.0152389e-07  12233758     
   1138000   2.4539732e-10  14415.08       5105.9374      946266.29      3.1148173e-07  9.9665959e-09  3.0151513e-07  12233552     
   1139000   2.4561296e-10  14415.391      5106.2087      946270.54      3.1148173e-07  9.9600985e-09  3.0152163e-07  12233687     
   1140000   2.458286e-10   14415.351      5106.3518      946252.25      3.1148169e-07  9.9608816e-09  3.0152081e-07  12233652     
   1141000   2.4604424e-10  14415.847      5106.9835      946239.12      3.114816e-07   9.950428e-09   3.0153117e-07  12233817     
   1142000   2.4625988e-10  14415.689      5106.7872      946242.83      3.1148153e-07  9.9536543e-09  3.0152788e-07  12233743     
   1143000   2.4647551e-10  14415.724      5106.9177      946233.23      3.1148183e-07  9.9532325e-09  3.0152859e-07  12233797     
   1144000   2.4669115e-10  14415.528      5106.7882      946226.39      3.1148178e-07  9.9572801e-09  3.015245e-07   12233737     
   1145000   2.4690679e-10  14415.386      5106.4931      946241.58      3.1148183e-07  9.960303e-09   3.0152153e-07  12233693     
   1146000   2.4712243e-10  14415.383      5106.6012      946230.46      3.1148196e-07  9.9604937e-09  3.0152146e-07  12233685     
   1147000   2.4733807e-10  14415.588      5106.9001      946221.34      3.1148185e-07  9.9560811e-09  3.0152577e-07  12233723     
   1148000   2.4755371e-10  14416.173      5107.5412      946216.29      3.1148159e-07  9.9435936e-09  3.01538e-07    12233915     
   1149000   2.4776935e-10  14415.85       5107.3951      946198.26      3.1148137e-07  9.9501254e-09  3.0153124e-07  12233780     
   1150000   2.4798499e-10  14415.406      5107.1009      946182.76      3.1148132e-07  9.959373e-09   3.0152194e-07  12233611     
   1151000   2.4820063e-10  14415.721      5107.5894      946165.77      3.1148064e-07  9.9520914e-09  3.0152855e-07  12233709     
   1152000   2.4841627e-10  14415.577      5107.4531      946164.87      3.1148075e-07  9.9552092e-09  3.0152554e-07  12233676     
   1153000   2.4863191e-10  14415.598      5107.69        946143.2       3.1148098e-07  9.9550233e-09  3.0152596e-07  12233722     
   1154000   2.4884754e-10  14415.358      5107.6237      946125.58      3.1148157e-07  9.9606269e-09  3.0152094e-07  12233657     
   1155000   2.4906318e-10  14415.749      5108.2233      946105.14      3.1148159e-07  9.952457e-09   3.0152913e-07  12233796     
   1156000   2.4927882e-10  14415.76       5108.2769      946100.87      3.1148152e-07  9.9521677e-09  3.0152936e-07  12233786     
   1157000   2.4949446e-10  14415.791      5108.2956      946102.17      3.1148144e-07  9.9514238e-09  3.0153001e-07  12233778     
   1158000   2.497101e-10   14415.897      5108.1839      946124.01      3.114811e-07   9.9488808e-09  3.0153222e-07  12233776     
   1159000   2.4992574e-10  14415.716      5108.2596      946098.15      3.1148071e-07  9.9522701e-09  3.0152844e-07  12233688     
   1160000   2.5014138e-10  14415.717      5108.3595      946088.2       3.1148104e-07  9.9525969e-09  3.0152845e-07  12233749     
   1161000   2.5035702e-10  14415.251      5108.1492      946062.21      3.1148187e-07  9.9631569e-09  3.0151871e-07  12233642     
   1162000   2.5057266e-10  14414.994      5107.8267      946068.51      3.1148265e-07  9.9693089e-09  3.0151334e-07  12233606     
   1163000   2.507883e-10   14415.224      5108.149       946059.52      3.1148285e-07  9.964702e-09   3.0151815e-07  12233714     
   1164000   2.5100394e-10  14415.422      5108.2422      946070.14      3.1148295e-07  9.9606671e-09  3.0152228e-07  12233780     
   1165000   2.5121957e-10  14415.528      5108.4098      946064.06      3.1148254e-07  9.9580462e-09  3.0152449e-07  12233783     
   1166000   2.5143521e-10  14415.836      5108.9246      946043.74      3.1148219e-07  9.9512395e-09  3.0153095e-07  12233887     
   1167000   2.5165085e-10  14415.152      5108.1742      946049.66      3.1148207e-07  9.9654317e-09  3.0151664e-07  12233619     
   1168000   2.5186649e-10  14415.367      5108.3666      946052.2       3.1148225e-07  9.9611092e-09  3.0152114e-07  12233708     
   1169000   2.5208213e-10  14415.579      5108.661       946044.16      3.1148356e-07  9.9579818e-09  3.0152558e-07  12233830     
   1170000   2.5229777e-10  14415.586      5108.7323      946037.72      3.1148362e-07  9.957901e-09   3.0152572e-07  12233832     
   1171000   2.5251341e-10  14415.627      5108.8742      946027.62      3.11483e-07    9.9564285e-09  3.0152657e-07  12233844     
   1172000   2.5272905e-10  14415.48       5108.7408      946026.17      3.1148283e-07  9.9593186e-09  3.0152351e-07  12233790     
   1173000   2.5294469e-10  14415.36       5108.7952      946008.56      3.1148327e-07  9.9622775e-09  3.0152099e-07  12233764     
   1174000   2.5316033e-10  14415.369      5108.8056      946008.38      3.1148208e-07  9.9609137e-09  3.0152117e-07  12233697     
   1175000   2.5337597e-10  14415.502      5109.0836      945994.07      3.1148233e-07  9.958366e-09   3.0152397e-07  12233764     
   1176000   2.5359161e-10  14415.315      5108.995       945983.98      3.1148273e-07  9.9626868e-09  3.0152004e-07  12233708     
   1177000   2.5380724e-10  14415.101      5108.8691      945975         3.1148344e-07  9.9678653e-09  3.0151558e-07  12233650     
   1178000   2.5402288e-10  14415.808      5109.4269      945990.63      3.114832e-07   9.9528306e-09  3.0153037e-07  12233896     
   1179000   2.5423852e-10  14415.852      5109.4168      945996.02      3.1148353e-07  9.9522579e-09  3.0153127e-07  12233930     
   1180000   2.5445416e-10  14415.405      5109.0221      945990.41      3.1148199e-07  9.9600506e-09  3.0152194e-07  12233680     
   1181000   2.546698e-10   14415.422      5109.2794      945966.3       3.1148252e-07  9.9602472e-09  3.0152228e-07  12233708     
   1182000   2.5488544e-10  14415.356      5109.2035      945967.25      3.1148314e-07  9.9622361e-09  3.015209e-07   12233708     
   1183000   2.5510108e-10  14415.465      5109.41        945957.64      3.114832e-07   9.9600096e-09  3.0152319e-07  12233773     
   1184000   2.5531672e-10  14415.444      5109.5666      945939.87      3.1148395e-07  9.9611972e-09  3.0152276e-07  12233837     
   1185000   2.5553236e-10  14415.425      5109.5449      945940.06      3.1148381e-07  9.9614635e-09  3.0152235e-07  12233835     
   1186000   2.55748e-10    14415.372      5109.799       945909.27      3.1148334e-07  9.9621003e-09  3.0152124e-07  12233791     
   1187000   2.5596364e-10  14414.993      5109.6054      945890.34      3.1148337e-07  9.9700549e-09  3.0151331e-07  12233651     
   1188000   2.5617927e-10  14415.253      5109.7559      945901.55      3.1148326e-07  9.9645076e-09  3.0151875e-07  12233731     
   1189000   2.5639491e-10  14415.441      5109.9593      945900.17      3.1148217e-07  9.9594917e-09  3.0152268e-07  12233719     
   1190000   2.5661055e-10  14415.63       5110.2777      945887.46      3.1148227e-07  9.9556346e-09  3.0152664e-07  12233774     
   1191000   2.5682619e-10  14415.841      5110.4867      945887.87      3.1148222e-07  9.9511649e-09  3.0153105e-07  12233850     
   1192000   2.5704183e-10  14415.135      5109.905       945874.7       3.1148268e-07  9.9664006e-09  3.0151628e-07  12233621     
   1193000   2.5725747e-10  14415.577      5110.2128      945888.58      3.1148346e-07  9.9579274e-09  3.0152553e-07  12233862     
   1194000   2.5747311e-10  14415.478      5110.1418      945885.63      3.1148326e-07  9.9598101e-09  3.0152345e-07  12233828     
   1195000   2.5768875e-10  14415.238      5109.9973      945875.88      3.1148324e-07  9.9648031e-09  3.0151844e-07  12233731     
   1196000   2.5790439e-10  14415.327      5110.2114      945863.43      3.1148292e-07  9.962623e-09   3.015203e-07   12233726     
   1197000   2.5812003e-10  14415.481      5110.3469      945865.5       3.1148236e-07  9.9588363e-09  3.0152353e-07  12233734     
   1198000   2.5833567e-10  14415.502      5110.4658      945855.65      3.1148235e-07  9.9583989e-09  3.0152395e-07  12233737     
   1199000   2.585513e-10   14415.667      5110.8235      945836.54      3.1148362e-07  9.9562112e-09  3.0152741e-07  12233885     
   1200000   2.5876694e-10  14415.788      5110.9311      945838.01      3.1148347e-07  9.953526e-09   3.0152994e-07  12233939     
   1201000   2.5898258e-10  14415.8        5110.8243      945849.95      3.1148327e-07  9.9530717e-09  3.015302e-07   12233948     
   1202000   2.5919822e-10  14415.397      5110.4311      945848.5       3.1148346e-07  9.9617049e-09  3.0152176e-07  12233803     
   1203000   2.5941386e-10  14414.951      5110.2525      945821.34      3.1148351e-07  9.9710697e-09  3.0151244e-07  12233645     
   1204000   2.596295e-10   14414.873      5110.5261      945786.01      3.1148302e-07  9.9722284e-09  3.0151079e-07  12233602     
   1205000   2.5984514e-10  14415.255      5111.1203      945765.17      3.1148286e-07  9.9640709e-09  3.0151879e-07  12233748     
   1206000   2.6006078e-10  14415.265      5111.2209      945756.09      3.1148256e-07  9.9635661e-09  3.0151899e-07  12233720     
   1207000   2.6027642e-10  14415.607      5111.7326      945739.47      3.1148329e-07  9.9571418e-09  3.0152615e-07  12233877     
   1208000   2.6049206e-10  14415.391      5111.6287      945728.05      3.1148233e-07  9.9606933e-09  3.0152164e-07  12233711     
   1209000   2.607077e-10   14415.885      5112.1866      945722.15      3.1148284e-07  9.95087e-09    3.0153197e-07  12233912     
   1210000   2.6092334e-10  14415.866      5112.4086      945698.02      3.1148235e-07  9.9507719e-09  3.0153158e-07  12233871     
   1211000   2.6113897e-10  14415.412      5112.0761      945685.36      3.1148284e-07  9.9607657e-09  3.0152207e-07  12233752     
   1212000   2.6135461e-10  14415.194      5111.9783      945673.18      3.1148264e-07  9.9651104e-09  3.0151753e-07  12233681     
   1213000   2.6157025e-10  14415.027      5111.9352      945660.57      3.1148277e-07  9.9687433e-09  3.0151402e-07  12233623     
   1214000   2.6178589e-10  14415.317      5112.4004      945643.35      3.1148166e-07  9.9615638e-09  3.015201e-07   12233651     
   1215000   2.6200153e-10  14415.318      5112.46        945637.46      3.1148129e-07  9.9611738e-09  3.0152011e-07  12233608     
   1216000   2.6221717e-10  14415.424      5112.7277      945621.37      3.1148053e-07  9.9582052e-09  3.0152233e-07  12233588     
   1217000   2.6243281e-10  14415.595      5112.9704      945614.33      3.1148125e-07  9.9553476e-09  3.015259e-07   12233675     
   1218000   2.6264845e-10  14415.673      5113.0761      945611.72      3.114817e-07   9.9541593e-09  3.0152754e-07  12233724     
   1219000   2.6286409e-10  14415.628      5113.2395      945590.8       3.1148301e-07  9.9564067e-09  3.015266e-07   12233796     
   1220000   2.6307973e-10  14415.154      5113.0645      945560.38      3.1148291e-07  9.966223e-09   3.0151668e-07  12233626     
   1221000   2.6329537e-10  14415.091      5112.9491      945565.57      3.1148231e-07  9.9669416e-09  3.0151537e-07  12233589     
   1222000   2.63511e-10    14415.344      5113.2212      945563.93      3.1148184e-07  9.9611785e-09  3.0152066e-07  12233674     
   1223000   2.6372664e-10  14415.264      5113.2818      945549.72      3.1148239e-07  9.9634111e-09  3.0151898e-07  12233665     
   1224000   2.6394228e-10  14415.654      5113.8312      945534.21      3.1148349e-07  9.9563382e-09  3.0152715e-07  12233870     
   1225000   2.6415792e-10  14415.701      5113.9769      945524.29      3.1148399e-07  9.9558753e-09  3.0152811e-07  12233934     
   1226000   2.6437356e-10  14415.25       5114.0145      945475.01      3.1148384e-07  9.9651396e-09  3.015187e-07   12233795     
   1227000   2.645892e-10   14414.848      5113.6827      945467.59      3.1148341e-07  9.9731164e-09  3.0151029e-07  12233634     
   1228000   2.6480484e-10  14415.138      5114.574       945407.62      3.1148355e-07  9.9672101e-09  3.0151634e-07  12233737     
   1229000   2.6502048e-10  14415.46       5114.9835      945399.2       3.114839e-07   9.9608239e-09  3.0152308e-07  12233849     
   1230000   2.6523612e-10  14415.415      5114.8377      945409.22      3.114838e-07   9.9616631e-09  3.0152213e-07  12233817     
   1231000   2.6545176e-10  14415.368      5114.972       945391.04      3.1148294e-07  9.9617874e-09  3.0152115e-07  12233776     
   1232000   2.656674e-10   14415.317      5114.9443      945388.64      3.1148386e-07  9.9637825e-09  3.0152008e-07  12233841     
   1233000   2.6588303e-10  14415.067      5114.6609      945391.74      3.1148467e-07  9.9698183e-09  3.0151485e-07  12233807     
   1234000   2.6609867e-10  14415.089      5114.7289      945387.2       3.1148455e-07  9.9692242e-09  3.0151532e-07  12233811     
   1235000   2.6631431e-10  14415.14       5115.3543      945329.71      3.1148407e-07  9.9676939e-09  3.0151638e-07  12233806     
   1236000   2.6652995e-10  14414.875      5115.2126      945317.11      3.1148376e-07  9.9729157e-09  3.0151084e-07  12233686     
   1237000   2.6674559e-10  14414.915      5115.4387      945298.51      3.1148383e-07  9.9721561e-09  3.0151167e-07  12233706     
   1238000   2.6696123e-10  14415.098      5115.845       945276.36      3.114832e-07   9.9676988e-09  3.015155e-07   12233732     
   1239000   2.6717687e-10  14415.229      5116.0275      945271.4       3.1148289e-07  9.9646268e-09  3.0151826e-07  12233734     
   1240000   2.6739251e-10  14415.485      5116.4591      945254.05      3.1148127e-07  9.9576588e-09  3.0152361e-07  12233696     
   1241000   2.6760815e-10  14415.646      5116.7877      945237.43      3.1148212e-07  9.9551441e-09  3.0152697e-07  12233783     
   1242000   2.6782379e-10  14415.564      5117.0353      945204.29      3.1148221e-07  9.9569659e-09  3.0152525e-07  12233754     
   1243000   2.6803943e-10  14415.664      5117.1296      945205.04      3.1148303e-07  9.9556756e-09  3.0152735e-07  12233841     
   1244000   2.6825507e-10  14415.303      5116.9542      945186.02      3.1148257e-07  9.9627875e-09  3.0151979e-07  12233672     
   1245000   2.684707e-10   14415.539      5117.2076      945184.55      3.114819e-07   9.957171e-09   3.0152473e-07  12233713     
   1246000   2.6868634e-10  14415.478      5117.2748      945171.65      3.1148238e-07  9.9589329e-09  3.0152345e-07  12233711     
   1247000   2.6890198e-10  14415.404      5117.4103      945150.66      3.1148095e-07  9.9590324e-09  3.0152192e-07  12233594     
   1248000   2.6911762e-10  14415.627      5117.6152      945152.63      3.1148144e-07  9.9548751e-09  3.0152657e-07  12233716     
   1249000   2.6933326e-10  14415.497      5117.3934      945161.67      3.1148181e-07  9.9579665e-09  3.0152384e-07  12233703     
   1250000   2.695489e-10   14415.453      5117.5033      945146.27      3.1148216e-07  9.9592243e-09  3.0152293e-07  12233718     
   1251000   2.6976454e-10  14415.435      5117.4638      945148.43      3.1148232e-07  9.9597552e-09  3.0152256e-07  12233726     
   1252000   2.6998018e-10  14415.069      5117.2248      945135.27      3.1148157e-07  9.9666752e-09  3.0151489e-07  12233533     
   1253000   2.7019582e-10  14415.199      5117.4762      945123.35      3.114817e-07   9.9640657e-09  3.0151763e-07  12233609     
   1254000   2.7041146e-10  14415.433      5117.9748      945097.01      3.1148147e-07  9.9589665e-09  3.0152251e-07  12233704     
   1255000   2.706271e-10   14415.36       5118.0405      945083.14      3.1148213e-07  9.9611368e-09  3.01521e-07    12233701     
   1256000   2.7084273e-10  14415.356      5118.4528      945041.41      3.1148205e-07  9.9611508e-09  3.015209e-07   12233693     
   1257000   2.7105837e-10  14415.486      5118.7289      945026.93      3.1148235e-07  9.9587255e-09  3.0152363e-07  12233763     
   1258000   2.7127401e-10  14415.649      5118.9496      945021.34      3.11482e-07    9.954961e-09   3.0152704e-07  12233799     
   1259000   2.7148965e-10  14415.683      5119.0949      945010.25      3.1148153e-07  9.9537775e-09  3.0152775e-07  12233753     
   1260000   2.7170529e-10  14415.752      5119.0533      945021.37      3.1148179e-07  9.9525966e-09  3.0152919e-07  12233759     
   1261000   2.7192093e-10  14415.929      5119.1282      945031.72      3.1148115e-07  9.9482646e-09  3.0153289e-07  12233776     
   1262000   2.7213657e-10  14415.976      5119.2588      945023.37      3.1148022e-07  9.9463587e-09  3.0153386e-07  12233744     
   1263000   2.7235221e-10  14415.84       5119.3639      944999.2       3.1148076e-07  9.9497192e-09  3.0153104e-07  12233734     
   1264000   2.7256785e-10  14415.881      5119.344       945005.34      3.1148123e-07  9.949334e-09   3.015319e-07   12233781     
   1265000   2.7278349e-10  14415.831      5119.3618      944998.46      3.1148124e-07  9.9504013e-09  3.0153084e-07  12233755     
   1266000   2.7299913e-10  14415.831      5119.3855      944996.04      3.1148114e-07  9.9503117e-09  3.0153083e-07  12233742     
   1267000   2.7321477e-10  14415.797      5119.3157      944999.59      3.1148112e-07  9.9509996e-09  3.0153012e-07  12233744     
   1268000   2.734304e-10   14415.323      5118.8633      944997.03      3.1148115e-07  9.9609304e-09  3.0152022e-07  12233561     
   1269000   2.7364604e-10  14415.572      5119.2123      944987.29      3.114814e-07   9.9559663e-09  3.0152543e-07  12233660     
   1270000   2.7386168e-10  14415.853      5119.5945      944977.36      3.1148129e-07  9.9499969e-09  3.015313e-07   12233724     
   1271000   2.7407732e-10  14416.298      5120.1037      944971.45      3.1148075e-07  9.9401305e-09  3.0154062e-07  12233855     
   1272000   2.7429296e-10  14416.017      5119.8539      944967.97      3.1148123e-07  9.9465013e-09  3.0153473e-07  12233788     
   1273000   2.745086e-10   14415.409      5119.232       944968.82      3.1148141e-07  9.9593906e-09  3.0152202e-07  12233610     
   1274000   2.7472424e-10  14415.213      5119.1984      944952.34      3.1148092e-07  9.9630054e-09  3.0151792e-07  12233553     
   1275000   2.7493988e-10  14415.532      5119.5273      944951.68      3.1148131e-07  9.9567168e-09  3.0152459e-07  12233710     
   1276000   2.7515552e-10  14415.881      5119.8705      944952.55      3.1148179e-07  9.9499125e-09  3.0153188e-07  12233835     
   1277000   2.7537116e-10  14415.615      5119.7115      944941.66      3.1148166e-07  9.9553258e-09  3.0152633e-07  12233694     
   1278000   2.755868e-10   14415.603      5119.539       944957.61      3.1148163e-07  9.9555678e-09  3.0152606e-07  12233684     
   1279000   2.7580243e-10  14415.218      5119.1766      944954.97      3.1148151e-07  9.9635009e-09  3.0151801e-07  12233535     
   1280000   2.7601807e-10  14415.49       5119.4362      944956.53      3.1148123e-07  9.9575257e-09  3.0152371e-07  12233641     
   1281000   2.7623371e-10  14415.765      5119.7393      944953.98      3.1148162e-07  9.9521625e-09  3.0152946e-07  12233773     
   1282000   2.7644935e-10  14415.803      5120.0054      944931.23      3.1148052e-07  9.9502585e-09  3.0153026e-07  12233709     
   1283000   2.7666499e-10  14415.963      5120.2286      944925.05      3.1148022e-07  9.9466135e-09  3.0153361e-07  12233752     
   1284000   2.7688063e-10  14415.654      5120.0068      944916.02      3.114804e-07   9.9532589e-09  3.0152714e-07  12233649     
   1285000   2.7709627e-10  14415.673      5120.2411      944894.43      3.1148178e-07  9.954254e-09   3.0152753e-07  12233754     
   1286000   2.7731191e-10  14415.407      5120.1633      944875.41      3.1148206e-07  9.9600766e-09  3.0152198e-07  12233676     
   1287000   2.7752755e-10  14415.358      5120.1231      944874.45      3.1148167e-07  9.960718e-09   3.0152095e-07  12233649     
   1288000   2.7774319e-10  14415.635      5120.4145      944873.25      3.1148195e-07  9.9552081e-09  3.0152674e-07  12233774     
   1289000   2.7795883e-10  14415.682      5120.3839      944881.04      3.1148214e-07  9.9544265e-09  3.0152772e-07  12233794     
   1290000   2.7817446e-10  14415.207      5120.0658      944864.9       3.1148291e-07  9.9651194e-09  3.0151779e-07  12233647     
   1291000   2.783901e-10   14415.586      5120.5759      944852.13      3.1148246e-07  9.9567517e-09  3.0152571e-07  12233760     
   1292000   2.7860574e-10  14415.696      5120.8711      944833.71      3.1148261e-07  9.9545994e-09  3.0152801e-07  12233813     
   1293000   2.7882138e-10  14415.821      5120.8804      944845.45      3.1148177e-07  9.9511342e-09  3.0153064e-07  12233824     
   1294000   2.7903702e-10  14415.79       5121.1198      944818.37      3.1148161e-07  9.9516177e-09  3.0152999e-07  12233800     
   1295000   2.7925266e-10  14415.896      5121.3341      944807.56      3.1148134e-07  9.9491505e-09  3.0153219e-07  12233811     
   1296000   2.794683e-10   14416.038      5121.7062      944784.75      3.1148219e-07  9.9470081e-09  3.0153518e-07  12233914     
   1297000   2.7968394e-10  14415.875      5121.7054      944768.35      3.114818e-07   9.9500296e-09  3.0153177e-07  12233830     
   1298000   2.7989958e-10  14415.77       5121.6555      944762.72      3.1148197e-07  9.952397e-09   3.0152957e-07  12233774     
   1299000   2.8011522e-10  14416.279      5122.11        944768.63      3.1148151e-07  9.9412994e-09  3.0154021e-07  12233936     
   1300000   2.8033086e-10  14415.749      5121.7804      944748.1       3.1148205e-07  9.9529173e-09  3.0152913e-07  12233760     
   1301000   2.805465e-10   14415.784      5121.8849      944741.1       3.1148203e-07  9.9521766e-09  3.0152985e-07  12233786     
   1302000   2.8076213e-10  14416.076      5122.2365      944735.44      3.1148152e-07  9.9455648e-09  3.0153596e-07  12233875     
   1303000   2.8097777e-10  14415.387      5121.7984      944709.65      3.1148072e-07  9.959168e-09   3.0152155e-07  12233554     
   1304000   2.8119341e-10  14415.316      5121.7154      944710.83      3.1148024e-07  9.9601615e-09  3.0152008e-07  12233508     
   1305000   2.8140905e-10  14415.78       5122.2221      944707.02      3.1148057e-07  9.9507893e-09  3.0152978e-07  12233715     
   1306000   2.8162469e-10  14416.068      5122.5862      944699.61      3.1148139e-07  9.9456068e-09  3.0153579e-07  12233876     
   1307000   2.8184033e-10  14415.741      5122.481       944677.13      3.114816e-07   9.952645e-09   3.0152896e-07  12233775     
   1308000   2.8205597e-10  14415.577      5122.2899      944679.65      3.1148129e-07  9.9557623e-09  3.0152552e-07  12233706     
   1309000   2.8227161e-10  14415.707      5122.4974      944672.03      3.1148151e-07  9.9532652e-09  3.0152824e-07  12233776     
   1310000   2.8248725e-10  14415.305      5122.1482      944666.4       3.1148191e-07  9.9620587e-09  3.0151985e-07  12233645     
   1311000   2.8270289e-10  14415.357      5122.233       944663.12      3.1148345e-07  9.9625223e-09  3.0152092e-07  12233758     
   1312000   2.8291853e-10  14415.304      5122.573       944623.73      3.1148357e-07  9.9637519e-09  3.0151982e-07  12233770     
   1313000   2.8313416e-10  14415.171      5122.6007      944607.47      3.1148372e-07  9.9666973e-09  3.0151703e-07  12233741     
   1314000   2.833498e-10   14415.375      5122.9596      944592.19      3.1148223e-07  9.9609371e-09  3.015213e-07   12233712     
   1315000   2.8356544e-10  14415.47       5123.169       944580.85      3.1148168e-07  9.9583956e-09  3.0152329e-07  12233688     
   1316000   2.8378108e-10  14415.52       5123.0703      944595.81      3.1148091e-07  9.9565738e-09  3.0152434e-07  12233664     
   1317000   2.8399672e-10  14415.075      5122.7869      944579.19      3.1148038e-07  9.9653464e-09  3.0151503e-07  12233476     
   1318000   2.8421236e-10  14415.091      5122.7246      944587.07      3.1148083e-07  9.9654558e-09  3.0151537e-07  12233503     
   1319000   2.84428e-10    14415.416      5123.0469      944587.64      3.1148178e-07  9.9596103e-09  3.0152217e-07  12233666     
   1320000   2.8464364e-10  14415.398      5123.1504      944575.49      3.1148204e-07  9.9602482e-09  3.0152179e-07  12233663     
   1321000   2.8485928e-10  14415.375      5123.2674      944561.4       3.1148211e-07  9.9608036e-09  3.015213e-07   12233668     
   1322000   2.8507492e-10  14415.488      5123.3779      944561.73      3.1148154e-07  9.9578862e-09  3.0152366e-07  12233683     
   1323000   2.8529056e-10  14415.382      5123.4678      944542.09      3.1148265e-07  9.9611938e-09  3.0152146e-07  12233703     
   1324000   2.8550619e-10  14415.669      5123.6944      944548.39      3.1148159e-07  9.9541425e-09  3.0152745e-07  12233724     
   1325000   2.8572183e-10  14415.896      5123.9048      944550.3       3.1148074e-07  9.9485297e-09  3.0153221e-07  12233744     
   1326000   2.8593747e-10  14415.696      5123.8329      944537.25      3.114807e-07   9.9526831e-09  3.0152801e-07  12233676     
   1327000   2.8615311e-10  14415.53       5123.6374      944540.08      3.1148115e-07  9.9565939e-09  3.0152455e-07  12233667     
   1328000   2.8636875e-10  14415.345      5123.6063      944524.44      3.1148148e-07  9.9608111e-09  3.0152067e-07  12233635     
   1329000   2.8658439e-10  14415.527      5123.6518      944538.25      3.114815e-07   9.9570253e-09  3.0152447e-07  12233722     
   1330000   2.8680003e-10  14415.366      5123.6531      944521.84      3.1148128e-07  9.9601779e-09  3.015211e-07   12233643     
   1331000   2.8701567e-10  14415.49       5123.7987      944519.86      3.1148186e-07  9.9581476e-09  3.0152371e-07  12233716     
   1332000   2.8723131e-10  14415.411      5123.7556      944516.16      3.114815e-07   9.9594464e-09  3.0152205e-07  12233653     
   1333000   2.8744695e-10  14415.812      5124.2972      944502.47      3.1148136e-07  9.9509192e-09  3.0153044e-07  12233800     
   1334000   2.8766259e-10  14415.759      5124.5065      944476.16      3.1148157e-07  9.9522432e-09  3.0152933e-07  12233784     
   1335000   2.8787823e-10  14415.19       5124.0298      944466.41      3.1148201e-07  9.9645702e-09  3.0151744e-07  12233573     
   1336000   2.8809386e-10  14415.439      5124.2249      944472.05      3.1148105e-07  9.9584028e-09  3.0152264e-07  12233623     
   1337000   2.883095e-10   14415.221      5123.9508      944477.44      3.1148061e-07  9.9625207e-09  3.0151808e-07  12233509     
   1338000   2.8852514e-10  14415.469      5124.458       944451.71      3.1148185e-07  9.9585846e-09  3.0152326e-07  12233695     
   1339000   2.8874078e-10  14415.668      5124.7436      944443.24      3.1148215e-07  9.954723e-09   3.0152743e-07  12233796     
   1340000   2.8895642e-10  14415.606      5124.7338      944437.96      3.1148117e-07  9.9550355e-09  3.0152613e-07  12233696     
   1341000   2.8917206e-10  14415.74       5125.0783      944417.06      3.1148174e-07  9.9527973e-09  3.0152894e-07  12233766     
   1342000   2.893877e-10   14415.636      5125.1274      944401.65      3.1148245e-07  9.9556763e-09  3.0152677e-07  12233751     
   1343000   2.8960334e-10  14415.721      5125.4137      944381.57      3.1148192e-07  9.9533779e-09  3.0152855e-07  12233760     
   1344000   2.8981898e-10  14415.418      5125.3233      944359.94      3.1148109e-07  9.958885e-09   3.015222e-07   12233608     
   1345000   2.9003462e-10  14415.55       5125.402       944365.45      3.1148148e-07  9.9565125e-09  3.0152497e-07  12233702     
   1346000   2.9025026e-10  14415.48       5125.2207      944376.54      3.1148116e-07  9.9576562e-09  3.0152351e-07  12233653     
   1347000   2.9046589e-10  14415.755      5125.6427      944362.03      3.1148122e-07  9.9519739e-09  3.0152925e-07  12233768     
   1348000   2.9068153e-10  14415.57       5125.5142      944356.18      3.1148077e-07  9.9553991e-09  3.0152537e-07  12233674     
   1349000   2.9089717e-10  14415.583      5125.5918      944349.75      3.1148167e-07  9.9560217e-09  3.0152565e-07  12233719     
   1350000   2.9111281e-10  14415.727      5126.0577      944317.67      3.1148179e-07  9.9531277e-09  3.0152866e-07  12233768     
   1351000   2.9132845e-10  14415.577      5126.0115      944307.12      3.1148282e-07  9.9572962e-09  3.0152552e-07  12233773     
   1352000   2.9154409e-10  14415.403      5125.8453      944306.18      3.1148216e-07  9.9602709e-09  3.0152189e-07  12233683     
   1353000   2.9175973e-10  14415.493      5125.9419      944305.61      3.1148218e-07  9.958414e-09   3.0152377e-07  12233718     
   1354000   2.9197537e-10  14415.524      5126.1393      944289.01      3.114822e-07   9.9577778e-09  3.0152442e-07  12233722     
   1355000   2.9219101e-10  14415.494      5126.1185      944288.06      3.1148221e-07  9.9584144e-09  3.015238e-07   12233719     
   1356000   2.9240665e-10  14415.218      5125.8764      944284.36      3.1148292e-07  9.9649025e-09  3.0151801e-07  12233683     
   1357000   2.9262229e-10  14415.359      5126.1094      944275.32      3.1148223e-07  9.9612567e-09  3.0152097e-07  12233745     
   1358000   2.9283792e-10  14415.13       5125.8462      944278.52      3.1148334e-07  9.9671563e-09  3.0151618e-07  12233735     
   1359000   2.9305356e-10  14415.11       5125.7683      944284.31      3.1148352e-07  9.9677534e-09  3.0151577e-07  12233716     
   1360000   2.932692e-10   14415.273      5125.9871      944278.88      3.1148321e-07  9.9640324e-09  3.0151917e-07  12233742     
   1361000   2.9348484e-10  14415.492      5126.1768      944281.97      3.1148261e-07  9.9588688e-09  3.0152374e-07  12233784     
   1362000   2.9370048e-10  14415.273      5126.0622      944271.33      3.1148214e-07  9.9629692e-09  3.0151917e-07  12233660     
   1363000   2.9391612e-10  14415.703      5126.5846      944262.48      3.1148224e-07  9.9540834e-09  3.0152816e-07  12233833     
   1364000   2.9413176e-10  14415.101      5126.0373      944256.47      3.1148285e-07  9.9672676e-09  3.0151558e-07  12233646     
   1365000   2.943474e-10   14415.009      5126.0893      944241.98      3.1148257e-07  9.9689085e-09  3.0151366e-07  12233625     
   1366000   2.9456304e-10  14415.306      5126.4672      944234.15      3.1148333e-07  9.9634694e-09  3.0151986e-07  12233788     
   1367000   2.9477868e-10  14415.172      5126.4413      944223.22      3.1148358e-07  9.96652e-09    3.0151706e-07  12233732     
   1368000   2.9499432e-10  14415.49       5126.8664      944212.78      3.1148429e-07  9.9605838e-09  3.0152371e-07  12233885     
   1369000   2.9520996e-10  14415.174      5126.5903      944208.47      3.1148281e-07  9.965706e-09   3.015171e-07   12233654     
   1370000   2.9542559e-10  14415.332      5126.7929      944204.12      3.1148212e-07  9.9617235e-09  3.015204e-07   12233681     
   1371000   2.9564123e-10  14415.326      5126.8703      944195.82      3.1148225e-07  9.9619664e-09  3.0152028e-07  12233688     
   1372000   2.9585687e-10  14415.418      5127.0858      944183.56      3.1148212e-07  9.9599097e-09  3.0152221e-07  12233718     
   1373000   2.9607251e-10  14415.352      5126.9705      944188.37      3.1148224e-07  9.9614299e-09  3.0152081e-07  12233720     
   1374000   2.9628815e-10  14415.003      5126.6274      944187.49      3.1148257e-07  9.9690408e-09  3.0151353e-07  12233613     
   1375000   2.9650379e-10  14414.923      5126.7536      944166.73      3.114823e-07   9.9704565e-09  3.0151184e-07  12233572     
   1376000   2.9671943e-10  14415.085      5126.9803      944160.46      3.1148396e-07  9.9687175e-09  3.0151525e-07  12233752     
   1377000   2.9693507e-10  14414.603      5126.6983      944139.94      3.1148323e-07  9.9780734e-09  3.0150516e-07  12233515     
   1378000   2.9715071e-10  14415.341      5127.7579      944108.5       3.1148362e-07  9.9630212e-09  3.015206e-07   12233823     
   1379000   2.9736635e-10  14415.362      5127.8997      944096.36      3.1148309e-07  9.9620649e-09  3.0152102e-07  12233782     
   1380000   2.9758199e-10  14415.402      5128.0401      944086.43      3.1148278e-07  9.9609035e-09  3.0152187e-07  12233751     
   1381000   2.9779762e-10  14415.352      5128.0535      944079.98      3.1148297e-07  9.9621557e-09  3.0152082e-07  12233702     
   1382000   2.9801326e-10  14415.608      5128.2839      944082.85      3.1148256e-07  9.9563767e-09  3.0152618e-07  12233748     
   1383000   2.982289e-10   14415.648      5128.4438      944070.86      3.1148172e-07  9.9547008e-09  3.0152702e-07  12233715     
   1384000   2.9844454e-10  14415.564      5128.49        944057.78      3.1148178e-07  9.9565131e-09  3.0152527e-07  12233707     
   1385000   2.9866018e-10  14415.328      5128.3702      944045.92      3.114824e-07   9.9620716e-09  3.0152033e-07  12233662     
   1386000   2.9887582e-10  14415.791      5128.7303      944056.67      3.1148319e-07  9.9531765e-09  3.0153001e-07  12233883     
   1387000   2.9909146e-10  14415.553      5128.5336      944052.25      3.1148269e-07  9.9576633e-09  3.0152502e-07  12233770     
   1388000   2.993071e-10   14415.429      5128.8201      944011         3.1148232e-07  9.9598987e-09  3.0152242e-07  12233719     
   1389000   2.9952274e-10  14415.349      5128.8428      944000.7       3.1148211e-07  9.961344e-09   3.0152076e-07  12233676     
   1390000   2.9973838e-10  14415.511      5129.2661      943974.72      3.1148198e-07  9.9578305e-09  3.0152415e-07  12233722     
   1391000   2.9995402e-10  14415.659      5129.4465      943971.64      3.1148081e-07  9.9535623e-09  3.0152725e-07  12233683     
   1392000   3.0016966e-10  14415.979      5129.8075      943967.85      3.1148109e-07  9.94715e-09    3.0153394e-07  12233804     
   1393000   3.0038529e-10  14415.539      5129.4362      943960.52      3.1148048e-07  9.9557461e-09  3.0152474e-07  12233592     
   1394000   3.0060093e-10  14415.21       5129.1616      943954.75      3.1148036e-07  9.9625011e-09  3.0151786e-07  12233469     
   1395000   3.0081657e-10  14415.696      5129.7371      943946.2       3.1147918e-07  9.9511759e-09  3.0152801e-07  12233593     
   1396000   3.0103221e-10  14415.959      5130.1983      943926.63      3.1147888e-07  9.9453675e-09  3.0153351e-07  12233683     
   1397000   3.0124785e-10  14415.824      5130.0963      943923.24      3.1148028e-07  9.9495884e-09  3.015307e-07   12233705     
   1398000   3.0146349e-10  14415.984      5130.3677      943912.26      3.1148147e-07  9.9474303e-09  3.0153404e-07  12233835     
   1399000   3.0167913e-10  14415.689      5130.2211      943897.05      3.1148222e-07  9.9543527e-09  3.0152786e-07  12233765     
   1400000   3.0189477e-10  14415.487      5129.9464      943904.18      3.1148191e-07  9.9582634e-09  3.0152365e-07  12233691     
   1401000   3.0211041e-10  14415.212      5129.96        943874.97      3.1148231e-07  9.9644251e-09  3.0151789e-07  12233627     
   1402000   3.0232605e-10  14415.753      5130.3904      943886.64      3.1148185e-07  9.9526344e-09  3.0152921e-07  12233826     
   1403000   3.0254169e-10  14415.596      5130.2815      943881.62      3.1148323e-07  9.9573088e-09  3.0152592e-07  12233841     
   1404000   3.0275732e-10  14415.836      5130.4556      943888.5       3.1148294e-07  9.9519891e-09  3.0153095e-07  12233910     
   1405000   3.0297296e-10  14415.983      5130.6704      943881.82      3.1148301e-07  9.9489943e-09  3.0153402e-07  12233967     
   1406000   3.031886e-10   14415.63       5130.5779      943855.44      3.1148273e-07  9.9560842e-09  3.0152664e-07  12233796     
   1407000   3.0340424e-10  14415.712      5130.6616      943855.33      3.114828e-07   9.9544473e-09  3.0152835e-07  12233822     
   1408000   3.0361988e-10  14415.777      5130.7304      943855         3.114829e-07   9.9531922e-09  3.0152971e-07  12233869     
   1409000   3.0383552e-10  14415.312      5130.508       943830.22      3.1148309e-07  9.9631105e-09  3.0151998e-07  12233732     
   1410000   3.0405116e-10  14415.278      5130.5837      943819.28      3.1148494e-07  9.9656552e-09  3.0151928e-07  12233858     
   1411000   3.042668e-10   14415.42       5130.6708      943824.88      3.114845e-07   9.9622528e-09  3.0152224e-07  12233909     
   1412000   3.0448244e-10  14415.099      5130.3466      943824.93      3.1148403e-07  9.9684881e-09  3.0151554e-07  12233767     
   1413000   3.0469808e-10  14415.062      5130.3914      943816.66      3.1148379e-07  9.9690296e-09  3.0151476e-07  12233727     
   1414000   3.0491372e-10  14415.822      5131.2564      943806.88      3.1148402e-07  9.9533777e-09  3.0153065e-07  12234018     
   1415000   3.0512935e-10  14415.745      5131.1359      943811.21      3.114837e-07   9.954651e-09   3.0152905e-07  12233943     
   1416000   3.0534499e-10  14415.682      5131.026       943815.84      3.1148332e-07  9.9555946e-09  3.0152773e-07  12233886     
   1417000   3.0556063e-10  14415.46       5130.8647      943809.54      3.1148312e-07  9.9600363e-09  3.0152309e-07  12233790     
   1418000   3.0577627e-10  14415.515      5131.0157      943799.95      3.1148266e-07  9.9584332e-09  3.0152423e-07  12233785     
   1419000   3.0599191e-10  14415.39       5130.9163      943797.29      3.114827e-07   9.9610817e-09  3.0152162e-07  12233718     
   1420000   3.0620755e-10  14415.501      5130.9509      943805         3.1148288e-07  9.95895e-09    3.0152393e-07  12233757     
   1421000   3.0642319e-10  14415.632      5131.147       943798.68      3.1148219e-07  9.9555035e-09  3.0152668e-07  12233758     
   1422000   3.0663883e-10  14415.459      5131.0565      943790.18      3.1148211e-07  9.959053e-09   3.0152305e-07  12233690     
   1423000   3.0685447e-10  14415.232      5130.9877      943774.17      3.1148039e-07  9.9620709e-09  3.0151832e-07  12233523     
   1424000   3.0707011e-10  14415.33       5131.0983      943772.95      3.1148097e-07  9.9606193e-09  3.0152035e-07  12233607     
   1425000   3.0728575e-10  14415.462      5131.3371      943762.43      3.1148081e-07  9.9576846e-09  3.0152312e-07  12233643     
   1426000   3.0750139e-10  14415.814      5131.767       943755         3.1148188e-07  9.9513946e-09  3.0153049e-07  12233835     
   1427000   3.0771702e-10  14415.897      5131.9268      943747.33      3.1148157e-07  9.949361e-09   3.0153221e-07  12233830     
   1428000   3.0793266e-10  14415.589      5131.8826      943720.62      3.1148047e-07  9.9547039e-09  3.0152577e-07  12233632     
   1429000   3.081483e-10   14415.229      5131.6091      943711.61      3.1148078e-07  9.9625368e-09  3.0151824e-07  12233503     
   1430000   3.0836394e-10  14415.594      5132.1237      943697.04      3.1148003e-07  9.9541483e-09  3.0152588e-07  12233599     
   1431000   3.0857958e-10  14415.662      5132.2716      943689.15      3.1148098e-07  9.9536607e-09  3.0152731e-07  12233663     
   1432000   3.0879522e-10  14416.156      5132.5631      943709.85      3.1148105e-07  9.943413e-09   3.0153763e-07  12233842     
   1433000   3.0901086e-10  14415.681      5132.606       943657.56      3.1148116e-07  9.9534555e-09  3.015277e-07   12233668     
   1434000   3.092265e-10   14415.94       5132.9571      943648.56      3.1148206e-07  9.9489423e-09  3.0153311e-07  12233854     
   1435000   3.0944214e-10  14415.471      5132.537       943643.25      3.1148148e-07  9.9581663e-09  3.0152331e-07  12233679     
   1436000   3.0965778e-10  14415.361      5132.4407      943641.71      3.1148167e-07  9.9606723e-09  3.01521e-07    12233681     
   1437000   3.0987342e-10  14415.044      5132.3012      943623.64      3.1148195e-07  9.9675735e-09  3.0151437e-07  12233575     
   1438000   3.1008905e-10  14415.175      5132.4717      943619.79      3.1148097e-07  9.9638576e-09  3.0151711e-07  12233570     
   1439000   3.1030469e-10  14415.336      5132.6792      943615.35      3.1148125e-07  9.9607611e-09  3.0152049e-07  12233658     
   1440000   3.1052033e-10  14415.161      5132.559       943609.65      3.1148255e-07  9.9657378e-09  3.0151682e-07  12233658     
   1441000   3.1073597e-10  14415.122      5132.5859      943603.04      3.1148356e-07  9.9675481e-09  3.0151601e-07  12233690     
   1442000   3.1095161e-10  14415.313      5132.9035      943590.57      3.1148343e-07  9.9634219e-09  3.0152001e-07  12233760     
   1443000   3.1116725e-10  14415.54       5133.2968      943574.13      3.1148244e-07  9.957696e-09   3.0152475e-07  12233796     
   1444000   3.1138289e-10  14415.421      5133.2241      943569.43      3.1148237e-07  9.9600962e-09  3.0152227e-07  12233738     
   1445000   3.1159853e-10  14415.537      5133.3483      943568.68      3.1148295e-07  9.9582632e-09  3.0152469e-07  12233815     
   1446000   3.1181417e-10  14415.363      5133.3331      943552.58      3.114832e-07   9.9621601e-09  3.0152104e-07  12233738     
   1447000   3.1202981e-10  14415.77       5133.5893      943568.16      3.1148326e-07  9.9536873e-09  3.0152957e-07  12233875     
   1448000   3.1224545e-10  14415.594      5133.6086      943548.43      3.1148206e-07  9.9561665e-09  3.0152589e-07  12233737     
   1449000   3.1246108e-10  14415.413      5133.643       943526.66      3.1148159e-07  9.9594885e-09  3.015221e-07   12233654     
   1450000   3.1267672e-10  14415.365      5133.5581      943530.31      3.1148174e-07  9.9606416e-09  3.0152109e-07  12233665     
   1451000   3.1289236e-10  14415.166      5133.6033      943505.71      3.1148183e-07  9.9648931e-09  3.0151694e-07  12233617     
   1452000   3.13108e-10    14415.174      5133.7359      943493.2       3.1148117e-07  9.9640749e-09  3.015171e-07   12233587     
   1453000   3.1332364e-10  14415.562      5134.4206      943463.85      3.1148109e-07  9.9558866e-09  3.0152521e-07  12233721     
   1454000   3.1353928e-10  14415.397      5134.2637      943462.94      3.114805e-07   9.9587295e-09  3.0152177e-07  12233608     
   1455000   3.1375492e-10  14415.421      5134.4317      943448.5       3.1148066e-07  9.9583957e-09  3.0152226e-07  12233614     
   1456000   3.1397056e-10  14415.678      5134.689       943448.72      3.1148011e-07  9.9524759e-09  3.0152763e-07  12233678     
   1457000   3.141862e-10   14415.426      5134.5113      943441.05      3.1147993e-07  9.9575621e-09  3.0152237e-07  12233559     
   1458000   3.1440184e-10  14415.84       5135.0458      943429.37      3.1148018e-07  9.9491548e-09  3.0153102e-07  12233730     
   1459000   3.1461748e-10  14415.497      5134.7214      943427.24      3.1148086e-07  9.9569989e-09  3.0152386e-07  12233619     
   1460000   3.1483312e-10  14415.498      5134.903       943409.17      3.1148103e-07  9.9571446e-09  3.0152388e-07  12233611     
   1461000   3.1504875e-10  14415.735      5135.254       943397.94      3.1148174e-07  9.9529108e-09  3.0152883e-07  12233732     
   1462000   3.1526439e-10  14416.14       5135.8414      943380.12      3.1148102e-07  9.943711e-09   3.0153731e-07  12233852     
   1463000   3.1548003e-10  14415.561      5135.3092      943374.81      3.1148115e-07  9.9559668e-09  3.0152519e-07  12233642     
   1464000   3.1569567e-10  14415.86       5135.5571      943380.27      3.1148147e-07  9.9500176e-09  3.0153145e-07  12233795     
   1465000   3.1591131e-10  14415.533      5135.1699      943385.95      3.1148143e-07  9.9568219e-09  3.0152461e-07  12233673     
   1466000   3.1612695e-10  14415.457      5135.226       943372.66      3.1148162e-07  9.9586025e-09  3.0152302e-07  12233680     
   1467000   3.1634259e-10  14415.437      5135.4829      943344.87      3.1148256e-07  9.9599672e-09  3.0152259e-07  12233748     
   1468000   3.1655823e-10  14415.571      5136.1069      943296.01      3.1148298e-07  9.9575757e-09  3.0152541e-07  12233823     
   1469000   3.1677387e-10  14415.782      5136.3805      943289.92      3.1148281e-07  9.9529985e-09  3.0152981e-07  12233920     
   1470000   3.1698951e-10  14415.341      5136.1429      943269.19      3.1148315e-07  9.9625527e-09  3.015206e-07   12233805     
   1471000   3.1720515e-10  14415.238      5136.3196      943241.01      3.1148361e-07  9.9651778e-09  3.0151843e-07  12233800     
   1472000   3.1742078e-10  14415.385      5136.3061      943257.23      3.1148338e-07  9.9618736e-09  3.0152151e-07  12233830     
   1473000   3.1763642e-10  14415.348      5136.439       943240.17      3.1148307e-07  9.9623428e-09  3.0152073e-07  12233777     
   1474000   3.1785206e-10  14415.521      5136.4796      943253.65      3.1148283e-07  9.9584671e-09  3.0152436e-07  12233799     
   1475000   3.180677e-10   14415.655      5136.6798      943247.19      3.1148322e-07  9.9560517e-09  3.0152717e-07  12233838     
   1476000   3.1828334e-10  14416.003      5137.1729      943233.01      3.1148238e-07  9.9479333e-09  3.0153445e-07  12233903     
   1477000   3.1849898e-10  14416.01       5137.2934      943221.57      3.1148203e-07  9.9474554e-09  3.0153458e-07  12233863     
   1478000   3.1871462e-10  14415.807      5137.2107      943209.37      3.114824e-07   9.9520614e-09  3.0153034e-07  12233805     
   1479000   3.1893026e-10  14415.39       5137.1146      943176.81      3.1148215e-07  9.9605366e-09  3.0152161e-07  12233663     
   1480000   3.191459e-10   14415.398      5137.1483      943174.31      3.1148219e-07  9.9603938e-09  3.0152179e-07  12233700     
   1481000   3.1936154e-10  14415.129      5136.8579      943176.14      3.1148281e-07  9.96665e-09    3.0151616e-07  12233637     
   1482000   3.1957718e-10  14415.299      5137.0195      943177.11      3.1148254e-07  9.9628403e-09  3.015197e-07   12233681     
   1483000   3.1979281e-10  14415.691      5137.3735      943181.34      3.1148214e-07  9.9542263e-09  3.0152791e-07  12233797     
   1484000   3.2000845e-10  14415.4        5137.279       943161.4       3.1148245e-07  9.9606218e-09  3.0152183e-07  12233704     
   1485000   3.2022409e-10  14415.258      5137.2724      943147.66      3.1148204e-07  9.963194e-09   3.0151885e-07  12233657     
   1486000   3.2043973e-10  14415.106      5136.9539      943164.19      3.11482e-07    9.9663265e-09  3.0151567e-07  12233611     
   1487000   3.2065537e-10  14415.622      5137.5433      943157.42      3.1148281e-07  9.9563278e-09  3.0152648e-07  12233866     
   1488000   3.2087101e-10  14415.088      5137.1888      943138.9       3.1148347e-07  9.9681638e-09  3.0151531e-07  12233688     
   1489000   3.2108665e-10  14415.231      5137.4242      943129.76      3.1148371e-07  9.9654252e-09  3.0151829e-07  12233761     
   1490000   3.2130229e-10  14415.496      5137.8162      943117.35      3.114837e-07   9.959855e-09   3.0152384e-07  12233864     
   1491000   3.2151793e-10  14415.166      5137.4051      943125.13      3.1148349e-07  9.9665509e-09  3.0151694e-07  12233714     
   1492000   3.2173357e-10  14415.357      5137.6099      943123.94      3.1148325e-07  9.96232e-09    3.0152093e-07  12233762     
   1493000   3.2194921e-10  14415.364      5137.6321      943122.35      3.1148259e-07  9.96153e-09    3.0152106e-07  12233715     
   1494000   3.2216485e-10  14415.495      5137.924       943106.39      3.1148232e-07  9.9585162e-09  3.0152381e-07  12233739     
   1495000   3.2238048e-10  14415.838      5138.4338      943090.05      3.1148123e-07  9.9502437e-09  3.0153098e-07  12233804     
   1496000   3.2259612e-10  14416.043      5138.6537      943088.75      3.1148141e-07  9.9461409e-09  3.0153527e-07  12233895     
   1497000   3.2281176e-10  14415.641      5138.2239      943091.13      3.114815e-07   9.9546417e-09  3.0152686e-07  12233736     
   1498000   3.230274e-10   14416.07       5138.6244      943094.41      3.1148246e-07  9.946634e-09   3.0153583e-07  12233951     
   1499000   3.2324304e-10  14415.95       5138.4335      943101.43      3.1148316e-07  9.9498315e-09  3.0153333e-07  12233937     
   1500000   3.2345868e-10  14416.06       5139.0076      943055.08      3.1148241e-07  9.9467804e-09  3.0153563e-07  12233934     
   1501000   3.2367432e-10  14415.903      5139.017       943038.22      3.1148183e-07  9.9494923e-09  3.0153234e-07  12233855     
   1502000   3.2388996e-10  14415.468      5138.561       943039.95      3.1148197e-07  9.9587164e-09  3.0152325e-07  12233720     
   1503000   3.241056e-10   14415.118      5138.6258      942998.11      3.1148257e-07  9.9666278e-09  3.0151594e-07  12233635     
   1504000   3.2432124e-10  14415.034      5138.6232      942989.82      3.1148119e-07  9.9670258e-09  3.0151417e-07  12233524     
   1505000   3.2453688e-10  14415.215      5138.9689      942973.49      3.1148131e-07  9.9633642e-09  3.0151795e-07  12233597     
   1506000   3.2475251e-10  14415.415      5139.0859      942982.05      3.1148102e-07  9.9588761e-09  3.0152214e-07  12233639     
   1507000   3.2496815e-10  14415.298      5139.1348      942965.26      3.1148118e-07  9.9615032e-09  3.0151968e-07  12233578     
   1508000   3.2518379e-10  14415.623      5139.4033      942971.28      3.1148118e-07  9.9546967e-09  3.0152649e-07  12233691     
   1509000   3.2539943e-10  14415.741      5139.5429      942969.27      3.1148137e-07  9.9524095e-09  3.0152896e-07  12233740     
   1510000   3.2561507e-10  14415.653      5139.3701      942977.68      3.1148162e-07  9.9544967e-09  3.0152713e-07  12233709     
   1511000   3.2583071e-10  14415.642      5139.4839      942965.18      3.1148094e-07  9.954044e-09   3.015269e-07   12233665     
   1512000   3.2604635e-10  14415.395      5139.2334      942965.26      3.1148066e-07  9.958932e-09   3.0152173e-07  12233553     
   1513000   3.2626199e-10  14415.571      5139.5577      942950.62      3.1148081e-07  9.9553983e-09  3.0152541e-07  12233632     
   1514000   3.2647763e-10  14415.643      5139.6278      942950.82      3.1148115e-07  9.9542453e-09  3.015269e-07   12233683     
   1515000   3.2669327e-10  14415.661      5139.7823      942937.21      3.1148169e-07  9.9544036e-09  3.0152729e-07  12233726     
   1516000   3.2690891e-10  14415.482      5139.6998      942927.35      3.1148108e-07  9.9575443e-09  3.0152354e-07  12233626     
   1517000   3.2712455e-10  14415.39       5139.5807      942929.96      3.1148137e-07  9.959756e-09   3.0152161e-07  12233605     
   1518000   3.2734018e-10  14415.888      5140.1691      942921.41      3.1148115e-07  9.9491232e-09  3.0153203e-07  12233783     
   1519000   3.2755582e-10  14415.867      5140.2146      942914.75      3.1148121e-07  9.9496091e-09  3.015316e-07   12233749     
   1520000   3.2777146e-10  14416.211      5140.6362      942907.33      3.1148091e-07  9.9421234e-09  3.0153879e-07  12233850     
   1521000   3.279871e-10   14416.318      5140.9423      942887.53      3.1148118e-07  9.9401428e-09  3.0154103e-07  12233917     
   1522000   3.2820274e-10  14415.603      5140.396       942869.94      3.1148055e-07  9.9544733e-09  3.0152608e-07  12233610     
   1523000   3.2841838e-10  14415.637      5140.9603      942816.87      3.1148179e-07  9.9550033e-09  3.0152679e-07  12233716     
   1524000   3.2863402e-10  14415.818      5141.1547      942815.67      3.1148064e-07  9.9500739e-09  3.0153056e-07  12233746     
   1525000   3.2884966e-10  14415.514      5141.0418      942796.3       3.1148214e-07  9.9579258e-09  3.0152422e-07  12233726     
   1526000   3.290653e-10   14415.293      5140.8367      942794.4       3.1148143e-07  9.9618544e-09  3.0151958e-07  12233603     
   1527000   3.2928094e-10  14415.269      5140.8426      942791.4       3.1148163e-07  9.9625512e-09  3.0151908e-07  12233625     
   1528000   3.2949658e-10  14415.447      5141.4629      942747.32      3.1148163e-07  9.9588234e-09  3.0152281e-07  12233697     
   1529000   3.2971221e-10  14415.207      5141.4766      942721.67      3.1148198e-07  9.9641925e-09  3.0151778e-07  12233601     
   1530000   3.2992785e-10  14415.767      5142.1555      942710.37      3.1148148e-07  9.9519728e-09  3.015295e-07   12233786     
   1531000   3.3014349e-10  14415.57       5142.0324      942702.77      3.114823e-07   9.9569179e-09  3.0152538e-07  12233731     
   1532000   3.3035913e-10  14416.156      5142.522       942713.01      3.114818e-07   9.9441536e-09  3.0153764e-07  12233911     
   1533000   3.3057477e-10  14416.103      5142.6534      942694.52      3.1148076e-07  9.9442184e-09  3.0153654e-07  12233834     
   1534000   3.3079041e-10  14415.581      5142.3341      942673.69      3.1148132e-07  9.955703e-09   3.0152562e-07  12233687     
   1535000   3.3100605e-10  14415.161      5141.9133      942673.28      3.1148105e-07  9.9642323e-09  3.0151682e-07  12233523     
   1536000   3.3122169e-10  14415.184      5141.9945      942667.53      3.114822e-07   9.9648893e-09  3.0151731e-07  12233607     
   1537000   3.3143733e-10  14415.316      5142.2861      942651.71      3.1148143e-07  9.9613568e-09  3.0152007e-07  12233646     
   1538000   3.3165297e-10  14415.167      5142.2082      942644.41      3.1148194e-07  9.9649855e-09  3.0151695e-07  12233637     
   1539000   3.3186861e-10  14414.966      5142.0241      942642.55      3.1148193e-07  9.9691714e-09  3.0151275e-07  12233556     
   1540000   3.3208424e-10  14415.472      5142.9049      942605.5       3.1148219e-07  9.9588584e-09  3.0152333e-07  12233744     
   1541000   3.3229988e-10  14415.836      5143.2257      942610.21      3.1148199e-07  9.9510468e-09  3.0153095e-07  12233855     
   1542000   3.3251552e-10  14415.745      5143.4233      942581.25      3.1148229e-07  9.9532405e-09  3.0152905e-07  12233815     
   1543000   3.3273116e-10  14415.594      5143.1277      942595.53      3.1148137e-07  9.9554901e-09  3.0152588e-07  12233676     
   1544000   3.329468e-10   14415.387      5143.0024      942587.18      3.1148073e-07  9.9591677e-09  3.0152156e-07  12233535     
   1545000   3.3316244e-10  14415.681      5143.3498      942582.14      3.1148128e-07  9.9535689e-09  3.0152771e-07  12233673     
   1546000   3.3337808e-10  14415.783      5143.617       942565.66      3.1148127e-07  9.9514363e-09  3.0152983e-07  12233725     
   1547000   3.3359372e-10  14415.762      5143.7511      942550.13      3.1148175e-07  9.952359e-09   3.015294e-07   12233755     
   1548000   3.3380936e-10  14415.95       5144.0731      942536.87      3.1148162e-07  9.9482941e-09  3.0153332e-07  12233824     
   1549000   3.34025e-10    14416.06       5144.2392      942531.42      3.114827e-07   9.9470622e-09  3.0153564e-07  12233922     
   1550000   3.3424064e-10  14416.012      5144.5186      942498.61      3.1148327e-07  9.9486322e-09  3.0153463e-07  12233941     
   1551000   3.3445628e-10  14415.47       5144.111       942484.63      3.1148258e-07  9.9592822e-09  3.015233e-07   12233721     
   1552000   3.3467191e-10  14415.407      5144.2234      942467         3.1148211e-07  9.9601267e-09  3.0152198e-07  12233701     
   1553000   3.3488755e-10  14415.306      5144.0537      942473.69      3.1148203e-07  9.9621848e-09  3.0151985e-07  12233664     
   1554000   3.3510319e-10  14415.5        5144.218       942476.91      3.1148278e-07  9.958858e-09   3.0152392e-07  12233779     
   1555000   3.3531883e-10  14415.588      5144.3965      942467.97      3.1148349e-07  9.9577278e-09  3.0152576e-07  12233842     
   1556000   3.3553447e-10  14415.849      5144.6476      942469.14      3.1148378e-07  9.9525704e-09  3.0153121e-07  12233962     
   1557000   3.3575011e-10  14415.421      5144.3694      942453.79      3.1148338e-07  9.9611097e-09  3.0152227e-07  12233802     
   1558000   3.3596575e-10  14414.919      5144.0109      942438.86      3.114835e-07   9.9717383e-09  3.0151176e-07  12233657     
   1559000   3.3618139e-10  14414.74       5144.0438      942417.49      3.1148322e-07  9.9752023e-09  3.0150802e-07  12233583     
   1560000   3.3639703e-10  14414.975      5144.4354      942402.09      3.1148301e-07  9.9700653e-09  3.0151294e-07  12233652     
   1561000   3.3661267e-10  14414.905      5144.3548      942403.05      3.1148297e-07  9.9714979e-09  3.0151147e-07  12233609     
   1562000   3.3682831e-10  14415.02       5144.5228      942397.91      3.1148264e-07  9.9687505e-09  3.0151389e-07  12233644     
   1563000   3.3704394e-10  14414.88       5144.5211      942383.93      3.1148375e-07  9.9727952e-09  3.0151096e-07  12233664     
   1564000   3.3725958e-10  14415.348      5145.153       942367.9       3.1148412e-07  9.9633909e-09  3.0152073e-07  12233880     
   1565000   3.3747522e-10  14415.13       5145.037       942357.48      3.1148393e-07  9.9677616e-09  3.0151617e-07  12233774     
   1566000   3.3769086e-10  14415.14       5144.982       942364.08      3.1148422e-07  9.9678221e-09  3.015164e-07   12233787     
   1567000   3.379065e-10   14415.442      5145.1501      942377.79      3.114832e-07   9.9604856e-09  3.0152271e-07  12233839     
   1568000   3.3812214e-10  14415.304      5144.9806      942380.71      3.114837e-07   9.9638946e-09  3.0151981e-07  12233799     
   1569000   3.3833778e-10  14415.108      5145.0455      942354.45      3.114838e-07   9.9680779e-09  3.0151572e-07  12233719     
   1570000   3.3855342e-10  14415.624      5145.7112      942340.01      3.1148433e-07  9.9578099e-09  3.0152652e-07  12233954     
   1571000   3.3876906e-10  14415.235      5145.4519      942326.63      3.1148497e-07  9.9665857e-09  3.0151838e-07  12233846     
   1572000   3.389847e-10   14414.971      5145.1727      942327.9       3.1148402e-07  9.9711568e-09  3.0151286e-07  12233712     
   1573000   3.3920034e-10  14415.064      5145.5226      942302.21      3.1148339e-07  9.9685958e-09  3.0151479e-07  12233702     
   1574000   3.3941597e-10  14415.21       5145.7637      942292.86      3.1148329e-07  9.9654361e-09  3.0151785e-07  12233730     
   1575000   3.3963161e-10  14415.576      5146.2019      942286.02      3.1148248e-07  9.9569727e-09  3.0152551e-07  12233809     
   1576000   3.3984725e-10  14415.474      5146.2695      942268.93      3.1148264e-07  9.9592694e-09  3.0152337e-07  12233765     
   1577000   3.4006289e-10  14415.773      5146.408       942285.3       3.114823e-07   9.9526666e-09  3.0152963e-07  12233858     
   1578000   3.4027853e-10  14415.619      5146.3521      942275.36      3.1148161e-07  9.9551903e-09  3.0152642e-07  12233762     
   1579000   3.4049417e-10  14415.721      5146.7038      942250.41      3.1148117e-07  9.9526287e-09  3.0152854e-07  12233774     
   1580000   3.4070981e-10  14415.357      5146.4186      942242.21      3.114812e-07   9.9602658e-09  3.0152093e-07  12233611     
   1581000   3.4092545e-10  14415.488      5146.5509      942242.13      3.1148106e-07  9.9574032e-09  3.0152366e-07  12233628     
   1582000   3.4114109e-10  14415.668      5146.762       942239.28      3.11481e-07    9.9535609e-09  3.0152744e-07  12233692     
   1583000   3.4135673e-10  14415.525      5146.6385      942237.1       3.1148031e-07  9.9558843e-09  3.0152443e-07  12233601     
   1584000   3.4157237e-10  14415.613      5146.8076      942229.15      3.1148068e-07  9.9543978e-09  3.0152629e-07  12233680     
   1585000   3.4178801e-10  14415.419      5146.831       942207.14      3.1148073e-07  9.9585133e-09  3.0152222e-07  12233631     
   1586000   3.4200364e-10  14415.76       5147.2927      942195.39      3.11482e-07    9.952651e-09   3.0152935e-07  12233821     
   1587000   3.4221928e-10  14416.141      5147.704       942192.79      3.1148141e-07  9.9440795e-09  3.0153733e-07  12233890     
   1588000   3.4243492e-10  14415.982      5147.5705      942190.09      3.1148145e-07  9.9474416e-09  3.0153401e-07  12233806     
   1589000   3.4265056e-10  14415.786      5147.489       942178.36      3.1148115e-07  9.9512583e-09  3.0152989e-07  12233725     
   1590000   3.428662e-10   14416          5147.8057      942168.35      3.1148083e-07  9.9464479e-09  3.0153438e-07  12233828     
   1591000   3.4308184e-10  14415.271      5147.0876      942166.56      3.1148138e-07  9.9622377e-09  3.0151914e-07  12233593     
   1592000   3.4329748e-10  14415.09       5146.9773      942159.3       3.1148076e-07  9.9654077e-09  3.0151535e-07  12233493     
   1593000   3.4351312e-10  14415.356      5147.1581      942168.08      3.1148071e-07  9.9598004e-09  3.0152091e-07  12233578     
   1594000   3.4372876e-10  14415.641      5147.7414      942138.43      3.1148093e-07  9.9540719e-09  3.0152686e-07  12233689     
   1595000   3.439444e-10   14415.324      5147.6214      942118.48      3.1148207e-07  9.9618209e-09  3.0152025e-07  12233648     
   1596000   3.4416004e-10  14415.198      5147.3753      942130.37      3.1148076e-07  9.9631506e-09  3.0151761e-07  12233546     
   1597000   3.4437567e-10  14415.282      5147.6003      942116.28      3.1148103e-07  9.9616747e-09  3.0151935e-07  12233598     
   1598000   3.4459131e-10  14415.092      5147.589       942098.26      3.1148073e-07  9.9653411e-09  3.0151539e-07  12233492     
   1599000   3.4480695e-10  14415.058      5147.765       942077.18      3.1148218e-07  9.967503e-09   3.0151467e-07  12233529     
   1600000   3.4502259e-10  14415.756      5148.3089      942093.34      3.1148157e-07  9.952293e-09   3.0152928e-07  12233740     
   1601000   3.4523823e-10  14415.694      5148.358       942082.06      3.1148125e-07  9.9532819e-09  3.0152796e-07  12233706     
   1602000   3.4545387e-10  14415.925      5148.7124      942069.93      3.1148213e-07  9.9493378e-09  3.015328e-07   12233874     
   1603000   3.4566951e-10  14415.795      5148.7394      942054.15      3.1148157e-07  9.9514754e-09  3.0153009e-07  12233794     
   1604000   3.4588515e-10  14415.477      5148.5081      942045.2       3.1148197e-07  9.9585194e-09  3.0152345e-07  12233715     
   1605000   3.4610079e-10  14415.163      5148.225       942041.72      3.114835e-07   9.9666343e-09  3.0151686e-07  12233710     
   1606000   3.4631643e-10  14415.262      5148.441       942030.18      3.1148381e-07  9.9648653e-09  3.0151895e-07  12233798     
   1607000   3.4653207e-10  14415.433      5148.6212      942029.35      3.1148353e-07  9.961013e-09   3.0152251e-07  12233841     
   1608000   3.467477e-10   14415.041      5148.2531      942026.62      3.1148218e-07  9.9678572e-09  3.0151432e-07  12233584     
   1609000   3.4696334e-10  14415.17       5148.4097      942023.94      3.1148294e-07  9.9659239e-09  3.0151701e-07  12233688     
   1610000   3.4717898e-10  14415.028      5148.4252      942008.05      3.1148225e-07  9.9682094e-09  3.0151404e-07  12233602     
   1611000   3.4739462e-10  14415.265      5148.7874      941995.74      3.1148149e-07  9.9624946e-09  3.01519e-07    12233640     
   1612000   3.4761026e-10  14415.57       5149.0867      941996.63      3.1148145e-07  9.9560723e-09  3.0152538e-07  12233740     
   1613000   3.478259e-10   14415.272      5148.6699      942008.24      3.1148135e-07  9.9621948e-09  3.0151915e-07  12233604     
   1614000   3.4804154e-10  14415.137      5148.5906      942002.51      3.1148138e-07  9.9650597e-09  3.0151632e-07  12233532     
   1615000   3.4825718e-10  14415.844      5149.4707      941985.85      3.1148174e-07  9.950634e-09   3.015311e-07   12233820     
   1616000   3.4847282e-10  14416.015      5149.8065      941969.56      3.1148081e-07  9.9461248e-09  3.0153469e-07  12233829     
   1617000   3.4868846e-10  14415.721      5149.7766      941942.78      3.114798e-07   9.9512663e-09  3.0152853e-07  12233639     
   1618000   3.489041e-10   14415.573      5149.7404      941931.55      3.1148052e-07  9.9550676e-09  3.0152545e-07  12233624     
   1619000   3.4911974e-10  14415.259      5149.5896      941914.88      3.1147951e-07  9.9606287e-09  3.0151888e-07  12233445     
   1620000   3.4933537e-10  14415.286      5149.4335      941933.17      3.1148073e-07  9.9612981e-09  3.0151944e-07  12233519     
   1621000   3.4955101e-10  14415.637      5149.8847      941923.51      3.1148123e-07  9.954454e-09   3.0152678e-07  12233693     
   1622000   3.4976665e-10  14415.631      5149.8946      941921.96      3.1148136e-07  9.9546997e-09  3.0152666e-07  12233710     
   1623000   3.4998229e-10  14415.763      5150.0585      941918.89      3.1148158e-07  9.952159e-09   3.0152942e-07  12233791     
   1624000   3.5019793e-10  14415.764      5150.1964      941905.21      3.1148248e-07  9.9530347e-09  3.0152945e-07  12233880     
   1625000   3.5041357e-10  14415.498      5150.8683      941811.05      3.1148285e-07  9.9589683e-09  3.0152388e-07  12233814     
   1626000   3.5062921e-10  14415.466      5150.9254      941802.05      3.1148344e-07  9.960235e-09   3.015232e-07   12233845     
   1627000   3.5084485e-10  14415.518      5150.9885      941801         3.1148355e-07  9.9592571e-09  3.0152429e-07  12233878     
   1628000   3.5106049e-10  14415.439      5151.021       941789.72      3.1148319e-07  9.9605535e-09  3.0152263e-07  12233835     
   1629000   3.5127613e-10  14415.149      5150.8659      941775.98      3.114827e-07   9.9661208e-09  3.0151658e-07  12233701     
   1630000   3.5149177e-10  14415.45       5151.1697      941776.03      3.1148286e-07  9.9599819e-09  3.0152288e-07  12233821     
   1631000   3.517074e-10   14415.049      5150.9159      941760.81      3.1148201e-07  9.967538e-09   3.0151447e-07  12233590     
   1632000   3.5192304e-10  14415.202      5151.1162      941756.32      3.1148175e-07  9.9640593e-09  3.0151769e-07  12233626     
   1633000   3.5213868e-10  14415.533      5151.5827      941743.04      3.1148127e-07  9.9566598e-09  3.0152461e-07  12233693     
   1634000   3.5235432e-10  14415.668      5151.7469      941740.21      3.1148168e-07  9.9542539e-09  3.0152742e-07  12233752     
   1635000   3.5256996e-10  14415.353      5151.596       941723.56      3.1148136e-07  9.9605099e-09  3.0152085e-07  12233612     
   1636000   3.527856e-10   14415.687      5152.0645      941710.38      3.1148156e-07  9.9537325e-09  3.0152783e-07  12233764     
   1637000   3.5300124e-10  14415.467      5151.9691      941697.71      3.1148105e-07  9.9578161e-09  3.0152323e-07  12233646     
   1638000   3.5321688e-10  14415.34       5151.9625      941685.5       3.114808e-07   9.9602343e-09  3.0152057e-07  12233575     
   1639000   3.5343252e-10  14415.266      5151.9493      941679.3       3.1148124e-07  9.9622238e-09  3.0151901e-07  12233566     
   1640000   3.5364816e-10  14415.432      5152.1408      941676.95      3.114808e-07   9.9583088e-09  3.0152249e-07  12233604     
   1641000   3.538638e-10   14415.527      5152.4837      941652.27      3.1148104e-07  9.9565536e-09  3.0152449e-07  12233643     
   1642000   3.5407944e-10  14415.921      5152.9054      941649.84      3.1148154e-07  9.9488267e-09  3.0153272e-07  12233828     
   1643000   3.5429507e-10  14415.585      5152.8421      941622.22      3.114811e-07   9.9554078e-09  3.0152569e-07  12233672     
   1644000   3.5451071e-10  14415.604      5152.8779      941620.56      3.114815e-07   9.9554088e-09  3.0152609e-07  12233703     
   1645000   3.5472635e-10  14416.007      5153.3094      941618.14      3.1148095e-07  9.9464218e-09  3.0153453e-07  12233824     
   1646000   3.5494199e-10  14415.781      5153.1229      941613.9       3.1148093e-07  9.9511464e-09  3.0152979e-07  12233725     
   1647000   3.5515763e-10  14415.64       5153.3817      941573.78      3.114809e-07   9.9540555e-09  3.0152685e-07  12233674     
   1648000   3.5537327e-10  14415.533      5153.3699      941564.1       3.1148161e-07  9.9570108e-09  3.015246e-07   12233695     
   1649000   3.5558891e-10  14415.52       5153.4234      941557.48      3.1148195e-07  9.9576135e-09  3.0152434e-07  12233711     
   1650000   3.5580455e-10  14415          5153.002       941547.09      3.1148199e-07  9.9685285e-09  3.0151346e-07  12233510     
   1651000   3.5602019e-10  14415.432      5153.601       941530.82      3.1148113e-07  9.958636e-09   3.015225e-07   12233661     
   1652000   3.5623583e-10  14415.107      5153.2725      941530.85      3.1148189e-07  9.9661885e-09  3.015157e-07   12233599     
   1653000   3.5645147e-10  14415.197      5153.3838      941528.79      3.1148243e-07  9.9648487e-09  3.0151758e-07  12233676     
   1654000   3.566671e-10   14415.312      5153.5361      941525.21      3.1148322e-07  9.9632294e-09  3.0151999e-07  12233764     
   1655000   3.5688274e-10  14415.152      5153.828       941479.81      3.1148211e-07  9.9654585e-09  3.0151665e-07  12233646     
   1656000   3.5709838e-10  14415.092      5154.0143      941455.1       3.1148173e-07  9.966338e-09   3.0151539e-07  12233601     
   1657000   3.5731402e-10  14415.377      5154.416       941443.64      3.114815e-07   9.9601587e-09  3.0152134e-07  12233684     
   1658000   3.5752966e-10  14415.572      5154.6045      941444.49      3.1148181e-07  9.9563911e-09  3.0152542e-07  12233763     
   1659000   3.577453e-10   14415.473      5154.5967      941435.25      3.1148232e-07  9.9589705e-09  3.0152335e-07  12233746     
   1660000   3.5796094e-10  14415.47       5154.5807      941436.6       3.1148236e-07  9.9590684e-09  3.0152329e-07  12233754     
   1661000   3.5817658e-10  14415.305      5154.5644      941421.52      3.1148201e-07  9.9621755e-09  3.0151984e-07  12233683     
   1662000   3.5839222e-10  14414.868      5154.2755      941406.3       3.1148259e-07  9.9718813e-09  3.0151071e-07  12233547     
   1663000   3.5860786e-10  14415.306      5154.8351      941394.51      3.1148259e-07  9.962733e-09   3.0151986e-07  12233707     
   1664000   3.588235e-10   14415.793      5155.4557      941381.63      3.1148154e-07  9.9514985e-09  3.0153004e-07  12233814     
   1665000   3.5903913e-10  14415.513      5155.4022      941358.72      3.1148134e-07  9.9571466e-09  3.015242e-07   12233660     
   1666000   3.5925477e-10  14415.706      5155.464       941372.06      3.1148151e-07  9.9532754e-09  3.0152823e-07  12233717     
   1667000   3.5947041e-10  14415.949      5155.81        941361.95      3.1148144e-07  9.9481311e-09  3.0153331e-07  12233812     
   1668000   3.5968605e-10  14415.455      5155.4355      941349.51      3.1148087e-07  9.9578882e-09  3.0152298e-07  12233611     
   1669000   3.5990169e-10  14415.784      5155.973       941328.95      3.1148087e-07  9.9510095e-09  3.0152986e-07  12233762     
   1670000   3.6011733e-10  14415.353      5155.8048      941302.26      3.1148111e-07  9.9602612e-09  3.0152085e-07  12233602     
   1671000   3.6033297e-10  14415.729      5156.378       941282.82      3.1148257e-07  9.9538671e-09  3.015287e-07   12233807     
   1672000   3.6054861e-10  14415.935      5156.6182      941279.66      3.1148195e-07  9.9489284e-09  3.0153302e-07  12233837     
   1673000   3.6076425e-10  14415.856      5156.5916      941274.34      3.1148169e-07  9.9503191e-09  3.0153137e-07  12233787     
   1674000   3.6097989e-10  14415.644      5156.3723      941274.85      3.1148217e-07  9.9552394e-09  3.0152693e-07  12233738     
   1675000   3.6119553e-10  14415.769      5156.5434      941270.3       3.1148169e-07  9.9521531e-09  3.0152954e-07  12233771     
   1676000   3.6141117e-10  14415.967      5156.7655      941268.17      3.1148248e-07  9.9487851e-09  3.0153369e-07  12233906     
   1677000   3.616268e-10   14415.775      5156.6169      941263.61      3.1148334e-07  9.9536629e-09  3.0152967e-07  12233895     
   1678000   3.6184244e-10  14415.615      5156.5961      941249.45      3.1148346e-07  9.957147e-09   3.0152631e-07  12233850     
   1679000   3.6205808e-10  14416          5157.0411      941243.87      3.1148272e-07  9.948349e-09   3.0153437e-07  12233964     
   1680000   3.6227372e-10  14415.36       5156.4401      941239.3       3.1148281e-07  9.9618257e-09  3.0152098e-07  12233743     
   1681000   3.6248936e-10  14415.225      5156.2855      941241.19      3.114832e-07   9.9650294e-09  3.0151817e-07  12233754     
   1682000   3.62705e-10    14415.011      5156.0275      941245.36      3.1148287e-07  9.969178e-09   3.0151369e-07  12233667     
   1683000   3.6292064e-10  14414.735      5155.9367      941226.49      3.1148271e-07  9.9748012e-09  3.0150791e-07  12233563     
   1684000   3.6313628e-10  14414.71       5156.0006      941217.56      3.114827e-07   9.975312e-09   3.0150738e-07  12233565     
   1685000   3.6335192e-10  14414.565      5155.9226      941210.74      3.1148208e-07  9.9777207e-09  3.0150436e-07  12233452     
   1686000   3.6356756e-10  14415.114      5156.6363      941194.81      3.1148238e-07  9.966541e-09   3.0151584e-07  12233663     
   1687000   3.637832e-10   14415.008      5156.5254      941195.22      3.1148273e-07  9.9691007e-09  3.0151363e-07  12233610     
   1688000   3.6399883e-10  14415.201      5156.7246      941194.81      3.1148245e-07  9.9647776e-09  3.0151767e-07  12233642     
   1689000   3.6421447e-10  14415.54       5157.0293      941198.5       3.1148191e-07  9.9571695e-09  3.0152474e-07  12233741     
   1690000   3.6443011e-10  14415.289      5156.8857      941187.57      3.1148214e-07  9.9626362e-09  3.0151951e-07  12233671     
   1691000   3.6464575e-10  14415.183      5156.8849      941176.86      3.1148271e-07  9.9654294e-09  3.0151728e-07  12233672     
   1692000   3.6486139e-10  14415.168      5156.9881      941165.03      3.1148247e-07  9.9655039e-09  3.0151697e-07  12233657     
   1693000   3.6507703e-10  14415.355      5158.5675      941025.86      3.1148183e-07  9.9609464e-09  3.0152088e-07  12233685     
   1694000   3.6529267e-10  14415.25       5158.4976      941022.25      3.1148215e-07  9.9634628e-09  3.0151869e-07  12233651     
   1695000   3.6550831e-10  14415.259      5158.2909      941043.87      3.1148214e-07  9.9632652e-09  3.0151888e-07  12233643     
   1696000   3.6572395e-10  14415.152      5158.3205      941030.1       3.1148254e-07  9.9659001e-09  3.0151664e-07  12233627     
   1697000   3.6593959e-10  14414.681      5158.0717      941007.38      3.1148153e-07  9.9747448e-09  3.0150679e-07  12233400     
   1698000   3.6615523e-10  14414.853      5158.2068      941011.27      3.1148219e-07  9.9718011e-09  3.0151039e-07  12233514     
   1699000   3.6637086e-10  14415.232      5158.6228      941007.87      3.1148268e-07  9.9643766e-09  3.0151831e-07  12233696     
   1700000   3.665865e-10   14414.988      5158.7764      940967.87      3.114817e-07   9.9684897e-09  3.0151321e-07  12233531     
   1701000   3.6680214e-10  14415.421      5159.1591      940973.29      3.1148268e-07  9.9604265e-09  3.0152226e-07  12233754     
   1702000   3.6701778e-10  14415.203      5159.0681      940960.44      3.1148327e-07  9.9655581e-09  3.0151771e-07  12233705     
   1703000   3.6723342e-10  14415.263      5159.255       940947.77      3.1148357e-07  9.9646073e-09  3.0151896e-07  12233763     
   1704000   3.6744906e-10  14415.582      5159.618       940943.7       3.1148449e-07  9.9588512e-09  3.0152564e-07  12233964     
   1705000   3.676647e-10   14415.238      5159.4306      940927.64      3.1148515e-07  9.9667137e-09  3.0151844e-07  12233871     
   1706000   3.6788034e-10  14415.355      5159.694       940913.16      3.114843e-07   9.963404e-09   3.0152089e-07  12233845     
   1707000   3.6809598e-10  14415.575      5160.0983      940894.87      3.1148392e-07  9.9584361e-09  3.0152548e-07  12233894     
   1708000   3.6831162e-10  14415.513      5160.1348      940884.91      3.114835e-07   9.9593167e-09  3.0152418e-07  12233834     
   1709000   3.6852726e-10  14415.503      5160.3548      940861.97      3.114827e-07   9.9587114e-09  3.0152399e-07  12233775     
   1710000   3.687429e-10   14415.592      5160.4489      940861.54      3.1148253e-07  9.9566876e-09  3.0152585e-07  12233786     
   1711000   3.6895853e-10  14415.928      5160.6017      940880.19      3.114825e-07   9.9496294e-09  3.0153287e-07  12233926     
   1712000   3.6917417e-10  14415.043      5160.0699      940843.95      3.11483e-07    9.9686413e-09  3.0151436e-07  12233615     
   1713000   3.6938981e-10  14415.544      5160.3828      940863.32      3.1148331e-07  9.9584673e-09  3.0152485e-07  12233826     
   1714000   3.6960545e-10  14415.579      5160.5447      940850.65      3.1148315e-07  9.9575697e-09  3.0152558e-07  12233842     
   1715000   3.6982109e-10  14415.078      5160.1118      940843.29      3.1148304e-07  9.9679468e-09  3.0151509e-07  12233668     
   1716000   3.7003673e-10  14415.105      5160.3442      940822.75      3.1148265e-07  9.966995e-09   3.0151565e-07  12233682     
   1717000   3.7025237e-10  14415.002      5160.2317      940823.62      3.1148271e-07  9.9692087e-09  3.015135e-07   12233642     
   1718000   3.7046801e-10  14415.31       5160.6198      940815.89      3.1148299e-07  9.9630499e-09  3.0151994e-07  12233747     
   1719000   3.7068365e-10  14415.712      5161.1623      940802.24      3.1148331e-07  9.9549516e-09  3.0152835e-07  12233901     
   1720000   3.7089929e-10  14415.562      5160.9319      940810.13      3.1148353e-07  9.9583135e-09  3.0152521e-07  12233841     
   1721000   3.7111493e-10  14415.478      5160.9231      940802.56      3.1148309e-07  9.9596247e-09  3.0152347e-07  12233782     
   1722000   3.7133056e-10  14415.467      5160.9121      940802.55      3.1148337e-07  9.9601313e-09  3.0152324e-07  12233815     
   1723000   3.715462e-10   14415.532      5161.0126      940799.02      3.1148364e-07  9.9590546e-09  3.0152459e-07  12233889     
   1724000   3.7176184e-10  14414.959      5160.5816      940784.19      3.1148331e-07  9.9707198e-09  3.0151259e-07  12233656     
   1725000   3.7197748e-10  14415.188      5160.6068      940804.84      3.1148248e-07  9.9650922e-09  3.0151739e-07  12233674     
   1726000   3.7219312e-10  14415.127      5160.6109      940798.26      3.1148177e-07  9.9656628e-09  3.0151611e-07  12233570     
   1727000   3.7240876e-10  14415.65       5161.1823      940793.91      3.1148095e-07  9.953907e-09   3.0152704e-07  12233714     
   1728000   3.726244e-10   14415.282      5160.9087      940784.14      3.1148063e-07  9.9612714e-09  3.0151936e-07  12233546     
   1729000   3.7284004e-10  14415.322      5161.0213      940776.89      3.114817e-07   9.9615167e-09  3.0152019e-07  12233620     
   1730000   3.7305568e-10  14415.147      5160.8805      940773.36      3.1148249e-07  9.9659457e-09  3.0151654e-07  12233595     
   1731000   3.7327132e-10  14415.75       5161.931       940729.16      3.1148314e-07  9.9539856e-09  3.0152915e-07  12233886     
   1732000   3.7348696e-10  14415.611      5161.8272      940725.49      3.1148313e-07  9.9568853e-09  3.0152624e-07  12233841     
   1733000   3.7370259e-10  14415.643      5161.8427      940727.13      3.1148304e-07  9.9561363e-09  3.015269e-07   12233857     
   1734000   3.7391823e-10  14415.258      5161.7607      940696.45      3.1148332e-07  9.964465e-09   3.0151886e-07  12233721     
   1735000   3.7413387e-10  14415.351      5161.6894      940712.95      3.1148265e-07  9.9618576e-09  3.015208e-07   12233705     
   1736000   3.7434951e-10  14415.724      5162.1769      940701.87      3.1148306e-07  9.9544586e-09  3.015286e-07   12233867     
   1737000   3.7456515e-10  14415.783      5162.4403      940681.52      3.1148328e-07  9.9534325e-09  3.0152984e-07  12233914     
   1738000   3.7478079e-10  14415.648      5162.1976      940692.13      3.1148281e-07  9.9557951e-09  3.0152702e-07  12233838     
   1739000   3.7499643e-10  14415.293      5161.9862      940677.37      3.1148352e-07  9.963938e-09   3.0151958e-07  12233723     
   1740000   3.7521207e-10  14415.618      5162.2837      940680.47      3.1148312e-07  9.9567379e-09  3.0152638e-07  12233817     
   1741000   3.7542771e-10  14415.677      5162.3135      940683.42      3.1148272e-07  9.9551054e-09  3.0152761e-07  12233816     
   1742000   3.7564335e-10  14415.37       5162.068       940676.99      3.1148359e-07  9.9623943e-09  3.015212e-07   12233759     
   1743000   3.7585899e-10  14415.425      5162.1842      940670.93      3.1148252e-07  9.9601682e-09  3.0152235e-07  12233745     
   1744000   3.7607463e-10  14415.353      5162.1827      940663.77      3.1148264e-07  9.9617998e-09  3.0152084e-07  12233750     
   1745000   3.7629026e-10  14415.311      5162.0347      940674.32      3.1148177e-07  9.9618126e-09  3.0151996e-07  12233683     
   1746000   3.765059e-10   14414.844      5161.4977      940680.86      3.1148177e-07  9.9715822e-09  3.0151019e-07  12233499     
   1747000   3.7672154e-10  14414.58       5161.3844      940665.56      3.1148212e-07  9.9774393e-09  3.0150468e-07  12233433     
   1748000   3.7693718e-10  14414.581      5161.5302      940651.1       3.1148273e-07  9.9780308e-09  3.015047e-07   12233491     
   1749000   3.7715282e-10  14414.84       5161.7637      940653.88      3.1148214e-07  9.9720317e-09  3.0151011e-07  12233576     
   1750000   3.7736846e-10  14415.444      5162.2873      940662.48      3.1148338e-07  9.9606465e-09  3.0152274e-07  12233889     
   1751000   3.775841e-10   14414.977      5161.9531      940648.75      3.1148381e-07  9.9708324e-09  3.0151298e-07  12233708     
   1752000   3.7779974e-10  14415.25       5162.3381      940637.84      3.1148369e-07  9.964998e-09   3.0151869e-07  12233764     
   1753000   3.7801538e-10  14415.524      5162.6219      940637.15      3.1148352e-07  9.9590987e-09  3.0152443e-07  12233831     
   1754000   3.7823102e-10  14415.528      5162.5941      940640.25      3.1148289e-07  9.9583974e-09  3.0152449e-07  12233776     
   1755000   3.7844666e-10  14415.679      5162.8019      940634.8       3.1148161e-07  9.9539419e-09  3.0152767e-07  12233746     
   1756000   3.7866229e-10  14415.52       5162.6791      940631.02      3.1148113e-07  9.95679e-09    3.0152434e-07  12233627     
   1757000   3.7887793e-10  14415.737      5162.8541      940635.45      3.1148102e-07  9.9521397e-09  3.0152888e-07  12233685     
   1758000   3.7909357e-10  14415.656      5162.7775      940634.93      3.1148119e-07  9.9540026e-09  3.0152719e-07  12233678     
   1759000   3.7930921e-10  14415.546      5162.7302      940628.48      3.1148067e-07  9.9557961e-09  3.0152487e-07  12233655     
   1760000   3.7952485e-10  14415.159      5162.3951      940622.9       3.1148111e-07  9.9643293e-09  3.0151678e-07  12233586     
   1761000   3.7974049e-10  14415.394      5162.7892      940607.19      3.1148199e-07  9.9603024e-09  3.0152169e-07  12233755     
   1762000   3.7995613e-10  14415.42       5162.9227      940596.5       3.1148172e-07  9.9594742e-09  3.0152225e-07  12233726     
   1763000   3.8017177e-10  14415.719      5163.3508      940583.88      3.114822e-07   9.9537014e-09  3.015285e-07   12233821     
   1764000   3.8038741e-10  14415.568      5163.3552      940568.11      3.1148164e-07  9.9563085e-09  3.0152533e-07  12233698     
   1765000   3.8060305e-10  14415.498      5163.5219      940544.35      3.1148228e-07  9.9584134e-09  3.0152387e-07  12233705     
   1766000   3.8081869e-10  14415.327      5163.3329      940546         3.1148289e-07  9.9625918e-09  3.0152029e-07  12233693     
   1767000   3.8103433e-10  14415.634      5163.7915      940531.21      3.1148303e-07  9.9563028e-09  3.0152673e-07  12233835     
   1768000   3.8124996e-10  14415.749      5163.9779      940524.14      3.1148283e-07  9.953707e-09   3.0152913e-07  12233868     
   1769000   3.814656e-10   14415.65       5163.7921      940532.67      3.114823e-07   9.9552573e-09  3.0152704e-07  12233784     
   1770000   3.8168124e-10  14415.856      5164.0928      940523.41      3.1148273e-07  9.9513711e-09  3.0153135e-07  12233888     
   1771000   3.8189688e-10  14415.587      5163.9479      940510.74      3.1148262e-07  9.9568876e-09  3.0152573e-07  12233800     
   1772000   3.8211252e-10  14415.516      5164.0041      940497.99      3.1148311e-07  9.95885e-09    3.0152426e-07  12233824     
   1773000   3.8232816e-10  14415.407      5163.8584      940501.52      3.1148299e-07  9.9610144e-09  3.0152197e-07  12233776     
   1774000   3.825438e-10   14415.396      5163.8251      940503.71      3.1148332e-07  9.9615831e-09  3.0152174e-07  12233789     
   1775000   3.8275944e-10  14415.518      5164.125       940486         3.1148296e-07  9.9586714e-09  3.0152428e-07  12233828     
   1776000   3.8297508e-10  14415.251      5163.9606      940475.48      3.1148316e-07  9.9644593e-09  3.015187e-07   12233755     
   1777000   3.8319072e-10  14415.459      5164.2178      940470.82      3.1148366e-07  9.9605928e-09  3.0152306e-07  12233880     
   1778000   3.8340636e-10  14415.236      5164.0442      940465.64      3.1148401e-07  9.9656185e-09  3.015184e-07   12233822     
   1779000   3.8362199e-10  14414.921      5164.2321      940414.96      3.1148364e-07  9.9718383e-09  3.015118e-07   12233690     
   1780000   3.8383763e-10  14414.791      5164.1285      940412.24      3.1148399e-07  9.9748942e-09  3.0150909e-07  12233657     
   1781000   3.8405327e-10  14415.347      5164.8038      940400.85      3.1148347e-07  9.9627427e-09  3.0152072e-07  12233816     
   1782000   3.8426891e-10  14415.302      5164.9791      940378.69      3.1148219e-07  9.9624184e-09  3.0151977e-07  12233692     
   1783000   3.8448455e-10  14415.229      5164.9386      940375.36      3.1148283e-07  9.964588e-09   3.0151824e-07  12233674     
   1784000   3.8470019e-10  14415.403      5165.1763      940369.14      3.1148226e-07  9.9603855e-09  3.0152188e-07  12233700     
   1785000   3.8491583e-10  14415.129      5165.0637      940352.75      3.1148231e-07  9.9661516e-09  3.0151616e-07  12233614     
   1786000   3.8513147e-10  14415.058      5165.1084      940341.12      3.1148237e-07  9.9676967e-09  3.0151467e-07  12233609     
   1787000   3.8534711e-10  14415.484      5165.75        940319.93      3.1148248e-07  9.9589055e-09  3.0152358e-07  12233770     
   1788000   3.8556275e-10  14415.219      5165.565       940311.69      3.1148349e-07  9.9654546e-09  3.0151804e-07  12233708     
   1789000   3.8577839e-10  14415.462      5165.8893      940303.82      3.1148402e-07  9.9608867e-09  3.0152313e-07  12233862     
   1790000   3.8599402e-10  14415.33       5165.8394      940295.43      3.1148357e-07  9.9632128e-09  3.0152036e-07  12233825     
   1791000   3.8620966e-10  14415.082      5165.5841      940295.9       3.1148399e-07  9.968824e-09   3.0151517e-07  12233784     
   1792000   3.864253e-10   14414.901      5165.3339      940302.68      3.114842e-07   9.9728114e-09  3.0151139e-07  12233725     
   1793000   3.8664094e-10  14415.023      5165.3216      940316.21      3.1148403e-07  9.9700903e-09  3.0151394e-07  12233755     
   1794000   3.8685658e-10  14415.186      5165.6702      940297.77      3.11483e-07    9.9656649e-09  3.0151734e-07  12233749     
   1795000   3.8707222e-10  14415.109      5165.7869      940278.38      3.1148235e-07  9.9666061e-09  3.0151575e-07  12233677     
   1796000   3.8728786e-10  14415.009      5165.6741      940279.55      3.1148261e-07  9.9689536e-09  3.0151365e-07  12233647     
   1797000   3.875035e-10   14414.988      5165.6134      940283.51      3.1148384e-07  9.9706284e-09  3.0151321e-07  12233714     
   1798000   3.8771914e-10  14415.133      5165.8824      940271.25      3.1148412e-07  9.9678751e-09  3.0151625e-07  12233786     
   1799000   3.8793478e-10  14415.48       5166.7626      940218.23      3.1148469e-07  9.9611836e-09  3.0152351e-07  12233946     
   1800000   3.8815042e-10  14415.256      5166.7153      940200.27      3.1148493e-07  9.9661158e-09  3.0151881e-07  12233887     
   1801000   3.8836606e-10  14415.068      5166.7338      940179.47      3.1148534e-07  9.9704459e-09  3.0151489e-07  12233860     
   1802000   3.8858169e-10  14414.901      5166.7823      940157.65      3.1148565e-07  9.9742734e-09  3.0151138e-07  12233813     
   1803000   3.8879733e-10  14415.115      5167.0235      940155.2       3.1148516e-07  9.9692945e-09  3.0151587e-07  12233839     
   1804000   3.8901297e-10  14415.096      5166.9306      940162.56      3.1148406e-07  9.9685908e-09  3.0151547e-07  12233763     
   1805000   3.8922861e-10  14414.845      5166.7082      940159.44      3.1148266e-07  9.9724427e-09  3.0151022e-07  12233588     
   1806000   3.8944425e-10  14415.164      5167.2547      940137.01      3.1148293e-07  9.9660324e-09  3.0151689e-07  12233742     
   1807000   3.8965989e-10  14415.131      5167.5305      940105.99      3.1148368e-07  9.9674944e-09  3.0151619e-07  12233766     
   1808000   3.8987553e-10  14415.076      5167.5061      940102.9       3.1148369e-07  9.9686405e-09  3.0151505e-07  12233716     
   1809000   3.9009117e-10  14414.964      5167.5993      940082.25      3.1148386e-07  9.9711556e-09  3.015127e-07   12233670     
   1810000   3.9030681e-10  14415.426      5168.0612      940082.77      3.1148345e-07  9.961073e-09   3.0152237e-07  12233837     
   1811000   3.9052245e-10  14415.276      5168.0528      940068.43      3.1148458e-07  9.9653491e-09  3.0151924e-07  12233861     
   1812000   3.9073809e-10  14415.22       5168.1254      940055.54      3.1148521e-07  9.9671381e-09  3.0151807e-07  12233886     
   1813000   3.9095372e-10  14415.331      5168.4905      940030.14      3.1148458e-07  9.9642053e-09  3.0152038e-07  12233874     
   1814000   3.9116936e-10  14415.534      5168.7682      940022.87      3.1148268e-07  9.9580542e-09  3.0152462e-07  12233791     
   1815000   3.91385e-10    14415.828      5169.1303      940016.34      3.1148205e-07  9.9512748e-09  3.0153077e-07  12233818     
   1816000   3.9160064e-10  14415.796      5169.1516      940010.97      3.1148224e-07  9.9521403e-09  3.015301e-07   12233827     
   1817000   3.9181628e-10  14415.425      5168.9568      939992.94      3.114821e-07   9.9597611e-09  3.0152234e-07  12233706     
   1818000   3.9203192e-10  14415.348      5168.8689      939994.04      3.1148174e-07  9.9609927e-09  3.0152074e-07  12233667     
   1819000   3.9224756e-10  14415.578      5169.3991      939964.17      3.1148141e-07  9.9558617e-09  3.0152554e-07  12233750     
   1820000   3.924632e-10   14415.316      5169.1485      939962.74      3.1148231e-07  9.9622473e-09  3.0152006e-07  12233697     
   1821000   3.9267884e-10  14415.68       5169.3454      939979.89      3.1148219e-07  9.9545041e-09  3.0152769e-07  12233806     
   1822000   3.9289448e-10  14415.565      5169.4312      939959.69      3.1148267e-07  9.9573865e-09  3.0152528e-07  12233773     
   1823000   3.9311012e-10  14415.574      5169.582       939945.5       3.114823e-07   9.9568272e-09  3.0152547e-07  12233765     
   1824000   3.9332575e-10  14415.259      5169.3307      939938.82      3.1148215e-07  9.9632667e-09  3.0151888e-07  12233611     
   1825000   3.9354139e-10  14415.62       5169.5839      939949.96      3.1148244e-07  9.9560112e-09  3.0152643e-07  12233735     
   1826000   3.9375703e-10  14415.655      5169.7608      939935.78      3.1148135e-07  9.9541937e-09  3.0152716e-07  12233667     
   1827000   3.9397267e-10  14416.124      5170.3951      939919.67      3.1148099e-07  9.9440198e-09  3.0153697e-07  12233820     
   1828000   3.9418831e-10  14416.427      5170.7984      939910         3.1148175e-07  9.9384333e-09  3.0154332e-07  12233981     
   1829000   3.9440395e-10  14416.043      5170.4677      939904.27      3.114817e-07   9.9464158e-09  3.0153528e-07  12233857     
   1830000   3.9461959e-10  14415.383      5169.9313      939891.18      3.1148122e-07  9.9597578e-09  3.0152146e-07  12233613     
   1831000   3.9483523e-10  14415.604      5170.2019      939886.5       3.1148173e-07  9.9556313e-09  3.015261e-07   12233764     
   1832000   3.9505087e-10  14415.375      5170.3409      939849.37      3.1148274e-07  9.9614418e-09  3.015213e-07   12233740     
   1833000   3.9526651e-10  14415.792      5170.8526      939840.36      3.1148253e-07  9.9525004e-09  3.0153003e-07  12233900     
   1834000   3.9548215e-10  14415.497      5170.7319      939822.57      3.1148262e-07  9.9587659e-09  3.0152385e-07  12233807     
   1835000   3.9569779e-10  14415.375      5170.7683      939806.6       3.1148242e-07  9.9611168e-09  3.015213e-07   12233752     
   1836000   3.9591342e-10  14415.481      5170.8493      939809.2       3.1148292e-07  9.9594021e-09  3.0152352e-07  12233818     
   1837000   3.9612906e-10  14415.426      5170.7763      939810.91      3.1148325e-07  9.9608869e-09  3.0152236e-07  12233802     
   1838000   3.963447e-10   14415.573      5170.9926      939804.16      3.1148222e-07  9.9567843e-09  3.0152544e-07  12233794     
   1839000   3.9656034e-10  14415.247      5170.7398      939796.55      3.1148297e-07  9.9643353e-09  3.0151863e-07  12233722     
   1840000   3.9677598e-10  14414.847      5170.3492      939795.21      3.1148316e-07  9.9728932e-09  3.0151026e-07  12233604     
   1841000   3.9699162e-10  14414.909      5170.5236      939784         3.114823e-07   9.9707464e-09  3.0151156e-07  12233597     
   1842000   3.9720726e-10  14415.014      5170.6736      939779.62      3.1148281e-07  9.969049e-09   3.0151376e-07  12233681     
   1843000   3.974229e-10   14414.92       5170.5726      939780.19      3.1148328e-07  9.9714913e-09  3.0151179e-07  12233664     
   1844000   3.9763854e-10  14415.3        5171.1315      939762.66      3.1148433e-07  9.9645947e-09  3.0151973e-07  12233869     
   1845000   3.9785418e-10  14414.925      5170.7628      939761.65      3.1148319e-07  9.9713071e-09  3.0151189e-07  12233648     
   1846000   3.9806982e-10  14415.266      5171.2835      939743.99      3.1148318e-07  9.9641643e-09  3.0151902e-07  12233778     
   1847000   3.9828545e-10  14415.419      5171.4644      939741.38      3.1148224e-07  9.9600158e-09  3.0152222e-07  12233760     
   1848000   3.9850109e-10  14415.389      5171.4207      939742.74      3.1148297e-07  9.9613684e-09  3.015216e-07   12233763     
   1849000   3.9871673e-10  14415.156      5171.2272      939738.52      3.1148194e-07  9.9652227e-09  3.0151672e-07  12233603     
   1850000   3.9893237e-10  14415.392      5171.5941      939725.68      3.1148093e-07  9.9592662e-09  3.0152166e-07  12233628     
   1851000   3.9914801e-10  14415.355      5171.6407      939717.26      3.1148144e-07  9.960552e-09   3.0152088e-07  12233633     
   1852000   3.9936365e-10  14415.679      5172.0413      939709.93      3.1148112e-07  9.9534529e-09  3.0152766e-07  12233726     
   1853000   3.9957929e-10  14415.775      5172.2039      939703.31      3.1148178e-07  9.9521173e-09  3.0152966e-07  12233793     
   1854000   3.9979493e-10  14415.933      5172.248       939714.94      3.1148208e-07  9.9491017e-09  3.0153298e-07  12233880     
   1855000   4.0001057e-10  14416.134      5172.4509      939714.91      3.1148306e-07  9.9458866e-09  3.0153718e-07  12234032     
   1856000   4.0022621e-10  14415.579      5172.1104      939692.88      3.1148291e-07  9.9573374e-09  3.0152557e-07  12233822     
   1857000   4.0044185e-10  14415.283      5171.9467      939679.32      3.1148261e-07  9.9632434e-09  3.0151937e-07  12233723     
   1858000   4.0065748e-10  14414.932      5171.5755      939681.05      3.1148322e-07  9.9711737e-09  3.0151204e-07  12233617     
   1859000   4.0087312e-10  14415.408      5172.062       939680.43      3.114827e-07   9.9607112e-09  3.0152199e-07  12233757     
   1860000   4.0108876e-10  14415.469      5172.1958      939673.19      3.1148393e-07  9.9606626e-09  3.0152326e-07  12233842     
   1861000   4.013044e-10   14415.225      5172.081       939660.01      3.1148411e-07  9.9659488e-09  3.0151816e-07  12233751     
   1862000   4.0152004e-10  14415.192      5172.3085      939633.89      3.1148366e-07  9.9661976e-09  3.0151747e-07  12233743     
   1863000   4.0173568e-10  14415.358      5172.6834      939613.16      3.1148315e-07  9.9622112e-09  3.0152094e-07  12233797     
   1864000   4.0195132e-10  14415.391      5172.6792      939616.95      3.1148266e-07  9.9610267e-09  3.0152164e-07  12233768     
   1865000   4.0216696e-10  14415.623      5173.1281      939595.45      3.1148287e-07  9.9563871e-09  3.0152649e-07  12233845     
   1866000   4.023826e-10   14415.408      5173.0507      939581.49      3.1148241e-07  9.960418e-09   3.0152199e-07  12233707     
   1867000   4.0259824e-10  14415.437      5173.0511      939584.37      3.1148121e-07  9.95861e-09    3.015226e-07   12233644     
   1868000   4.0281388e-10  14415.192      5173.0311      939561.64      3.1148062e-07  9.9631408e-09  3.0151748e-07  12233513     
   1869000   4.0302952e-10  14415.314      5173.26        939551.07      3.1148059e-07  9.9605534e-09  3.0152004e-07  12233555     
   1870000   4.0324515e-10  14415.267      5173.2822      939544.06      3.1147975e-07  9.9607049e-09  3.0151904e-07  12233483     
   1871000   4.0346079e-10  14415.706      5173.7394      939542.63      3.1148016e-07  9.9519372e-09  3.0152822e-07  12233672     
   1872000   4.0367643e-10  14415.824      5173.7619      939552.35      3.1148082e-07  9.9501278e-09  3.0153069e-07  12233747     
   1873000   4.0389207e-10  14416.043      5173.9506      939555.57      3.1148184e-07  9.9465641e-09  3.0153527e-07  12233896     
   1874000   4.0410771e-10  14415.847      5173.8597      939544.92      3.114811e-07   9.9499183e-09  3.0153118e-07  12233778     
   1875000   4.0432335e-10  14415.856      5174.1075      939520.95      3.1148136e-07  9.9499989e-09  3.0153136e-07  12233802     
   1876000   4.0453899e-10  14415.883      5174.1243      939522         3.1148232e-07  9.9503967e-09  3.0153192e-07  12233849     
   1877000   4.0475463e-10  14416.099      5174.3369      939522.56      3.1148231e-07  9.9458698e-09  3.0153644e-07  12233921     
   1878000   4.0497027e-10  14415.662      5174.0148      939510.69      3.1148183e-07  9.9545208e-09  3.0152731e-07  12233729     
   1879000   4.0518591e-10  14415.764      5174.2519      939497.24      3.1148266e-07  9.9532197e-09  3.0152944e-07  12233826     
   1880000   4.0540155e-10  14415.848      5174.6186      939468.97      3.1148306e-07  9.9518699e-09  3.0153119e-07  12233892     
   1881000   4.0561718e-10  14416.137      5175.2206      939437.99      3.1148208e-07  9.9448384e-09  3.0153724e-07  12233942     
   1882000   4.0583282e-10  14415.798      5174.8769      939438.09      3.114817e-07   9.9515469e-09  3.0153015e-07  12233763     
   1883000   4.0604846e-10  14415.697      5174.8103      939434.52      3.1148178e-07  9.9537547e-09  3.0152803e-07  12233730     
   1884000   4.062641e-10   14415.481      5174.602       939433.59      3.1148203e-07  9.9585051e-09  3.0152352e-07  12233688     
   1885000   4.0647974e-10  14415.35       5174.6677      939413.74      3.1148093e-07  9.9601519e-09  3.0152078e-07  12233586     
   1886000   4.0669538e-10  14415.397      5174.8528      939399.96      3.114817e-07   9.9599432e-09  3.0152176e-07  12233643     
   1887000   4.0691102e-10  14415.701      5175.2203      939393.96      3.1148156e-07  9.9534257e-09  3.0152813e-07  12233747     
   1888000   4.0712666e-10  14415.689      5175.3647      939378.25      3.1148292e-07  9.9550543e-09  3.0152787e-07  12233825     
   1889000   4.073423e-10   14415.373      5175.0925      939373.53      3.1148313e-07  9.9618702e-09  3.0152126e-07  12233723     
   1890000   4.0755794e-10  14415.77       5175.6161      939361.23      3.1148295e-07  9.953391e-09   3.0152955e-07  12233902     
   1891000   4.0777358e-10  14415.156      5175.0675      939354.12      3.1148362e-07  9.9669011e-09  3.0151672e-07  12233743     
   1892000   4.0798922e-10  14415.248      5175.2841      939341.73      3.1148249e-07  9.9638501e-09  3.0151864e-07  12233730     
   1893000   4.0820485e-10  14415.437      5175.4433      939344.93      3.1148268e-07  9.9600752e-09  3.015226e-07   12233798     
   1894000   4.0842049e-10  14415.003      5175.1184      939333.54      3.1148178e-07  9.9682621e-09  3.0151352e-07  12233553     
   1895000   4.0863613e-10  14415.237      5175.4231      939326.74      3.1148211e-07  9.9636933e-09  3.0151842e-07  12233652     
   1896000   4.0885177e-10  14415.459      5175.8641      939304.99      3.1148292e-07  9.959871e-09   3.0152305e-07  12233795     
   1897000   4.0906741e-10  14415.07       5175.8716      939264.95      3.1148372e-07  9.9687929e-09  3.0151493e-07  12233709     
   1898000   4.0928305e-10  14414.685      5175.6462      939248.61      3.1148374e-07  9.9768658e-09  3.0150688e-07  12233595     
   1899000   4.0949869e-10  14414.868      5175.9231      939239.38      3.1148357e-07  9.9728711e-09  3.015107e-07   12233661     
   1900000   4.0971433e-10  14414.936      5176.0125      939237.26      3.1148333e-07  9.9712123e-09  3.0151211e-07  12233647     
   1901000   4.0992997e-10  14415.043      5176.158       939233.52      3.1148369e-07  9.9693336e-09  3.0151435e-07  12233697     
   1902000   4.1014561e-10  14415.042      5176.4651      939202.73      3.1148252e-07  9.9681773e-09  3.0151434e-07  12233634     
   1903000   4.1036125e-10  14414.982      5176.2934      939213.81      3.1148199e-07  9.9689108e-09  3.0151308e-07  12233572     
   1904000   4.1057688e-10  14415.09       5176.4494      939209.14      3.1148214e-07  9.9667959e-09  3.0151534e-07  12233593     
   1905000   4.1079252e-10  14415.683      5177.0857      939205.35      3.1148215e-07  9.9544143e-09  3.0152774e-07  12233792     
   1906000   4.1100816e-10  14415.628      5176.9682      939211.57      3.1148123e-07  9.9546374e-09  3.0152659e-07  12233684     
   1907000   4.112238e-10   14415.465      5176.9848      939193.47      3.1148007e-07  9.9568801e-09  3.0152319e-07  12233533     
   1908000   4.1143944e-10  14415.651      5177.1418      939196.57      3.1148089e-07  9.9538097e-09  3.0152708e-07  12233653     
   1909000   4.1165508e-10  14415.704      5177.41        939175.04      3.1148067e-07  9.9524896e-09  3.0152818e-07  12233691     
   1910000   4.1187072e-10  14415.179      5177.0757      939155.39      3.1148016e-07  9.96296e-09    3.015172e-07   12233482     
   1911000   4.1208636e-10  14415.023      5176.9066      939156.57      3.1148041e-07  9.9664683e-09  3.0151394e-07  12233437     
   1912000   4.12302e-10    14414.836      5176.65        939163.4       3.1148084e-07  9.9707983e-09  3.0151004e-07  12233372     
   1913000   4.1251764e-10  14415.419      5177.3813      939149.12      3.1148142e-07  9.9591936e-09  3.0152223e-07  12233624     
   1914000   4.1273328e-10  14415.493      5177.59        939135.7       3.1148142e-07  9.9576502e-09  3.0152377e-07  12233652     
   1915000   4.1294891e-10  14415.44       5177.5497      939134.34      3.1148123e-07  9.958572e-09   3.0152266e-07  12233632     
   1916000   4.1316455e-10  14415.461      5177.5171      939139.8       3.1148103e-07  9.9579174e-09  3.0152311e-07  12233645     
   1917000   4.1338019e-10  14415.486      5177.6493      939129.09      3.1148129e-07  9.9576522e-09  3.0152363e-07  12233672     
   1918000   4.1359583e-10  14415.844      5177.9605      939134.07      3.1148146e-07  9.9503515e-09  3.0153111e-07  12233817     
   1919000   4.1381147e-10  14415.526      5177.613       939136.73      3.1148083e-07  9.9563695e-09  3.0152446e-07  12233647     
   1920000   4.1402711e-10  14415.545      5177.8635      939113.6       3.11481e-07    9.9561325e-09  3.0152486e-07  12233656     
   1921000   4.1424275e-10  14415.696      5178.0604      939109.17      3.1148152e-07  9.9534963e-09  3.0152803e-07  12233715     
   1922000   4.1445839e-10  14416.142      5178.4378      939116.48      3.1148154e-07  9.9441861e-09  3.0153736e-07  12233869     
   1923000   4.1467403e-10  14415.844      5178.4427      939085.82      3.1148086e-07  9.9497439e-09  3.0153111e-07  12233709     
   1924000   4.1488967e-10  14415.602      5178.3861      939067.06      3.1148162e-07  9.9555595e-09  3.0152606e-07  12233676     
   1925000   4.1510531e-10  14415.595      5178.4965      939055.22      3.1148197e-07  9.9560761e-09  3.0152589e-07  12233734     
   1926000   4.1532095e-10  14415.42       5178.3639      939050.82      3.1148199e-07  9.9597518e-09  3.0152224e-07  12233712     
   1927000   4.1553658e-10  14415.154      5178.3116      939029.14      3.1148155e-07  9.9648819e-09  3.0151667e-07  12233599     
   1928000   4.1575222e-10  14415.012      5178.1768      939028.32      3.114819e-07   9.9681941e-09  3.0151371e-07  12233564     
   1929000   4.1596786e-10  14414.971      5178.2022      939021.64      3.1148171e-07  9.9688574e-09  3.0151285e-07  12233528     
   1930000   4.161835e-10   14415.651      5178.7298      939037.6       3.1148113e-07  9.9540449e-09  3.0152708e-07  12233739     
   1931000   4.1639914e-10  14415.723      5178.945       939023.34      3.1148211e-07  9.9535172e-09  3.0152859e-07  12233807     
   1932000   4.1661478e-10  14415.654      5178.9237      939018.48      3.1148322e-07  9.9560804e-09  3.0152714e-07  12233846     
   1933000   4.1683042e-10  14415.422      5178.9618      938991.15      3.1148336e-07  9.9610804e-09  3.0152228e-07  12233796     
   1934000   4.1704606e-10  14415.413      5178.9047      938996.02      3.1148402e-07  9.9619205e-09  3.015221e-07   12233871     
   1935000   4.172617e-10   14415.351      5179.0119      938979.04      3.1148419e-07  9.9633869e-09  3.0152081e-07  12233862     
   1936000   4.1747734e-10  14415.58       5179.3618      938967.15      3.1148328e-07  9.9576897e-09  3.0152559e-07  12233862     
   1937000   4.1769298e-10  14415.794      5179.4723      938977.67      3.1148239e-07  9.9523306e-09  3.0153006e-07  12233834     
   1938000   4.1790861e-10  14415.78       5179.473       938976.23      3.1148197e-07  9.9521906e-09  3.0152978e-07  12233773     
   1939000   4.1812425e-10  14415.85       5179.6266      938967.89      3.1148276e-07  9.9515321e-09  3.0153123e-07  12233856     
   1940000   4.1833989e-10  14415.327      5179.1402      938963.76      3.1148237e-07  9.9620705e-09  3.015203e-07   12233683     
   1941000   4.1855553e-10  14415.111      5178.9423      938961.68      3.1148216e-07  9.9663833e-09  3.0151577e-07  12233620     
   1942000   4.1877117e-10  14415.291      5179.1648      938957.58      3.1148203e-07  9.9624976e-09  3.0151954e-07  12233686     
   1943000   4.1898681e-10  14415.429      5179.398       938948.23      3.1148269e-07  9.9602609e-09  3.0152243e-07  12233771     
   1944000   4.1920245e-10  14415.138      5179.1412      938944.55      3.1148274e-07  9.966392e-09   3.0151635e-07  12233670     
   1945000   4.1941809e-10  14415.144      5179.3074      938928.53      3.1148272e-07  9.9662418e-09  3.0151648e-07  12233673     
   1946000   4.1963373e-10  14415.447      5179.5567      938934.2       3.1148241e-07  9.9595979e-09  3.0152281e-07  12233749     
   1947000   4.1984937e-10  14415.604      5179.6802      938937.72      3.1148231e-07  9.9562141e-09  3.015261e-07   12233761     
   1948000   4.2006501e-10  14415.582      5179.7757      938925.85      3.1148225e-07  9.95663e-09    3.0152562e-07  12233732     
   1949000   4.2028064e-10  14415.438      5179.7364      938915.23      3.1148272e-07  9.9601089e-09  3.0152261e-07  12233718     
   1950000   4.2049628e-10  14415.606      5179.891       938916.77      3.1148323e-07  9.9571029e-09  3.0152613e-07  12233845     
   1951000   4.2071192e-10  14415.557      5179.8811      938912.81      3.1148367e-07  9.9585638e-09  3.0152511e-07  12233909     
   1952000   4.2092756e-10  14415.204      5179.724       938892.86      3.11484e-07    9.9662726e-09  3.0151773e-07  12233826     
   1953000   4.211432e-10   14415.191      5179.7247      938891.52      3.1148471e-07  9.9672456e-09  3.0151746e-07  12233863     
   1954000   4.2135884e-10  14415.447      5180.1226      938877.57      3.1148388e-07  9.9610586e-09  3.0152282e-07  12233877     
   1955000   4.2157448e-10  14415.419      5180.1376      938873.23      3.1148274e-07  9.9605126e-09  3.0152223e-07  12233767     
   1956000   4.2179012e-10  14415.75       5180.5765      938862.71      3.1148209e-07  9.9529421e-09  3.0152914e-07  12233839     
   1957000   4.2200576e-10  14415.647      5180.4525      938864.71      3.1148075e-07  9.9537641e-09  3.0152699e-07  12233702     
   1958000   4.222214e-10   14415.669      5180.537       938858.52      3.1148133e-07  9.9538681e-09  3.0152746e-07  12233723     
   1959000   4.2243704e-10  14415.287      5180.1904      938854.56      3.1148091e-07  9.9614488e-09  3.0151946e-07  12233524     
   1960000   4.2265268e-10  14415.85       5180.7821      938852.28      3.1147986e-07  9.9486171e-09  3.0153124e-07  12233674     
   1961000   4.2286831e-10  14415.868      5180.8969      938842.59      3.1148102e-07  9.9494095e-09  3.0153161e-07  12233728     
   1962000   4.2308395e-10  14415.912      5181.1171      938824.94      3.1148045e-07  9.9479201e-09  3.0153253e-07  12233687     
   1963000   4.2329959e-10  14416.107      5181.1955      938836.87      3.1148108e-07  9.9444607e-09  3.0153662e-07  12233793     
   1964000   4.2351523e-10  14415.988      5180.9675      938847.62      3.1148126e-07  9.9471419e-09  3.0153412e-07  12233774     
   1965000   4.2373087e-10  14415.705      5180.647       938851.15      3.1148235e-07  9.9541354e-09  3.0152821e-07  12233770     
   1966000   4.2394651e-10  14415.508      5180.5065      938845.25      3.1148217e-07  9.9580901e-09  3.0152408e-07  12233710     
   1967000   4.2416215e-10  14415.808      5180.8101      938845.17      3.1148113e-07  9.950776e-09   3.0153035e-07  12233765     
   1968000   4.2437779e-10  14416.107      5180.9526      938861.21      3.1148249e-07  9.9458721e-09  3.0153662e-07  12233948     
   1969000   4.2459343e-10  14416.078      5181.0148      938852.05      3.1148212e-07  9.9461047e-09  3.0153601e-07  12233905     
   1970000   4.2480907e-10  14415.968      5181.0879      938833.57      3.1148199e-07  9.9482817e-09  3.0153371e-07  12233878     
   1971000   4.2502471e-10  14415.457      5180.6362      938827.12      3.1148276e-07  9.9597393e-09  3.0152302e-07  12233747     
   1972000   4.2524034e-10  14415.542      5180.776       938821.73      3.1148174e-07  9.9569461e-09  3.015248e-07   12233733     
   1973000   4.2545598e-10  14415.255      5180.7731      938793         3.1148097e-07  9.9621824e-09  3.0151879e-07  12233584     
   1974000   4.2567162e-10  14415.078      5180.6765      938784.82      3.1148158e-07  9.96648e-09    3.015151e-07   12233529     
   1975000   4.2588726e-10  14415.612      5181.3657      938769.82      3.1148195e-07  9.9556799e-09  3.0152627e-07  12233740     
   1976000   4.261029e-10   14415.688      5181.4537      938768.67      3.1148168e-07  9.953825e-09   3.0152785e-07  12233751     
   1977000   4.2631854e-10  14415.692      5181.4101      938773.38      3.1148137e-07  9.9534434e-09  3.0152792e-07  12233736     
   1978000   4.2653418e-10  14415.575      5181.4902      938753.59      3.1148219e-07  9.9566986e-09  3.0152549e-07  12233747     
   1979000   4.2674982e-10  14415.218      5181.3604      938730.45      3.1148318e-07  9.9651685e-09  3.0151801e-07  12233682     
   1980000   4.2696546e-10  14415.299      5181.4305      938731.65      3.1148348e-07  9.9637653e-09  3.0151971e-07  12233753     
   1981000   4.271811e-10   14415.522      5181.573       938739.94      3.1148265e-07  9.9582677e-09  3.0152438e-07  12233792     
   1982000   4.2739674e-10  14415.42       5181.4574      938741.18      3.1148302e-07  9.9607791e-09  3.0152224e-07  12233766     
   1983000   4.2761237e-10  14415.423      5181.8382      938703.33      3.1148318e-07  9.9608808e-09  3.015223e-07   12233801     
   1984000   4.2782801e-10  14415.213      5181.7477      938691.18      3.1148278e-07  9.9648674e-09  3.0151791e-07  12233724     
   1985000   4.2804365e-10  14415.022      5181.5266      938693.98      3.1148301e-07  9.9691007e-09  3.0151391e-07  12233688     
   1986000   4.2825929e-10  14414.671      5181.379       938673.32      3.1148403e-07  9.9774477e-09  3.0150658e-07  12233640     
   1987000   4.2847493e-10  14414.637      5181.3902      938668.72      3.1148414e-07  9.9782804e-09  3.0150586e-07  12233650     
   1988000   4.2869057e-10  14415.025      5181.8598      938660.95      3.114852e-07   9.9712275e-09  3.0151398e-07  12233859     
   1989000   4.2890621e-10  14415.062      5181.92        938658.66      3.1148471e-07  9.9699584e-09  3.0151475e-07  12233842     
   1990000   4.2912185e-10  14415.04       5181.8135      938667.13      3.1148471e-07  9.9704108e-09  3.015143e-07   12233833     
   1991000   4.2933749e-10  14415.024      5181.9549      938651.36      3.1148435e-07  9.9703835e-09  3.0151396e-07  12233794     
   1992000   4.2955313e-10  14415.238      5182.2393      938644.56      3.114852e-07   9.9667563e-09  3.0151845e-07  12233918     
   1993000   4.2976877e-10  14415.205      5182.4944      938615.6       3.1148569e-07  9.9679502e-09  3.0151774e-07  12233921     
   1994000   4.2998441e-10  14414.944      5182.2076      938617.93      3.1148583e-07  9.9735527e-09  3.0151228e-07  12233826     
   1995000   4.3020004e-10  14415.035      5182.3338      938614.57      3.1148502e-07  9.9708239e-09  3.015142e-07   12233813     
   1996000   4.3041568e-10  14415.188      5182.4227      938621.14      3.1148461e-07  9.9672086e-09  3.015174e-07   12233837     
   1997000   4.3063132e-10  14415.296      5182.6692      938607.34      3.1148408e-07  9.9644307e-09  3.0151965e-07  12233829     
   1998000   4.3084696e-10  14415.276      5182.5993      938612.29      3.1148349e-07  9.964269e-09   3.0151922e-07  12233779     
   1999000   4.310626e-10   14415.057      5182.491       938601.02      3.1148318e-07  9.9685287e-09  3.0151465e-07  12233687     
   2000000   4.3127824e-10  14414.624      5182.3362      938572.7       3.1148215e-07  9.9765643e-09  3.0150559e-07  12233469     
   2001000   4.3149388e-10  14415.123      5182.8191      938574.87      3.1148263e-07  9.9665955e-09  3.0151603e-07  12233694     
   2002000   4.3170952e-10  14414.878      5182.3933      938592.69      3.1148296e-07  9.9720603e-09  3.015109e-07   12233612     
   2003000   4.3192516e-10  14415.203      5182.7486      938589.96      3.114833e-07   9.9656062e-09  3.0151769e-07  12233760     
   2004000   4.321408e-10   14415.165      5182.6962      938591.4       3.1148306e-07  9.9661467e-09  3.0151691e-07  12233720     
   2005000   4.3235644e-10  14415.005      5183.0211      938542.71      3.1148302e-07  9.9694548e-09  3.0151356e-07  12233649     
   2006000   4.3257207e-10  14415.029      5183.1188      938535.31      3.114824e-07   9.9683416e-09  3.0151406e-07  12233595     
   2007000   4.3278771e-10  14415.01       5183.2355      938521.76      3.114823e-07   9.9686333e-09  3.0151367e-07  12233561     
   2008000   4.3300335e-10  14415.265      5183.5455      938516.48      3.1148195e-07  9.9629552e-09  3.01519e-07    12233632     
   2009000   4.3321899e-10  14415.339      5183.73        938505.47      3.1148249e-07  9.9619543e-09  3.0152054e-07  12233700     
   2010000   4.3343463e-10  14415.216      5183.7487      938491.23      3.1148273e-07  9.9647499e-09  3.0151798e-07  12233669     
   2011000   4.3365027e-10  14415.629      5184.3095      938476.79      3.1148291e-07  9.9563073e-09  3.0152661e-07  12233837     
   2012000   4.3386591e-10  14415.359      5184.3054      938449.97      3.1148216e-07  9.9611855e-09  3.0152097e-07  12233685     
   2013000   4.3408155e-10  14415.13       5184.3168      938425.62      3.1148209e-07  9.9659189e-09  3.0151617e-07  12233588     
   2014000   4.3429719e-10  14415.664      5184.6255      938448.74      3.1148244e-07  9.9550931e-09  3.0152735e-07  12233813     
   2015000   4.3451283e-10  14415.657      5184.7655      938433.99      3.1148194e-07  9.9547401e-09  3.015272e-07   12233789     
   2016000   4.3472847e-10  14415.469      5184.4343      938448.13      3.1148271e-07  9.9594519e-09  3.0152326e-07  12233772     
   2017000   4.3494411e-10  14415.392      5184.3902      938444.79      3.1148263e-07  9.9609687e-09  3.0152166e-07  12233719     
   2018000   4.3515974e-10  14415.685      5184.6111      938452.26      3.1148171e-07  9.9539285e-09  3.0152778e-07  12233763     
   2019000   4.3537538e-10  14415.94       5184.879       938451.23      3.1148195e-07  9.9488365e-09  3.0153312e-07  12233862     
   2020000   4.3559102e-10  14415.893      5184.964       938437.96      3.1148116e-07  9.9490337e-09  3.0153213e-07  12233783     
   2021000   4.3580666e-10  14416.254      5185.4763      938423.23      3.1148152e-07  9.9418304e-09  3.0153969e-07  12233909     
   2022000   4.360223e-10   14415.811      5185.0572      938420.38      3.1148135e-07  9.9509323e-09  3.0153042e-07  12233688     
   2023000   4.3623794e-10  14416.158      5185.3759      938423.61      3.1148071e-07  9.9430167e-09  3.0153769e-07  12233791     
   2024000   4.3645358e-10  14416.195      5185.5902      938405.9       3.1148001e-07  9.9415441e-09  3.0153846e-07  12233799     
   2025000   4.3666922e-10  14415.546      5185.105       938388.82      3.114816e-07   9.9567222e-09  3.0152488e-07  12233689     
   2026000   4.3688486e-10  14415.319      5184.8636      938389.98      3.1148202e-07  9.9619021e-09  3.0152012e-07  12233680     
   2027000   4.371005e-10   14415.019      5184.6349      938382.55      3.1148265e-07  9.9687978e-09  3.0151385e-07  12233625     
   2028000   4.3731614e-10  14415.34       5185.0266      938375.85      3.1148326e-07  9.962679e-09   3.0152058e-07  12233785     
   2029000   4.3753177e-10  14415.253      5184.8022      938389.47      3.1148373e-07  9.9649869e-09  3.0151875e-07  12233769     
   2030000   4.3774741e-10  14415.239      5184.9333      938374.94      3.1148376e-07  9.9653056e-09  3.0151846e-07  12233760     
   2031000   4.3796305e-10  14415.428      5185.2728      938360.08      3.1148302e-07  9.9606052e-09  3.0152241e-07  12233783     
   2032000   4.3817869e-10  14415.452      5185.2497      938364.85      3.1148228e-07  9.9593646e-09  3.0152292e-07  12233723     
   2033000   4.3839433e-10  14415.745      5185.6616      938353.24      3.1148241e-07  9.9533591e-09  3.0152905e-07  12233814     
   2034000   4.3860997e-10  14415.452      5185.5585      938333.9       3.1148241e-07  9.9594938e-09  3.0152291e-07  12233684     
   2035000   4.3882561e-10  14416.046      5186.2335      938326.44      3.1148204e-07  9.946697e-09   3.0153535e-07  12233892     
   2036000   4.3904125e-10  14415.741      5185.9415      938324.76      3.1148284e-07  9.9538906e-09  3.0152895e-07  12233820     
   2037000   4.3925689e-10  14415.479      5185.6396      938328.51      3.1148293e-07  9.9594552e-09  3.0152348e-07  12233760     
   2038000   4.3947253e-10  14415.499      5185.7411      938320.39      3.1148315e-07  9.9592546e-09  3.015239e-07   12233825     
   2039000   4.3968817e-10  14415.314      5185.5827      938317.52      3.114821e-07   9.9620802e-09  3.0152002e-07  12233698     
   2040000   4.399038e-10   14415.039      5186.5379      938194.14      3.114817e-07   9.9674153e-09  3.0151428e-07  12233554     
   2041000   4.4011944e-10  14415.193      5186.8372      938179.7       3.114824e-07   9.9649089e-09  3.0151749e-07  12233631     
   2042000   4.4033508e-10  14415.112      5186.8159      938173.67      3.1148182e-07  9.9660144e-09  3.015158e-07   12233525     
   2043000   4.4055072e-10  14415.392      5187.0368      938179.83      3.1148116e-07  9.9595067e-09  3.0152165e-07  12233596     
   2044000   4.4076636e-10  14415.063      5186.82        938168.32      3.1148072e-07  9.9659393e-09  3.0151478e-07  12233475     
   2045000   4.40982e-10    14415.355      5187.2843      938151.39      3.1148115e-07  9.9602568e-09  3.0152089e-07  12233643     
   2046000   4.4119764e-10  14415.509      5187.6487      938130.46      3.1148234e-07  9.9582258e-09  3.0152411e-07  12233772     
   2047000   4.4141328e-10  14415.807      5187.9229      938133.08      3.1148276e-07  9.9524326e-09  3.0153033e-07  12233898     
   2048000   4.4162892e-10  14415.832      5188.0165      938126.23      3.1148312e-07  9.9522666e-09  3.0153085e-07  12233923     
   2049000   4.4184456e-10  14415.52       5187.6805      938128.42      3.114835e-07   9.9591582e-09  3.0152434e-07  12233833     
   2050000   4.420602e-10   14415.795      5187.9315      938131.07      3.1148331e-07  9.9532194e-09  3.0153009e-07  12233944     
   2051000   4.4227584e-10  14415.826      5187.9897      938128.36      3.1148297e-07  9.9522328e-09  3.0153074e-07  12233936     
   2052000   4.4249147e-10  14414.948      5187.2351      938115.08      3.1148341e-07  9.9710467e-09  3.0151236e-07  12233618     
   2053000   4.4270711e-10  14414.93       5187.5719      938079.56      3.114823e-07   9.9703067e-09  3.0151199e-07  12233554     
   2054000   4.4292275e-10  14414.941      5187.7887      938059.03      3.1148357e-07  9.9713408e-09  3.0151223e-07  12233652     
   2055000   4.4313839e-10  14415.403      5188.3223      938052.26      3.1148285e-07  9.9609705e-09  3.0152188e-07  12233783     
   2056000   4.4335403e-10  14415.786      5188.6338      938059.8       3.1148265e-07  9.9527545e-09  3.0152989e-07  12233884     
   2057000   4.4356967e-10  14415.503      5188.4958      938045.04      3.1148196e-07  9.9579818e-09  3.0152398e-07  12233700     
   2058000   4.4378531e-10  14415.528      5188.6633      938030.8       3.114819e-07   9.9573992e-09  3.015245e-07   12233705     
   2059000   4.4400095e-10  14415.271      5188.4554      938025.6       3.1148233e-07  9.9632026e-09  3.0151912e-07  12233651     
   2060000   4.4421659e-10  14415.076      5188.5905      937992.39      3.1148178e-07  9.9667292e-09  3.0151505e-07  12233568     
   2061000   4.4443223e-10  14415.329      5188.8616      937990.88      3.1148346e-07  9.9631137e-09  3.0152035e-07  12233775     
   2062000   4.4464787e-10  14415.33       5188.8139      937995.66      3.1148368e-07  9.9633254e-09  3.0152035e-07  12233797     
   2063000   4.448635e-10   14415.221      5188.9196      937974.09      3.1148375e-07  9.9656778e-09  3.0151808e-07  12233763     
   2064000   4.4507914e-10  14415.167      5188.9749      937963.13      3.1148361e-07  9.9666509e-09  3.0151696e-07  12233752     
   2065000   4.4529478e-10  14415.167      5188.9554      937965.05      3.1148297e-07  9.9660196e-09  3.0151695e-07  12233723     
   2066000   4.4551042e-10  14415.243      5189.1452      937953.79      3.1148344e-07  9.9648917e-09  3.0151855e-07  12233773     
   2067000   4.4572606e-10  14415.202      5189.1182      937952.27      3.1148405e-07  9.9663754e-09  3.0151768e-07  12233786     
   2068000   4.459417e-10   14415.047      5189.0682      937941.68      3.1148378e-07  9.9693299e-09  3.0151445e-07  12233712     
   2069000   4.4615734e-10  14415.162      5189.1941      937940.66      3.1148344e-07  9.9665956e-09  3.0151685e-07  12233724     
   2070000   4.4637298e-10  14415.155      5189.2922      937930.18      3.1148372e-07  9.9670075e-09  3.0151671e-07  12233729     
   2071000   4.4658862e-10  14415.238      5189.361       937931.67      3.1148288e-07  9.9644373e-09  3.0151844e-07  12233709     
   2072000   4.4680426e-10  14415.333      5189.4601      937931.36      3.1148311e-07  9.9626776e-09  3.0152043e-07  12233760     
   2073000   4.470199e-10   14415.526      5189.6708      937929.75      3.1148322e-07  9.9587612e-09  3.0152446e-07  12233839     
   2074000   4.4723553e-10  14415.775      5190.0934      937912.58      3.1148339e-07  9.9537273e-09  3.0152966e-07  12233947     
   2075000   4.4745117e-10  14415.651      5190.1429      937895.09      3.1148271e-07  9.9556376e-09  3.0152707e-07  12233846     
   2076000   4.4766681e-10  14415.555      5190.0819      937891.53      3.1148301e-07  9.9579476e-09  3.0152507e-07  12233828     
   2077000   4.4788245e-10  14415.219      5189.7354      937892.22      3.1148266e-07  9.9646245e-09  3.0151803e-07  12233679     
   2078000   4.4809809e-10  14415.253      5189.9941      937869.76      3.1148321e-07  9.9644622e-09  3.0151874e-07  12233730     
   2079000   4.4831373e-10  14415.358      5190.1443      937865.38      3.1148322e-07  9.9622736e-09  3.0152095e-07  12233786     
   2080000   4.4852937e-10  14415.191      5190.1317      937849.74      3.114835e-07   9.9660426e-09  3.0151745e-07  12233772     
   2081000   4.4874501e-10  14414.735      5189.7979      937837.08      3.1148408e-07  9.976165e-09   3.0150792e-07  12233643     
   2082000   4.4896065e-10  14415.027      5190.1036      937835.97      3.1148386e-07  9.9698415e-09  3.0151402e-07  12233742     
   2083000   4.4917629e-10  14415.227      5190.3843      937828.12      3.114839e-07   9.9656944e-09  3.0151821e-07  12233787     
   2084000   4.4939193e-10  14415.489      5190.8697      937806.01      3.1148415e-07  9.9604587e-09  3.0152369e-07  12233874     
   2085000   4.4960757e-10  14415.591      5191.1317      937790.1       3.1148408e-07  9.9582534e-09  3.0152582e-07  12233914     
   2086000   4.498232e-10   14414.921      5190.6179      937773.78      3.1148405e-07  9.9722438e-09  3.0151181e-07  12233663     
   2087000   4.5003884e-10  14414.982      5190.8089      937760.84      3.1148348e-07  9.9703925e-09  3.0151309e-07  12233680     
   2088000   4.5025448e-10  14415.52       5191.309       937765.19      3.1148279e-07  9.9584449e-09  3.0152434e-07  12233854     
   2089000   4.5047012e-10  14415.496      5191.3421      937759.4       3.1148252e-07  9.9586913e-09  3.0152383e-07  12233815     
   2090000   4.5068576e-10  14415.217      5191.335       937731.97      3.1148244e-07  9.9644338e-09  3.0151801e-07  12233697     
   2091000   4.509014e-10   14415.224      5191.5445      937711.71      3.1148249e-07  9.9643315e-09  3.0151815e-07  12233697     
   2092000   4.5111704e-10  14414.993      5191.2468      937718.13      3.1148282e-07  9.9695046e-09  3.0151332e-07  12233627     
   2093000   4.5133268e-10  14414.757      5191.1764      937701.32      3.1148411e-07  9.9757279e-09  3.0150838e-07  12233618     
   2094000   4.5154832e-10  14414.918      5191.3499      937700.22      3.114832e-07   9.9714539e-09  3.0151175e-07  12233647     
   2095000   4.5176396e-10  14415.15       5191.5109      937707.51      3.1148306e-07  9.9664703e-09  3.0151659e-07  12233744     
   2096000   4.519796e-10   14415.237      5191.7142      937695.94      3.1148328e-07  9.9648774e-09  3.0151841e-07  12233789     
   2097000   4.5219523e-10  14415.224      5191.8864      937677.45      3.1148438e-07  9.9662339e-09  3.0151815e-07  12233845     
   2098000   4.5241087e-10  14415.193      5191.9563      937667.33      3.1148459e-07  9.9670882e-09  3.015175e-07   12233850     
   2099000   4.5262651e-10  14415.189      5191.9617      937666.34      3.1148463e-07  9.9672261e-09  3.0151741e-07  12233842     
   2100000   4.5284215e-10  14415.171      5192.0338      937657.31      3.1148349e-07  9.966461e-09   3.0151703e-07  12233734     
   2101000   4.5305779e-10  14415.089      5192.1398      937638.41      3.1148278e-07  9.9674604e-09  3.0151532e-07  12233621     
   2102000   4.5327343e-10  14415.466      5192.5812      937632.37      3.114829e-07   9.9596923e-09  3.0152321e-07  12233776     
   2103000   4.5348907e-10  14415.47       5192.4871      937642.16      3.1148292e-07  9.9596362e-09  3.0152329e-07  12233784     
   2104000   4.5370471e-10  14415.454      5192.5469      937634.57      3.1148358e-07  9.9606244e-09  3.0152295e-07  12233834     
   2105000   4.5392035e-10  14415.482      5192.7988      937612.19      3.1148347e-07  9.959927e-09   3.0152354e-07  12233861     
   2106000   4.5413599e-10  14415.124      5192.4045      937615.49      3.1148292e-07  9.9668594e-09  3.0151606e-07  12233688     
   2107000   4.5435163e-10  14414.764      5192.2359      937595.91      3.1148248e-07  9.9739596e-09  3.0150852e-07  12233512     
   2108000   4.5456726e-10  14415.109      5192.6266      937591.76      3.1148118e-07  9.965433e-09   3.0151575e-07  12233564     
   2109000   4.547829e-10   14415.368      5192.9989      937580.66      3.1148147e-07  9.9603128e-09  3.0152116e-07  12233658     
   2110000   4.5499854e-10  14415.695      5193.3543      937578.07      3.1148172e-07  9.9537368e-09  3.0152799e-07  12233770     
   2111000   4.5521418e-10  14415.886      5193.5346      937579.4       3.1148188e-07  9.9498843e-09  3.0153199e-07  12233844     
   2112000   4.5542982e-10  14415.78       5193.524       937569.76      3.1148108e-07  9.9513027e-09  3.0152978e-07  12233742     
   2113000   4.5564546e-10  14415.741      5193.4569      937572.52      3.114813e-07   9.9523422e-09  3.0152896e-07  12233736     
   2114000   4.558611e-10   14415.555      5193.3718      937562.18      3.1148185e-07  9.9567952e-09  3.0152506e-07  12233704     
   2115000   4.5607674e-10  14415.382      5193.5069      937531.23      3.1148158e-07  9.9601194e-09  3.0152146e-07  12233642     
   2116000   4.5629238e-10  14415.442      5193.5084      937537.09      3.1148228e-07  9.9595776e-09  3.015227e-07   12233716     
   2117000   4.5650802e-10  14415.595      5193.5583      937547.55      3.1148294e-07  9.957046e-09   3.015259e-07   12233827     
   2118000   4.5672366e-10  14415.287      5193.496       937522.64      3.1148224e-07  9.9627917e-09  3.0151945e-07  12233669     
   2119000   4.569393e-10   14415.119      5193.3398      937521.33      3.1148227e-07  9.9663216e-09  3.0151595e-07  12233594     
   2120000   4.5715493e-10  14415.264      5193.5324      937516.7       3.1148201e-07  9.9630317e-09  3.0151898e-07  12233638     
   2121000   4.5737057e-10  14415.061      5193.3504      937514.37      3.1148167e-07  9.9669395e-09  3.0151473e-07  12233547     
   2122000   4.5758621e-10  14415.263      5193.6027      937509.59      3.1148222e-07  9.963256e-09   3.0151896e-07  12233642     
   2123000   4.5780185e-10  14415.622      5194.6581      937440.23      3.1148278e-07  9.9563098e-09  3.0152647e-07  12233796     
   2124000   4.5801749e-10  14416.145      5195.1529      937443.62      3.1148258e-07  9.9451671e-09  3.0153742e-07  12233988     
   2125000   4.5823313e-10  14415.642      5194.6799      937440.07      3.1148263e-07  9.9557456e-09  3.0152689e-07  12233800     
   2126000   4.5844877e-10  14415.433      5194.5197      937434.95      3.1148187e-07  9.9593634e-09  3.0152251e-07  12233684     
   2127000   4.5866441e-10  14415.505      5194.8292      937411.3       3.1148081e-07  9.9567801e-09  3.0152403e-07  12233645     
   2128000   4.5888005e-10  14415.753      5195.1879      937400.44      3.1148049e-07  9.9512805e-09  3.0152921e-07  12233724     
   2129000   4.5909569e-10  14415.786      5195.451       937377.44      3.1148051e-07  9.9506093e-09  3.015299e-07   12233733     
   2130000   4.5931133e-10  14415.482      5195.0794      937383.91      3.1148044e-07  9.9568988e-09  3.0152354e-07  12233581     
   2131000   4.5952696e-10  14415.762      5195.2876      937391.32      3.1148106e-07  9.9516718e-09  3.0152939e-07  12233680     
   2132000   4.597426e-10   14415.707      5195.3963      937374.9       3.1148113e-07  9.9528896e-09  3.0152824e-07  12233639     
   2133000   4.5995824e-10  14415.633      5195.4779      937359.32      3.1148052e-07  9.9538085e-09  3.0152671e-07  12233590     
   2134000   4.6017388e-10  14415.642      5195.7162      937336.36      3.1147981e-07  9.9529143e-09  3.0152689e-07  12233575     
   2135000   4.6038952e-10  14415.8        5195.9551      937328.41      3.1148003e-07  9.9498339e-09  3.0153019e-07  12233656     
   2136000   4.6060516e-10  14416.25       5196.7245      937296.92      3.1148049e-07  9.9408774e-09  3.0153961e-07  12233868     
   2137000   4.608208e-10   14415.48       5195.9047      937301.11      3.1147998e-07  9.9564818e-09  3.015235e-07   12233537     
   2138000   4.6103644e-10  14415.667      5196.1166      937298.75      3.114807e-07   9.953292e-09   3.015274e-07   12233668     
   2139000   4.6125208e-10  14415.546      5196.0707      937291.19      3.1148116e-07  9.9562684e-09  3.0152489e-07  12233642     
   2140000   4.6146772e-10  14415.892      5196.504       937282.73      3.1148047e-07  9.9483535e-09  3.0153211e-07  12233723     
   2141000   4.6168336e-10  14416.097      5196.7152      937282.39      3.1148053e-07  9.9441163e-09  3.0153641e-07  12233787     
   2142000   4.6189899e-10  14415.679      5196.3371      937277.9       3.1148057e-07  9.952918e-09   3.0152765e-07  12233621     
   2143000   4.6211463e-10  14415.522      5196.2817      937267.63      3.1148134e-07  9.9569575e-09  3.0152438e-07  12233606     
   2144000   4.6233027e-10  14415.985      5196.6264      937279.89      3.1148114e-07  9.9470844e-09  3.0153406e-07  12233783     
   2145000   4.6254591e-10  14415.831      5196.6733      937259.61      3.114812e-07   9.9503627e-09  3.0153083e-07  12233747     
   2146000   4.6276155e-10  14415.739      5196.6522      937252.45      3.1148111e-07  9.9521948e-09  3.0152892e-07  12233731     
   2147000   4.6297719e-10  14415.207      5196.5033      937213.54      3.114819e-07   9.9641179e-09  3.0151778e-07  12233571     
   2148000   4.6319283e-10  14415.633      5197.064       937200.47      3.1148177e-07  9.9550826e-09  3.0152669e-07  12233733     
   2149000   4.6340847e-10  14415.561      5197.0197      937197.69      3.1148198e-07  9.9567863e-09  3.015252e-07   12233707     
   2150000   4.6362411e-10  14416.034      5197.5906      937188.33      3.1148159e-07  9.9465093e-09  3.0153508e-07  12233860     
   2151000   4.6383975e-10  14415.786      5197.352       937187.13      3.1148225e-07  9.9523569e-09  3.0152989e-07  12233791     
   2152000   4.6405539e-10  14415.563      5197.2676      937173.06      3.1148148e-07  9.9562481e-09  3.0152523e-07  12233684     
   2153000   4.6427103e-10  14415.252      5197.0154      937166.89      3.1148068e-07  9.9619458e-09  3.0151874e-07  12233539     
   2154000   4.6448666e-10  14415.144      5196.8431      937173.19      3.1148078e-07  9.9643116e-09  3.0151647e-07  12233515     
   2155000   4.647023e-10   14415.453      5197.2864      937160.08      3.1148091e-07  9.9579736e-09  3.0152294e-07  12233648     
   2156000   4.6491794e-10  14415.09       5197.0356      937148.5       3.1148127e-07  9.9659165e-09  3.0151535e-07  12233524     
   2157000   4.6513358e-10  14415.274      5197.3809      937132.52      3.1148125e-07  9.96206e-09    3.0151919e-07  12233591     
   2158000   4.6534922e-10  14415.475      5197.7832      937112.51      3.1148169e-07  9.9583036e-09  3.0152339e-07  12233689     
   2159000   4.6556486e-10  14415.281      5197.716       937099.64      3.114818e-07   9.9624672e-09  3.0151933e-07  12233604     
   2160000   4.657805e-10   14415.893      5198.3686      937096.19      3.11482e-07    9.94987e-09    3.0153213e-07  12233851     
   2161000   4.6599614e-10  14415.619      5198.026       937102.81      3.1148142e-07  9.9550165e-09  3.0152641e-07  12233704     
   2162000   4.6621178e-10  14415.727      5198.3155      937084.79      3.1148098e-07  9.9523046e-09  3.0152867e-07  12233716     
   2163000   4.6642742e-10  14416.025      5198.7379      937072.59      3.1148202e-07  9.9471206e-09  3.015349e-07   12233893     
   2164000   4.6664306e-10  14415.778      5198.7366      937047.77      3.1148183e-07  9.9520915e-09  3.0152974e-07  12233790     
   2165000   4.6685869e-10  14415.876      5198.7851      937052.79      3.1148294e-07  9.9511639e-09  3.0153178e-07  12233891     
   2166000   4.6707433e-10  14415.657      5198.6764      937041.56      3.1148268e-07  9.9554756e-09  3.0152721e-07  12233797     
   2167000   4.6728997e-10  14415.726      5198.9244      937023.72      3.114827e-07   9.9540452e-09  3.0152865e-07  12233839     
   2168000   4.6750561e-10  14415.531      5199.0082      936995.63      3.114829e-07   9.9583273e-09  3.0152457e-07  12233762     
   2169000   4.6772125e-10  14415.576      5199.0536      936995.56      3.114834e-07   9.9579013e-09  3.015255e-07   12233811     
   2170000   4.6793689e-10  14415.694      5199.3167      936981.16      3.114817e-07   9.9537284e-09  3.0152797e-07  12233786     
   2171000   4.6815253e-10  14415.25       5198.9073      936977.26      3.1148146e-07  9.962778e-09   3.0151868e-07  12233613     
   2172000   4.6836817e-10  14415.419      5199.1672      936968.33      3.1148185e-07  9.9596335e-09  3.0152222e-07  12233697     
   2173000   4.6858381e-10  14415.725      5199.4966      936966.34      3.1148115e-07  9.9525234e-09  3.0152863e-07  12233777     
   2174000   4.6879945e-10  14415.448      5199.3953      936948.46      3.1148282e-07  9.9599882e-09  3.0152283e-07  12233758     
   2175000   4.6901509e-10  14415.509      5199.57        936937.11      3.1148302e-07  9.9589132e-09  3.015241e-07   12233785     
   2176000   4.6923073e-10  14415.714      5199.8643      936928.37      3.1148369e-07  9.9553019e-09  3.0152839e-07  12233909     
   2177000   4.6944636e-10  14415.366      5199.3919      936940.5       3.1148357e-07  9.9624523e-09  3.0152111e-07  12233780     
   2178000   4.69662e-10    14415.336      5199.6476      936911.85      3.1148348e-07  9.962992e-09   3.0152048e-07  12233781     
   2179000   4.6987764e-10  14415.336      5199.9308      936883.52      3.1148284e-07  9.962356e-09   3.0152049e-07  12233731     
   2180000   4.7009328e-10  14415.33       5200.0153      936874.42      3.1148246e-07  9.9621077e-09  3.0152035e-07  12233686     
   2181000   4.7030892e-10  14415.75       5200.5544      936862.93      3.1148274e-07  9.9535994e-09  3.0152914e-07  12233855     
   2182000   4.7052456e-10  14415.673      5200.5965      936850.98      3.1148312e-07  9.9555826e-09  3.0152754e-07  12233845     
   2183000   4.707402e-10   14415.812      5200.8805      936836.59      3.1148376e-07  9.9533214e-09  3.0153044e-07  12233947     
   2184000   4.7095584e-10  14415.764      5200.8703      936832.7       3.1148276e-07  9.9533347e-09  3.0152943e-07  12233890     
   2185000   4.7117148e-10  14415.356      5200.721       936806.49      3.1148263e-07  9.961715e-09   3.0152091e-07  12233743     
   2186000   4.7138712e-10  14415.194      5200.8154      936780.65      3.1148238e-07  9.9648545e-09  3.0151752e-07  12233669     
   2187000   4.7160276e-10  14415.014      5200.8085      936763.11      3.114815e-07   9.9677518e-09  3.0151375e-07  12233529     
   2188000   4.7181839e-10  14415.458      5201.4144      936747.33      3.1148062e-07  9.9575851e-09  3.0152303e-07  12233628     
   2189000   4.7203403e-10  14415.568      5201.9337      936706.46      3.1148115e-07  9.9558223e-09  3.0152533e-07  12233681     
   2190000   4.7224967e-10  14415.436      5201.8123      936705.34      3.1148095e-07  9.9583614e-09  3.0152259e-07  12233601     
   2191000   4.7246531e-10  14415.467      5201.9841      936691.25      3.1148131e-07  9.9580816e-09  3.0152323e-07  12233645     
   2192000   4.7268095e-10  14415.304      5201.9967      936673.45      3.1148188e-07  9.9620688e-09  3.0151981e-07  12233633     
   2193000   4.7289659e-10  14415.405      5202.1533      936668.03      3.1148184e-07  9.9599056e-09  3.0152193e-07  12233694     
   2194000   4.7311223e-10  14415.513      5202.3775      936656.46      3.1148287e-07  9.9586891e-09  3.0152418e-07  12233813     
   2195000   4.7332787e-10  14415.617      5202.6388      936640.87      3.1148329e-07  9.9569275e-09  3.0152637e-07  12233889     
   2196000   4.7354351e-10  14415.367      5202.4287      936636.64      3.1148325e-07  9.9621073e-09  3.0152114e-07  12233769     
   2197000   4.7375915e-10  14415.219      5202.2258      936641.92      3.1148238e-07  9.9643552e-09  3.0151803e-07  12233629     
   2198000   4.7397479e-10  14415.311      5202.3848      936635.32      3.1148239e-07  9.9624301e-09  3.0151996e-07  12233659     
   2199000   4.7419042e-10  14415.381      5202.5571      936625.2       3.1148246e-07  9.9610273e-09  3.0152143e-07  12233728     
   2200000   4.7440606e-10  14414.585      5201.8516      936615.29      3.1148236e-07  9.9775864e-09  3.0150477e-07  12233433     
   2201000   4.746217e-10   14415.105      5202.4676      936606.25      3.1148192e-07  9.9662583e-09  3.0151566e-07  12233605     
   2202000   4.7483734e-10  14415.264      5203.0202      936566.98      3.1148238e-07  9.9634045e-09  3.0151898e-07  12233669     
   2203000   4.7505298e-10  14415.289      5203.1441      936557.16      3.1148068e-07  9.961171e-09   3.0151951e-07  12233561     
   2204000   4.7526862e-10  14415.45       5203.3163      936556.19      3.1148093e-07  9.9580569e-09  3.0152288e-07  12233612     
   2205000   4.7548426e-10  14416.039      5203.944       936552.92      3.1148136e-07  9.9461646e-09  3.015352e-07   12233841     
   2206000   4.756999e-10   14415.923      5204.0323      936532.27      3.1148068e-07  9.9479273e-09  3.0153276e-07  12233742     
   2207000   4.7591554e-10  14415.658      5204.3493      936473.77      3.1148214e-07  9.9549271e-09  3.0152722e-07  12233736     
   2208000   4.7613118e-10  14415.754      5204.5851      936459.9       3.1148166e-07  9.9524246e-09  3.0152923e-07  12233771     
   2209000   4.7634682e-10  14415.61       5204.3811      936465.73      3.1148155e-07  9.9553409e-09  3.0152621e-07  12233724     
   2210000   4.7656246e-10  14415.846      5204.5341      936474.25      3.1148162e-07  9.950476e-09   3.0153114e-07  12233819     
   2211000   4.7677809e-10  14415.364      5204.235       936455.47      3.1148075e-07  9.9596918e-09  3.0152106e-07  12233583     
   2212000   4.7699373e-10  14415.394      5204.4389      936438.14      3.1148133e-07  9.9596239e-09  3.015217e-07   12233649     
   2213000   4.7720937e-10  14415.549      5204.768       936420.86      3.1148167e-07  9.956733e-09   3.0152494e-07  12233740     
   2214000   4.7742501e-10  14415.602      5204.8177      936421.29      3.1148264e-07  9.9565816e-09  3.0152606e-07  12233813     
   2215000   4.7764065e-10  14415.67       5204.9936      936410.49      3.1148217e-07  9.9547053e-09  3.0152747e-07  12233802     
   2216000   4.7785629e-10  14415.797      5205.2864      936394.09      3.1148245e-07  9.9523102e-09  3.0153014e-07  12233858     
   2217000   4.7807193e-10  14415.789      5205.3764      936384.19      3.1148194e-07  9.9519824e-09  3.0152996e-07  12233809     
   2218000   4.7828757e-10  14415.453      5205.3901      936348.9       3.114824e-07   9.9594606e-09  3.0152294e-07  12233723     
   2219000   4.7850321e-10  14415.087      5205.068       936344.11      3.114831e-07   9.9678221e-09  3.0151528e-07  12233649     
   2220000   4.7871885e-10  14415.196      5205.1237      936349.55      3.1148379e-07  9.9662373e-09  3.0151756e-07  12233777     
   2221000   4.7893449e-10  14414.843      5205.1268      936313.54      3.1148402e-07  9.9738516e-09  3.0151017e-07  12233694     
   2222000   4.7915012e-10  14414.546      5204.9668      936299.52      3.1148373e-07  9.9797691e-09  3.0150396e-07  12233566     
   2223000   4.7936576e-10  14414.695      5205.1455      936296.76      3.1148343e-07  9.9763476e-09  3.0150708e-07  12233578     
   2224000   4.795814e-10   14415.467      5205.8658      936302.66      3.1148315e-07  9.9599271e-09  3.0152322e-07  12233828     
   2225000   4.7979704e-10  14415.412      5205.7707      936306.65      3.1148235e-07  9.960271e-09   3.0152208e-07  12233738     
   2226000   4.8001268e-10  14415.143      5205.8417      936272.29      3.114825e-07   9.9660589e-09  3.0151644e-07  12233636     
   2227000   4.8022832e-10  14415.198      5206.2384      936238.24      3.1148298e-07  9.9653675e-09  3.0151761e-07  12233690     
   2228000   4.8044396e-10  14415.276      5206.4611      936223.73      3.1148327e-07  9.9640491e-09  3.0151922e-07  12233749     
   2229000   4.806596e-10   14415.247      5206.4128      936225.72      3.1148364e-07  9.9650068e-09  3.0151863e-07  12233757     
   2230000   4.8087524e-10  14415.477      5206.8995      936200.24      3.1148465e-07  9.9612135e-09  3.0152344e-07  12233908     
   2231000   4.8109088e-10  14415.521      5207.0959      936185         3.1148419e-07  9.959839e-09   3.0152435e-07  12233914     
   2232000   4.8130652e-10  14415.414      5206.8555      936198.24      3.1148414e-07  9.962025e-09   3.0152212e-07  12233869     
   2233000   4.8152215e-10  14415.067      5206.5729      936191.49      3.1148289e-07  9.9680221e-09  3.0151487e-07  12233639     
   2234000   4.8173779e-10  14415.151      5206.5989      936197.39      3.1148172e-07  9.9650949e-09  3.0151663e-07  12233592     
   2235000   4.8195343e-10  14415.169      5206.804       936178.59      3.1148322e-07  9.9662397e-09  3.0151698e-07  12233685     
   2236000   4.8216907e-10  14415.415      5207.0616      936177.68      3.1148301e-07  9.9608785e-09  3.0152213e-07  12233770     
   2237000   4.8238471e-10  14415.278      5207.1168      936158.31      3.1148274e-07  9.9634708e-09  3.0151926e-07  12233703     
   2238000   4.8260035e-10  14415.277      5207.3175      936138.16      3.1148197e-07  9.9627129e-09  3.0151925e-07  12233668     
   2239000   4.8281599e-10  14415.2        5207.2157      936140.54      3.1148324e-07  9.9655988e-09  3.0151764e-07  12233711     
   2240000   4.8303163e-10  14415.115      5207.0946      936144.12      3.1148269e-07  9.9668189e-09  3.0151587e-07  12233645     
   2241000   4.8324727e-10  14415.201      5207.2932      936132.92      3.1148223e-07  9.9645623e-09  3.0151767e-07  12233668     
   2242000   4.8346291e-10  14415          5207.2768      936114.25      3.1148231e-07  9.9688433e-09  3.0151346e-07  12233617     
   2243000   4.8367855e-10  14414.834      5207.1707      936108.07      3.1148276e-07  9.9727738e-09  3.0150999e-07  12233587     
   2244000   4.8389419e-10  14415.073      5207.5085      936098.38      3.1148301e-07  9.9680277e-09  3.0151498e-07  12233689     
   2245000   4.8410982e-10  14415.215      5207.696       936094         3.1148215e-07  9.9641907e-09  3.0151796e-07  12233675     
   2246000   4.8432546e-10  14415.624      5208.1951      936085.42      3.1148275e-07  9.9562398e-09  3.0152651e-07  12233865     
   2247000   4.845411e-10   14415.331      5208.023       936072.97      3.114821e-07   9.9617278e-09  3.0152038e-07  12233705     
   2248000   4.8475674e-10  14415.342      5208.0365      936072.75      3.1148294e-07  9.9623296e-09  3.0152061e-07  12233753     
   2249000   4.8497238e-10  14415.645      5208.5141      936055.59      3.1148244e-07  9.9554926e-09  3.0152695e-07  12233839     
   2250000   4.8518802e-10  14415.567      5208.2853      936070.63      3.1148269e-07  9.9573646e-09  3.0152532e-07  12233833     
   2251000   4.8540366e-10  14415.281      5208.0017      936070.11      3.1148322e-07  9.9638795e-09  3.0151934e-07  12233792     
   2252000   4.856193e-10   14414.364      5207.4109      936036.51      3.1148418e-07  9.9840281e-09  3.0150016e-07  12233528     
   2253000   4.8583494e-10  14414.409      5207.4684      936035.25      3.1148402e-07  9.9829377e-09  3.0150109e-07  12233560     
   2254000   4.8605058e-10  14414.721      5207.8188      936031.73      3.1148443e-07  9.9768103e-09  3.0150762e-07  12233714     
   2255000   4.8626622e-10  14414.556      5207.7768      936019.29      3.1148379e-07  9.9796214e-09  3.0150417e-07  12233596     
   2256000   4.8648185e-10  14414.818      5207.9982      936023.63      3.1148242e-07  9.9727647e-09  3.0150965e-07  12233595     
   2257000   4.8669749e-10  14415.04       5208.3774      936008.06      3.1148262e-07  9.9683298e-09  3.0151429e-07  12233680     
   2258000   4.8691313e-10  14414.948      5208.3176      936004.76      3.1148341e-07  9.9710497e-09  3.0151236e-07  12233711     
   2259000   4.8712877e-10  14414.966      5208.3737      936000.97      3.1148252e-07  9.9697792e-09  3.0151274e-07  12233659     
   2260000   4.8734441e-10  14415.221      5208.6103      936003.12      3.1148259e-07  9.9645009e-09  3.0151809e-07  12233721     
   2261000   4.8756005e-10  14415.526      5208.9663      935998.26      3.1148271e-07  9.9582494e-09  3.0152446e-07  12233814     
   2262000   4.8777569e-10  14415.674      5209.0812      936001.73      3.1148317e-07  9.9556196e-09  3.0152755e-07  12233888     
   2263000   4.8799133e-10  14415.667      5208.9696      936012.17      3.1148271e-07  9.955308e-09   3.015274e-07   12233840     
   2264000   4.8820697e-10  14415.787      5209.2696      935994.33      3.1148294e-07  9.9530157e-09  3.0152992e-07  12233883     
   2265000   4.8842261e-10  14415.768      5209.2144      935997.89      3.114833e-07   9.9537852e-09  3.0152952e-07  12233897     
   2266000   4.8863825e-10  14415.437      5209.1279      935973.09      3.1148344e-07  9.9608424e-09  3.0152259e-07  12233780     
   2267000   4.8885388e-10  14415.543      5209.424       935954.22      3.1148247e-07  9.9576478e-09  3.0152482e-07  12233771     
   2268000   4.8906952e-10  14415.237      5209.2708      935938.57      3.1148159e-07  9.9631801e-09  3.0151841e-07  12233608     
   2269000   4.8928516e-10  14415.215      5209.4177      935921.7       3.1148265e-07  9.9646899e-09  3.0151796e-07  12233685     
   2270000   4.895008e-10   14415.358      5209.4437      935933.55      3.1148243e-07  9.9614766e-09  3.0152095e-07  12233731     
   2271000   4.8971644e-10  14415.539      5209.6959      935926.58      3.114829e-07   9.9581625e-09  3.0152474e-07  12233822     
   2272000   4.8993208e-10  14415.436      5209.7554      935910.24      3.1148262e-07  9.9600349e-09  3.0152259e-07  12233766     
   2273000   4.9014772e-10  14414.961      5209.512       935886.5       3.114826e-07   9.969965e-09   3.0151263e-07  12233583     
   2274000   4.9036336e-10  14415.218      5209.8338      935880.34      3.1148193e-07  9.9639093e-09  3.0151802e-07  12233660     
   2275000   4.90579e-10    14415.161      5209.9912      935858.75      3.1148317e-07  9.966357e-09   3.0151682e-07  12233723     
   2276000   4.9079464e-10  14415.225      5210.3415      935830.22      3.1148358e-07  9.965414e-09   3.0151817e-07  12233759     
   2277000   4.9101028e-10  14415.266      5210.3122      935837.23      3.114828e-07   9.9637851e-09  3.0151901e-07  12233682     
   2278000   4.9122592e-10  14415.406      5210.5309      935829.5       3.1148196e-07  9.9600177e-09  3.0152194e-07  12233648     
   2279000   4.9144155e-10  14416.16       5211.2921      935829.54      3.114815e-07   9.9437897e-09  3.0153771e-07  12233905     
   2280000   4.9165719e-10  14416.228      5211.5058      935815.04      3.1148142e-07  9.9422768e-09  3.0153914e-07  12233917     
   2281000   4.9187283e-10  14415.921      5211.1574      935818.9       3.1148088e-07  9.9481577e-09  3.0153273e-07  12233766     
   2282000   4.9208847e-10  14415.558      5210.9042      935807.57      3.1148036e-07  9.9552219e-09  3.0152514e-07  12233590     
   2283000   4.9230411e-10  14415.624      5210.9889      935805.7       3.1147988e-07  9.9533797e-09  3.015265e-07   12233588     
   2284000   4.9251975e-10  14415.722      5211.2823      935786.22      3.1148023e-07  9.951679e-09   3.0152855e-07  12233637     
   2285000   4.9273539e-10  14415.635      5211.3117      935774.54      3.114814e-07   9.9546598e-09  3.0152674e-07  12233672     
   2286000   4.9295103e-10  14415.793      5212.072       935714.43      3.1148143e-07  9.951375e-09   3.0153005e-07  12233776     
   2287000   4.9316667e-10  14415.263      5211.4469      935723.36      3.1148185e-07  9.9629017e-09  3.0151895e-07  12233626     
   2288000   4.9338231e-10  14414.949      5211.1164      935724.77      3.1148169e-07  9.9692914e-09  3.015124e-07   12233536     
   2289000   4.9359795e-10  14414.604      5211.0394      935697.54      3.1148269e-07  9.9775155e-09  3.0150517e-07  12233480     
   2290000   4.9381358e-10  14415.243      5211.6512      935700.95      3.1148396e-07  9.9654136e-09  3.0151855e-07  12233809     
   2291000   4.9402922e-10  14415.265      5211.8467      935683.6       3.1148398e-07  9.9649764e-09  3.0151901e-07  12233788     
   2292000   4.9424486e-10  14415.597      5212.2813      935673.63      3.1148327e-07  9.957329e-09   3.0152594e-07  12233852     
   2293000   4.944605e-10   14415.731      5212.1711      935698.23      3.1148375e-07  9.955001e-09   3.0152875e-07  12233918     
   2294000   4.9467614e-10  14415.736      5212.326       935683.2       3.114845e-07   9.9556509e-09  3.0152885e-07  12233980     
   2295000   4.9489178e-10  14415.215      5211.8221      935680.94      3.1148454e-07  9.9665896e-09  3.0151795e-07  12233807     
   2296000   4.9510742e-10  14414.796      5211.7205      935648.75      3.1148402e-07  9.9748347e-09  3.0150918e-07  12233627     
   2297000   4.9532306e-10  14415.371      5212.3116      935647.77      3.1148324e-07  9.9620152e-09  3.0152122e-07  12233788     
   2298000   4.955387e-10   14415.649      5212.7413      935632.81      3.1148263e-07  9.9555998e-09  3.0152703e-07  12233812     
   2299000   4.9575434e-10  14415.771      5212.877       935631.55      3.1148227e-07  9.9526908e-09  3.0152958e-07  12233785     
   2300000   4.9596998e-10  14416.209      5213.3061      935632.96      3.1148193e-07  9.9431797e-09  3.0153875e-07  12233895     
   2301000   4.9618562e-10  14416.614      5213.7727      935627.14      3.1148091e-07  9.9337014e-09  3.0154721e-07  12233989     
   2302000   4.9640125e-10  14416.028      5213.1045      935634.76      3.1148059e-07  9.9456425e-09  3.0153495e-07  12233765     
   2303000   4.9661689e-10  14415.655      5212.7816      935629.42      3.1147975e-07  9.9525941e-09  3.0152716e-07  12233602     
   2304000   4.9683253e-10  14415.713      5212.9203      935621.36      3.1148047e-07  9.952111e-09   3.0152836e-07  12233707     
   2305000   4.9704817e-10  14415.362      5212.5706      935620.96      3.1148049e-07  9.9594496e-09  3.0152104e-07  12233596     
   2306000   4.9726381e-10  14415.188      5212.44        935616.37      3.1148082e-07  9.9634359e-09  3.0151738e-07  12233563     
   2307000   4.9747945e-10  14415.269      5212.6269      935605.85      3.1148116e-07  9.9620837e-09  3.0151908e-07  12233623     
   2308000   4.9769509e-10  14415.209      5212.6416      935598.32      3.1148202e-07  9.9641909e-09  3.0151782e-07  12233657     
   2309000   4.9791073e-10  14415.464      5212.9493      935593.34      3.114831e-07   9.9599315e-09  3.0152317e-07  12233830     
   2310000   4.9812637e-10  14415.185      5212.7828      935581.74      3.1148319e-07  9.9658675e-09  3.0151732e-07  12233736     
   2311000   4.9834201e-10  14414.952      5212.4126      935595.25      3.1148245e-07  9.969999e-09   3.0151245e-07  12233594     
   2312000   4.9855765e-10  14415.03       5212.5387      935590.53      3.1148276e-07  9.9686797e-09  3.0151408e-07  12233625     
   2313000   4.9877328e-10  14415.184      5212.9972      935560.23      3.1148401e-07  9.9667044e-09  3.0151731e-07  12233748     
   2314000   4.9898892e-10  14415.395      5213.1937      935561.91      3.1148364e-07  9.9619116e-09  3.0152173e-07  12233804     
   2315000   4.9920456e-10  14415.685      5213.826       935527.88      3.114833e-07   9.955523e-09   3.0152778e-07  12233903     
   2316000   4.994202e-10   14415.235      5213.283       935536.81      3.114829e-07   9.9645141e-09  3.0151838e-07  12233713     
   2317000   4.9963584e-10  14414.923      5213.0655      935526.96      3.1148324e-07  9.9714023e-09  3.0151184e-07  12233618     
   2318000   4.9985148e-10  14415.117      5213.2489      935528.25      3.1148339e-07  9.9674889e-09  3.015159e-07   12233708     
   2319000   5.0006712e-10  14415.041      5213.3761      935507.84      3.1148329e-07  9.9689714e-09  3.0151432e-07  12233682     
   2320000   5.0028276e-10  14415.255      5213.7604      935490.98      3.1148192e-07  9.96313e-09    3.0151879e-07  12233685     
   2321000   5.004984e-10   14415.365      5213.8785      935490.29      3.1148223e-07  9.9611369e-09  3.0152109e-07  12233731     
   2322000   5.0071404e-10  14414.917      5213.5966      935473.24      3.1148374e-07  9.9720108e-09  3.0151172e-07  12233629     
   2323000   5.0092968e-10  14415.155      5214.1385      935443.06      3.1148273e-07  9.9660225e-09  3.015167e-07   12233654     
   2324000   5.0114531e-10  14415.424      5214.4393      935440.13      3.1148312e-07  9.9607885e-09  3.0152233e-07  12233775     
   2325000   5.0136095e-10  14415.293      5214.4089      935429.91      3.1148233e-07  9.9627439e-09  3.0151958e-07  12233688     
   2326000   5.0157659e-10  14415.291      5214.4621      935424.4       3.1148283e-07  9.9632837e-09  3.0151954e-07  12233740     
   2327000   5.0179223e-10  14415.222      5214.4721      935416.43      3.1148235e-07  9.964251e-09   3.015181e-07   12233696     
   2328000   5.0200787e-10  14415.284      5214.6024      935409.61      3.1148217e-07  9.9627814e-09  3.0151939e-07  12233704     
   2329000   5.0222351e-10  14415.141      5214.566       935398.8       3.1148162e-07  9.9652214e-09  3.015164e-07   12233590     
   2330000   5.0243915e-10  14415.319      5214.8814      935385.24      3.1148158e-07  9.9614535e-09  3.0152013e-07  12233642     
   2331000   5.0265479e-10  14415.427      5215.1797      935366.29      3.1148277e-07  9.9603921e-09  3.0152238e-07  12233751     
   2332000   5.0287043e-10  14415.191      5215.1309      935347.38      3.1148348e-07  9.9660167e-09  3.0151746e-07  12233687     
   2333000   5.0308607e-10  14415.508      5215.3897      935353.53      3.1148367e-07  9.9595772e-09  3.0152409e-07  12233825     
   2334000   5.0330171e-10  14415.193      5215.1482      935345.86      3.1148342e-07  9.9659178e-09  3.015175e-07   12233702     
   2335000   5.0351735e-10  14415.348      5215.2819      935348.09      3.1148335e-07  9.9626132e-09  3.0152074e-07  12233782     
   2336000   5.0373298e-10  14415.147      5215.0955      935346.47      3.114838e-07   9.9672567e-09  3.0151654e-07  12233729     
   2337000   5.0394862e-10  14414.911      5215.0475      935327.36      3.114838e-07   9.9722041e-09  3.0151159e-07  12233631     
   2338000   5.0416426e-10  14415.348      5215.6293      935313.34      3.1148333e-07  9.9625849e-09  3.0152074e-07  12233774     
   2339000   5.043799e-10   14415.432      5215.9619      935288.48      3.1148333e-07  9.9608432e-09  3.0152248e-07  12233790     
   2340000   5.0459554e-10  14415.739      5216.1641      935299.34      3.1148433e-07  9.9554157e-09  3.0152892e-07  12233954     
   2341000   5.0481118e-10  14415.527      5216.1494      935279.36      3.1148455e-07  9.9600711e-09  3.0152448e-07  12233909     
   2342000   5.0502682e-10  14415.194      5215.9732      935263.31      3.1148359e-07  9.9660806e-09  3.0151751e-07  12233747     
   2343000   5.0524246e-10  14415.348      5216.1523      935260.97      3.1148412e-07  9.9633806e-09  3.0152074e-07  12233823     
   2344000   5.054581e-10   14415.275      5216.1399      935254.84      3.1148331e-07  9.9641008e-09  3.0151921e-07  12233721     
   2345000   5.0567374e-10  14415.246      5216.3125      935234.66      3.1148254e-07  9.9639296e-09  3.0151861e-07  12233648     
   2346000   5.0588938e-10  14415.624      5216.563       935247.78      3.114822e-07   9.9556905e-09  3.0152651e-07  12233766     
   2347000   5.0610501e-10  14415.371      5216.4773      935230.73      3.1148215e-07  9.9609419e-09  3.0152121e-07  12233674     
   2348000   5.0632065e-10  14415.387      5216.6992      935210.15      3.114815e-07   9.9599464e-09  3.0152155e-07  12233652     
   2349000   5.0653629e-10  14415.277      5216.6011      935208.9       3.1148143e-07  9.9621747e-09  3.0151926e-07  12233601     
   2350000   5.0675193e-10  14415.643      5217.0227      935203.67      3.114809e-07   9.9539934e-09  3.0152691e-07  12233698     
   2351000   5.0696757e-10  14415.952      5217.207       935216.48      3.114812e-07   9.9478259e-09  3.0153337e-07  12233818     
   2352000   5.0718321e-10  14415.644      5217.1342      935192.57      3.1148154e-07  9.9546221e-09  3.0152692e-07  12233713     
   2353000   5.0739885e-10  14415.219      5216.9383      935169.28      3.1148144e-07  9.9633929e-09  3.0151804e-07  12233556     
   2354000   5.0761449e-10  14415.397      5217.2278      935158.32      3.11481e-07    9.9592247e-09  3.0152177e-07  12233598     
   2355000   5.0783013e-10  14415.687      5217.4924      935161.06      3.1148072e-07  9.9529046e-09  3.0152782e-07  12233678     
   2356000   5.0804577e-10  14415.777      5217.8022      935139.24      3.114805e-07   9.950777e-09   3.0152972e-07  12233693     
   2357000   5.0826141e-10  14415.97       5218.2013      935118.74      3.1148153e-07  9.9477815e-09  3.0153374e-07  12233836     
   2358000   5.0847704e-10  14415.816      5218.1029      935113.06      3.1148172e-07  9.9511847e-09  3.0153053e-07  12233808     
   2359000   5.0869268e-10  14415.568      5217.8495      935113.3       3.1148096e-07  9.9556306e-09  3.0152533e-07  12233682     
   2360000   5.0890832e-10  14415.7        5218.0685      935104.71      3.1148021e-07  9.9521234e-09  3.0152809e-07  12233689     
   2361000   5.0912396e-10  14415.326      5217.8437      935089.49      3.1148108e-07  9.9607919e-09  3.0152029e-07  12233580     
   2362000   5.093396e-10   14415.511      5218.3054      935061.96      3.114826e-07   9.9584442e-09  3.0152415e-07  12233716     
   2363000   5.0955524e-10  14415.977      5218.7425      935065.27      3.1148197e-07  9.9480823e-09  3.0153389e-07  12233835     
   2364000   5.0977088e-10  14416.004      5219.0009      935042.12      3.1148208e-07  9.9476289e-09  3.0153445e-07  12233866     
   2365000   5.0998652e-10  14415.34       5218.3832      935036.82      3.1148258e-07  9.9620205e-09  3.0152056e-07  12233678     
   2366000   5.1020216e-10  14415.405      5218.4851      935033.18      3.1148323e-07  9.9613084e-09  3.0152192e-07  12233772     
   2367000   5.104178e-10   14415.77       5218.7554      935043.04      3.1148308e-07  9.9535211e-09  3.0152956e-07  12233927     
   2368000   5.1063344e-10  14415.476      5218.5263      935036.27      3.1148297e-07  9.9595527e-09  3.0152341e-07  12233806     
   2369000   5.1084908e-10  14415.257      5218.2905      935037.74      3.1148297e-07  9.9641379e-09  3.0151883e-07  12233736     
   2370000   5.1106471e-10  14414.867      5218.0736      935020.07      3.1148201e-07  9.9713288e-09  3.0151068e-07  12233542     
   2371000   5.1128035e-10  14415.248      5218.4828      935017.59      3.1148316e-07  9.9645191e-09  3.0151865e-07  12233775     
   2372000   5.1149599e-10  14415.373      5218.709       935007.6       3.1148366e-07  9.9623903e-09  3.0152127e-07  12233864     
   2373000   5.1171163e-10  14415.284      5219.0279      934966.64      3.1148179e-07  9.9623991e-09  3.0151939e-07  12233728     
   2374000   5.1192727e-10  14415.307      5219.0634      934965.39      3.1148216e-07  9.9622944e-09  3.0151987e-07  12233727     
   2375000   5.1214291e-10  14415.275      5219.193       934949.28      3.1148301e-07  9.9637925e-09  3.0151922e-07  12233708     
   2376000   5.1235855e-10  14415.578      5219.4632      934952.78      3.1148123e-07  9.9556875e-09  3.0152554e-07  12233679     
   2377000   5.1257419e-10  14415.741      5219.7841      934937.19      3.1148107e-07  9.9521044e-09  3.0152896e-07  12233729     
   2378000   5.1278983e-10  14415.559      5219.7321      934924         3.1148278e-07  9.9576207e-09  3.0152516e-07  12233758     
   2379000   5.1300547e-10  14415.904      5220.0729      934924.79      3.1148265e-07  9.9502737e-09  3.0153238e-07  12233897     
   2380000   5.1322111e-10  14415.704      5220.0139      934910.42      3.1148323e-07  9.955047e-09   3.0152818e-07  12233864     
   2381000   5.1343674e-10  14415.29       5219.6698      934903         3.1148292e-07  9.9634007e-09  3.0151952e-07  12233699     
   2382000   5.1365238e-10  14415.285      5219.9045      934879.02      3.1148333e-07  9.963908e-09   3.0151942e-07  12233734     
   2383000   5.1386802e-10  14415.585      5220.2953      934870.2       3.1148314e-07  9.9574541e-09  3.0152569e-07  12233828     
   2384000   5.1408366e-10  14415.666      5220.3559      934872.4       3.1148252e-07  9.9551212e-09  3.015274e-07   12233794     
   2385000   5.142993e-10   14415.898      5220.6572      934865.62      3.1148248e-07  9.9502453e-09  3.0153224e-07  12233865     
   2386000   5.1451494e-10  14415.513      5220.4162      934850.81      3.1148227e-07  9.958087e-09   3.0152418e-07  12233701     
   2387000   5.1473058e-10  14415.505      5220.3483      934856.88      3.114819e-07   9.9578694e-09  3.0152403e-07  12233699     
   2388000   5.1494622e-10  14415.522      5220.5529      934838.08      3.1148207e-07  9.9576918e-09  3.0152438e-07  12233749     
   2389000   5.1516186e-10  14415.433      5220.5542      934828.99      3.1148208e-07  9.9595571e-09  3.0152253e-07  12233731     
   2390000   5.153775e-10   14415.327      5220.4723      934826.39      3.1148301e-07  9.9627154e-09  3.0152029e-07  12233762     
   2391000   5.1559314e-10  14414.949      5220.2416      934811.35      3.1148423e-07  9.9718256e-09  3.015124e-07   12233718     
   2392000   5.1580877e-10  14415.135      5220.4611      934808.14      3.1148465e-07  9.9683718e-09  3.0151628e-07  12233830     
   2393000   5.1602441e-10  14415.199      5220.492       934811.48      3.1148439e-07  9.9667767e-09  3.0151761e-07  12233815     
   2394000   5.1624005e-10  14415.047      5220.4121      934804.16      3.1148522e-07  9.9707807e-09  3.0151444e-07  12233801     
   2395000   5.1645569e-10  14415.36       5220.7358      934803.35      3.1148411e-07  9.9631245e-09  3.0152098e-07  12233868     
   2396000   5.1667133e-10  14415.539      5220.9946      934795.56      3.1148422e-07  9.9594911e-09  3.0152473e-07  12233928     
   2397000   5.1688697e-10  14415.725      5221.2858      934785.23      3.1148308e-07  9.9544615e-09  3.0152862e-07  12233914     
   2398000   5.1710261e-10  14415.421      5221.0212      934781.01      3.1148293e-07  9.9606577e-09  3.0152227e-07  12233766     
   2399000   5.1731825e-10  14415.557      5221.3193      934764.85      3.1148313e-07  9.9580303e-09  3.015251e-07   12233821     
   2400000   5.1753389e-10  14415.838      5221.6506      934760.12      3.1148192e-07  9.9509389e-09  3.0153098e-07  12233855     
   2401000   5.1774953e-10  14415.816      5221.576       934765.41      3.1148125e-07  9.9507231e-09  3.0153053e-07  12233792     
   2402000   5.1796517e-10  14415.683      5221.4377      934765.79      3.1148108e-07  9.9533379e-09  3.0152775e-07  12233702     
   2403000   5.1818081e-10  14415.821      5221.7047      934752.98      3.1148129e-07  9.9506654e-09  3.0153063e-07  12233768     
   2404000   5.1839644e-10  14415.627      5221.5569      934748.22      3.1148171e-07  9.9551337e-09  3.0152658e-07  12233713     
   2405000   5.1861208e-10  14415.856      5221.8223      934744.72      3.1148163e-07  9.9502792e-09  3.0153135e-07  12233800     
   2406000   5.1882772e-10  14415.623      5221.697       934733.72      3.114815e-07   9.955019e-09   3.0152648e-07  12233712     
   2407000   5.1904336e-10  14415.444      5221.4971      934735.69      3.1148188e-07  9.9591272e-09  3.0152275e-07  12233690     
   2408000   5.19259e-10    14414.974      5221.4129      934696.62      3.1148219e-07  9.9692634e-09  3.0151292e-07  12233543     
   2409000   5.1947464e-10  14415.386      5221.8348      934695.99      3.1148312e-07  9.9615959e-09  3.0152153e-07  12233771     
   2410000   5.1969028e-10  14415.292      5221.832       934686.83      3.1148298e-07  9.9634024e-09  3.0151958e-07  12233740     
   2411000   5.1990592e-10  14415.351      5221.7778      934698.19      3.114822e-07   9.9613956e-09  3.015208e-07   12233718     
   2412000   5.2012156e-10  14415.33       5221.895       934684.34      3.1148266e-07  9.9622936e-09  3.0152037e-07  12233714     
   2413000   5.203372e-10   14415.242      5221.9925      934665.66      3.1148276e-07  9.9642432e-09  3.0151852e-07  12233684     
   2414000   5.2055284e-10  14415.207      5222.0865      934652.7       3.1148367e-07  9.9658867e-09  3.0151778e-07  12233748     
   2415000   5.2076847e-10  14415.009      5221.9068      934650.7       3.1148413e-07  9.9704761e-09  3.0151365e-07  12233726     
   2416000   5.2098411e-10  14415.094      5222.1359      934636.32      3.1148496e-07  9.9695431e-09  3.0151542e-07  12233852     
   2417000   5.2119975e-10  14414.611      5221.7571      934625.48      3.1148528e-07  9.9799467e-09  3.0150533e-07  12233701     
   2418000   5.2141539e-10  14414.466      5221.7964      934606.88      3.1148552e-07  9.9832216e-09  3.015023e-07   12233684     
   2419000   5.2163103e-10  14414.605      5222.1971      934580.76      3.1148551e-07  9.9803144e-09  3.0150519e-07  12233738     
   2420000   5.2184667e-10  14414.518      5222.5445      934537.17      3.1148563e-07  9.9822645e-09  3.0150337e-07  12233692     
   2421000   5.2206231e-10  14414.875      5222.9835      934529.39      3.1148519e-07  9.974343e-09   3.0151085e-07  12233792     
   2422000   5.2227795e-10  14415.129      5223.6301      934490.3       3.114858e-07   9.9696475e-09  3.0151615e-07  12233923     
   2423000   5.2249359e-10  14414.579      5223.3644      934461.32      3.1148437e-07  9.979715e-09   3.0150465e-07  12233634     
   2424000   5.2270923e-10  14414.99       5223.8391      934455.33      3.1148439e-07  9.9711404e-09  3.0151325e-07  12233799     
   2425000   5.2292487e-10  14415.147      5224.1966      934435.39      3.1148439e-07  9.9678671e-09  3.0151652e-07  12233852     
   2426000   5.2314051e-10  14415.206      5224.2343      934437.57      3.1148415e-07  9.9663916e-09  3.0151776e-07  12233864     
   2427000   5.2335614e-10  14415.351      5224.4503      934430.63      3.1148516e-07  9.9643623e-09  3.0152079e-07  12233969     
   2428000   5.2357178e-10  14415.006      5224.2526      934415.62      3.1148543e-07  9.9718346e-09  3.0151359e-07  12233821     
   2429000   5.2378742e-10  14414.989      5224.2802      934411.1       3.1148548e-07  9.9722456e-09  3.0151323e-07  12233807     
   2430000   5.2400306e-10  14415.217      5224.5678      934405.37      3.1148445e-07  9.9664517e-09  3.01518e-07    12233842     
   2431000   5.242187e-10   14415.266      5224.6626      934400.86      3.1148404e-07  9.9650113e-09  3.0151903e-07  12233830     
   2432000   5.2443434e-10  14415.578      5225.0462      934393.99      3.1148394e-07  9.9583829e-09  3.0152555e-07  12233924     
   2433000   5.2464998e-10  14415.377      5224.954       934382.89      3.1148463e-07  9.9632799e-09  3.0152135e-07  12233878     
   2434000   5.2486562e-10  14415.414      5225.063       934375.66      3.1148442e-07  9.9623142e-09  3.0152211e-07  12233878     
   2435000   5.2508126e-10  14415.667      5226.1481      934292.69      3.1148392e-07  9.9564998e-09  3.0152742e-07  12233948     
   2436000   5.252969e-10   14415.591      5226.1562      934284.13      3.1148301e-07  9.9572012e-09  3.0152581e-07  12233851     
   2437000   5.2551254e-10  14415.427      5225.9522      934287.96      3.1148202e-07  9.9596369e-09  3.0152238e-07  12233701     
   2438000   5.2572817e-10  14415.442      5226.0604      934278.69      3.1148141e-07  9.9587072e-09  3.015227e-07   12233654     
   2439000   5.2594381e-10  14415.515      5226.3397      934258.16      3.1148179e-07  9.9575515e-09  3.0152424e-07  12233714     
   2440000   5.2615945e-10  14415.518      5226.4604      934246.34      3.1148254e-07  9.9582484e-09  3.0152429e-07  12233764     
   2441000   5.2637509e-10  14415.602      5226.5978      934241.12      3.1148292e-07  9.9568637e-09  3.0152606e-07  12233819     
   2442000   5.2659073e-10  14415.398      5226.5184      934228.41      3.1148225e-07  9.9604666e-09  3.0152179e-07  12233701     
   2443000   5.2680637e-10  14415.599      5226.7713      934223.42      3.1148306e-07  9.9570666e-09  3.0152599e-07  12233830     
   2444000   5.2702201e-10  14415.5        5226.7145      934219.11      3.1148316e-07  9.9592409e-09  3.0152392e-07  12233794     
   2445000   5.2723765e-10  14415.684      5226.881       934221.04      3.1148316e-07  9.9553905e-09  3.0152777e-07  12233864     
   2446000   5.2745329e-10  14415.679      5227.005       934208.06      3.1148426e-07  9.9566013e-09  3.0152765e-07  12233940     
   2447000   5.2766893e-10  14415.196      5226.5544      934204.38      3.1148302e-07  9.9654636e-09  3.0151756e-07  12233701     
   2448000   5.2788457e-10  14415.405      5226.7217      934208.77      3.1148314e-07  9.9612056e-09  3.0152193e-07  12233797     
   2449000   5.281002e-10   14415.138      5226.4652      934207.46      3.1148218e-07  9.9658261e-09  3.0151635e-07  12233639     
   2450000   5.2831584e-10  14414.669      5226.2384      934182.68      3.1148254e-07  9.9760176e-09  3.0150653e-07  12233485     
   2451000   5.2853148e-10  14415.099      5226.8049      934169.47      3.1148207e-07  9.9665434e-09  3.0151553e-07  12233633     
   2452000   5.2874712e-10  14415.373      5227.1723      934160.37      3.1148234e-07  9.9610923e-09  3.0152125e-07  12233745     
   2453000   5.2896276e-10  14415.33       5227.3684      934136.42      3.1148268e-07  9.9623244e-09  3.0152036e-07  12233739     
   2454000   5.291784e-10   14415.441      5227.4319      934141.32      3.114822e-07   9.9595144e-09  3.0152269e-07  12233753     
   2455000   5.2939404e-10  14415.462      5228.3151      934055.02      3.1148202e-07  9.9588968e-09  3.0152312e-07  12233731     
   2456000   5.2960968e-10  14415.489      5228.3002      934059.2       3.114822e-07   9.9585171e-09  3.0152368e-07  12233725     
   2457000   5.2982532e-10  14415.701      5228.5622      934054.46      3.114816e-07   9.9534721e-09  3.0152812e-07  12233744     
   2458000   5.3004096e-10  14415.868      5228.7658      934050.91      3.1148091e-07  9.9493067e-09  3.0153161e-07  12233750     
   2459000   5.302566e-10   14415.556      5228.5223      934043.81      3.1148137e-07  9.9562777e-09  3.0152509e-07  12233651     
   2460000   5.3047224e-10  14415.538      5228.63        934031.14      3.1148175e-07  9.9570433e-09  3.015247e-07   12233679     
   2461000   5.3068787e-10  14415.334      5228.5282      934020.8       3.1148107e-07  9.9606163e-09  3.0152046e-07  12233584     
   2462000   5.3090351e-10  14415.714      5228.8303      934028.95      3.1148134e-07  9.9529444e-09  3.015284e-07   12233766     
   2463000   5.3111915e-10  14415.575      5228.7382      934024.09      3.1148084e-07  9.9553525e-09  3.0152549e-07  12233677     
   2464000   5.3133479e-10  14415.679      5228.9461      934013.84      3.1148214e-07  9.9544722e-09  3.0152767e-07  12233794     
   2465000   5.3155043e-10  14415.613      5229.0765      933994.05      3.1148253e-07  9.9562475e-09  3.0152628e-07  12233805     
   2466000   5.3176607e-10  14415.532      5229.1762      933975.87      3.1148074e-07  9.9561651e-09  3.0152458e-07  12233668     
   2467000   5.3198171e-10  14415.731      5229.4532      933968.27      3.1148144e-07  9.952693e-09   3.0152874e-07  12233769     
   2468000   5.3219735e-10  14415.724      5229.5716      933955.75      3.1148107e-07  9.9524595e-09  3.0152861e-07  12233746     
   2469000   5.3241299e-10  14415.757      5229.8023      933935.94      3.114819e-07   9.9526089e-09  3.0152929e-07  12233814     
   2470000   5.3262863e-10  14415.674      5229.7692      933930.87      3.1148249e-07  9.9549366e-09  3.0152755e-07  12233822     
   2471000   5.3284427e-10  14415.534      5229.7462      933919.08      3.1148193e-07  9.9572952e-09  3.0152463e-07  12233739     
   2472000   5.330599e-10   14415.512      5229.8417      933907.28      3.1148181e-07  9.9576345e-09  3.0152417e-07  12233736     
   2473000   5.3327554e-10  14415.225      5229.6068      933901.8       3.1148144e-07  9.9632698e-09  3.0151817e-07  12233600     
   2474000   5.3349118e-10  14415.81       5230.1588      933905.66      3.1148142e-07  9.9510208e-09  3.015304e-07   12233816     
   2475000   5.3370682e-10  14415.819      5230.2383      933898.58      3.1148178e-07  9.9511968e-09  3.0153058e-07  12233834     
   2476000   5.3392246e-10  14415.305      5229.9174      933878.73      3.1148145e-07  9.9616214e-09  3.0151983e-07  12233610     
   2477000   5.341381e-10   14415.491      5229.9973      933889.59      3.1148105e-07  9.9573174e-09  3.0152373e-07  12233643     
   2478000   5.3435374e-10  14415.943      5230.6885      933866.04      3.1148076e-07  9.9475848e-09  3.0153318e-07  12233758     
   2479000   5.3456938e-10  14416.215      5231.3901      933823.32      3.1148087e-07  9.9420029e-09  3.0153887e-07  12233824     
   2480000   5.3478502e-10  14416.195      5231.2466      933835.72      3.1148089e-07  9.9424279e-09  3.0153846e-07  12233799     
   2481000   5.3500066e-10  14415.736      5230.9208      933821.91      3.1148084e-07  9.9519801e-09  3.0152886e-07  12233646     
   2482000   5.352163e-10   14415.483      5230.8352      933804.85      3.1148066e-07  9.9571096e-09  3.0152355e-07  12233597     
   2483000   5.3543193e-10  14415.175      5230.7973      933777.56      3.1148234e-07  9.9652171e-09  3.0151712e-07  12233614     
   2484000   5.3564757e-10  14414.989      5230.6289      933775.56      3.1148169e-07  9.9684723e-09  3.0151322e-07  12233537     
   2485000   5.3586321e-10  14414.95       5230.6473      933769.8       3.1148173e-07  9.9693193e-09  3.0151241e-07  12233521     
   2486000   5.3607885e-10  14415.199      5230.9558      933764.11      3.1148171e-07  9.9640877e-09  3.0151762e-07  12233594     
   2487000   5.3629449e-10  14415.65       5231.508       933754.43      3.1148107e-07  9.9540069e-09  3.0152706e-07  12233718     
   2488000   5.3651013e-10  14415.425      5231.2553      933757         3.1148091e-07  9.9585551e-09  3.0152236e-07  12233615     
   2489000   5.3672577e-10  14415.352      5230.9911      933776.06      3.114805e-07   9.9596747e-09  3.0152083e-07  12233559     
   2490000   5.3694141e-10  14415.398      5231.1649      933763.29      3.1148124e-07  9.959459e-09   3.0152178e-07  12233615     
   2491000   5.3715705e-10  14415.386      5231.2092      933757.59      3.1148151e-07  9.959986e-09   3.0152152e-07  12233630     
   2492000   5.3737269e-10  14415.255      5231.2244      933742.87      3.1148274e-07  9.9639457e-09  3.0151879e-07  12233673     
   2493000   5.3758833e-10  14415.309      5231.4278      933728.01      3.1148403e-07  9.9640975e-09  3.0151993e-07  12233790     
   2494000   5.3780397e-10  14415.351      5231.582       933716.77      3.1148375e-07  9.9629553e-09  3.015208e-07   12233792     
   2495000   5.380196e-10   14415.427      5231.7611      933706.54      3.1148393e-07  9.961536e-09   3.0152239e-07  12233829     
   2496000   5.3823524e-10  14415.507      5231.9558      933695.18      3.1148268e-07  9.9586045e-09  3.0152407e-07  12233790     
   2497000   5.3845088e-10  14415.313      5231.7392      933697.25      3.1148301e-07  9.9629988e-09  3.0152001e-07  12233734     
   2498000   5.3866652e-10  14415.537      5232.0848      933685.25      3.1148249e-07  9.9577984e-09  3.0152469e-07  12233799     
   2499000   5.3888216e-10  14415.564      5232.2686      933669.55      3.1148269e-07  9.9574421e-09  3.0152525e-07  12233824     
   2500000   5.390978e-10   14415.288      5231.9947      933669.12      3.1148269e-07  9.9631986e-09  3.0151949e-07  12233717     
   2501000   5.3931344e-10  14415.121      5231.9544      933656.24      3.1148266e-07  9.966677e-09   3.0151599e-07  12233666     
   2502000   5.3952908e-10  14414.856      5231.8676      933638.16      3.1148283e-07  9.9723823e-09  3.0151045e-07  12233579     
   2503000   5.3974472e-10  14415.38       5232.5154      933626.32      3.1148317e-07  9.9617539e-09  3.0152141e-07  12233801     
   2504000   5.3996036e-10  14415.447      5232.7661      933607.95      3.1148363e-07  9.9608216e-09  3.0152281e-07  12233851     
   2505000   5.40176e-10    14415.206      5232.5023      933610.04      3.1148248e-07  9.9647024e-09  3.0151778e-07  12233682     
   2506000   5.4039163e-10  14415.19       5232.5523      933603.36      3.1148269e-07  9.9652577e-09  3.0151743e-07  12233684     
   2507000   5.4060727e-10  14414.601      5232.282       933570.92      3.1148214e-07  9.9770177e-09  3.0150512e-07  12233445     
   2508000   5.4082291e-10  14414.747      5232.4592      933567.9       3.114823e-07   9.974132e-09   3.0150816e-07  12233533     
   2509000   5.4103855e-10  14414.978      5232.5641      933580.72      3.1148241e-07  9.9694173e-09  3.0151299e-07  12233608     
   2510000   5.4125419e-10  14415.322      5232.8788      933584.01      3.1148133e-07  9.9611367e-09  3.0152019e-07  12233648     
   2511000   5.4146983e-10  14415.265      5232.9147      933574.71      3.1148012e-07  9.9611156e-09  3.0151901e-07  12233526     
   2512000   5.4168547e-10  14415.494      5233.6932      933519.93      3.1147915e-07  9.9553515e-09  3.015238e-07   12233523     
   2513000   5.4190111e-10  14415.762      5233.9502      933521.29      3.1147994e-07  9.9505367e-09  3.015294e-07   12233627     
   2514000   5.4211675e-10  14415.956      5234.1611      933519.76      3.1148057e-07  9.9471201e-09  3.0153345e-07  12233715     
   2515000   5.4233239e-10  14415.772      5234.1058      933506.67      3.1148041e-07  9.95081e-09    3.015296e-07   12233650     
   2516000   5.4254803e-10  14415.72       5234.0923      933502.83      3.1148021e-07  9.9516853e-09  3.0152852e-07  12233652     
   2517000   5.4276366e-10  14415.611      5233.9247      933508.58      3.1148118e-07  9.954934e-09   3.0152624e-07  12233690     
   2518000   5.429793e-10   14415.507      5233.8795      933502.55      3.1148185e-07  9.9577948e-09  3.0152406e-07  12233707     
   2519000   5.4319494e-10  14415.71       5234.0895      933502.03      3.1148099e-07  9.9526935e-09  3.015283e-07   12233731     
   2520000   5.4341058e-10  14415.737      5234.1426      933499.45      3.1148051e-07  9.9516472e-09  3.0152887e-07  12233694     
   2521000   5.4362622e-10  14415.766      5234.2958      933487.11      3.1148205e-07  9.9525689e-09  3.0152948e-07  12233787     
   2522000   5.4384186e-10  14415.772      5234.3793      933479.34      3.1148291e-07  9.9533074e-09  3.0152961e-07  12233856     
   2523000   5.440575e-10   14415.588      5234.27        933471.68      3.1148229e-07  9.9565346e-09  3.0152576e-07  12233764     
   2524000   5.4427314e-10  14415.415      5234.2553      933455.7       3.1148203e-07  9.9598788e-09  3.0152215e-07  12233680     
   2525000   5.4448878e-10  14415.473      5234.4291      933444.14      3.1148177e-07  9.95842e-09    3.0152335e-07  12233668     
   2526000   5.4470442e-10  14415.767      5234.7392      933442.82      3.1148141e-07  9.9519044e-09  3.015295e-07   12233725     
   2527000   5.4492006e-10  14415.764      5234.6472      933451.7       3.114815e-07   9.9520697e-09  3.0152943e-07  12233712     
   2528000   5.451357e-10   14415.815      5234.8256      933439.02      3.1148208e-07  9.9515752e-09  3.0153051e-07  12233782     
   2529000   5.4535133e-10  14415.911      5235.037       933427.59      3.1148226e-07  9.949741e-09   3.0153252e-07  12233861     
   2530000   5.4556697e-10  14415.649      5234.7357      933431.24      3.1148152e-07  9.9544819e-09  3.0152704e-07  12233725     
   2531000   5.4578261e-10  14415.948      5235.0434      933430.69      3.1148251e-07  9.9492193e-09  3.015333e-07   12233915     
   2532000   5.4599825e-10  14415.522      5234.6781      933424.18      3.1148132e-07  9.9569388e-09  3.0152438e-07  12233680     
   2533000   5.4621389e-10  14415.926      5235.0247      933430.29      3.1148261e-07  9.9497889e-09  3.0153282e-07  12233907     
   2534000   5.4642953e-10  14415.878      5234.9003      933437.94      3.1148307e-07  9.9512412e-09  3.0153183e-07  12233910     
   2535000   5.4664517e-10  14415.478      5234.4913      933438.44      3.1148298e-07  9.9595191e-09  3.0152346e-07  12233767     
   2536000   5.4686081e-10  14415.372      5234.6976      933407.04      3.1148267e-07  9.9614248e-09  3.0152124e-07  12233744     
   2537000   5.4707645e-10  14415.079      5234.3819      933409.07      3.1148272e-07  9.9676007e-09  3.0151512e-07  12233667     
   2538000   5.4729209e-10  14414.887      5234.2367      933404.15      3.1148383e-07  9.9727297e-09  3.015111e-07   12233679     
   2539000   5.4750773e-10  14415.165      5234.6316      933392.73      3.1148452e-07  9.9676111e-09  3.0151691e-07  12233825     
   2540000   5.4772336e-10  14415.069      5234.6265      933383.52      3.1148365e-07  9.9687432e-09  3.015149e-07   12233713     
   2541000   5.47939e-10    14415.274      5234.6806      933398.86      3.1148312e-07  9.9639228e-09  3.015192e-07   12233736     
   2542000   5.4815464e-10  14415.34       5234.8347      933390.06      3.114827e-07   9.9621322e-09  3.0152057e-07  12233729     
   2543000   5.4837028e-10  14415.295      5234.9451      933374.51      3.1148181e-07  9.9621737e-09  3.0151964e-07  12233659     
   2544000   5.4858592e-10  14415.435      5235.2873      933354.4       3.1148214e-07  9.9595746e-09  3.0152256e-07  12233730     
   2545000   5.4880156e-10  14415.339      5235.2152      933351.85      3.1148239e-07  9.9618489e-09  3.0152054e-07  12233679     
   2546000   5.490172e-10   14415.343      5235.3132      933342.54      3.114827e-07   9.9620577e-09  3.0152064e-07  12233696     
   2547000   5.4923284e-10  14415.37       5235.399       933336.67      3.1148265e-07  9.9614403e-09  3.0152121e-07  12233680     
   2548000   5.4944848e-10  14415.264      5235.4696      933318.8       3.1148257e-07  9.9636024e-09  3.0151897e-07  12233603     
   2549000   5.4966412e-10  14415.404      5235.6215      933317.77      3.1148336e-07  9.9614579e-09  3.0152191e-07  12233705     
   2550000   5.4987976e-10  14415.523      5236.3685      933255.02      3.114836e-07   9.9592111e-09  3.0152439e-07  12233788     
   2551000   5.500954e-10   14415.817      5236.7896      933242.66      3.114832e-07   9.9526435e-09  3.0153055e-07  12233912     
   2552000   5.5031103e-10  14415.799      5236.8302      933236.74      3.1148265e-07  9.9524773e-09  3.0153017e-07  12233880     
   2553000   5.5052667e-10  14415.535      5236.5633      933236.75      3.1148325e-07  9.9585992e-09  3.0152465e-07  12233796     
   2554000   5.5074231e-10  14415.462      5236.7087      933214.88      3.114831e-07   9.9599664e-09  3.0152313e-07  12233747     
   2555000   5.5095795e-10  14415.76       5237.0246      933213.32      3.1148215e-07  9.9527946e-09  3.0152935e-07  12233813     
   2556000   5.5117359e-10  14415.455      5236.8352      933201.47      3.1148262e-07  9.959647e-09   3.0152298e-07  12233722     
   2557000   5.5138923e-10  14415.536      5236.8764      933205.5       3.1148269e-07  9.9580242e-09  3.0152467e-07  12233756     
   2558000   5.5160487e-10  14415.27       5236.6557      933200.68      3.1148321e-07  9.9641138e-09  3.015191e-07   12233686     
   2559000   5.5182051e-10  14415.448      5236.8876      933195.46      3.1148386e-07  9.9610375e-09  3.0152282e-07  12233802     
   2560000   5.5203615e-10  14415.447      5236.8496      933199.23      3.1148315e-07  9.9603311e-09  3.0152281e-07  12233764     
   2561000   5.5225179e-10  14415.754      5237.294       933185.78      3.1148262e-07  9.953388e-09   3.0152923e-07  12233855     
   2562000   5.5246743e-10  14415.624      5237.3544      933166.56      3.1148153e-07  9.9550174e-09  3.0152651e-07  12233743     
   2563000   5.5268306e-10  14415.532      5237.2985      933162.86      3.1148219e-07  9.9576028e-09  3.0152459e-07  12233749     
   2564000   5.528987e-10   14415.395      5237.132       933165.69      3.1148264e-07  9.9609226e-09  3.0152172e-07  12233720     
   2565000   5.5311434e-10  14415.077      5236.9548      933151.3       3.1148234e-07  9.9672674e-09  3.0151508e-07  12233562     
   2566000   5.5332998e-10  14415.308      5237.3049      933139.55      3.1148174e-07  9.961846e-09   3.015199e-07   12233626     
   2567000   5.5354562e-10  14415.478      5237.4822      933139.04      3.1148303e-07  9.9595704e-09  3.0152346e-07  12233780     
   2568000   5.5376126e-10  14415.426      5237.3629      933145.76      3.1148253e-07  9.9601499e-09  3.0152238e-07  12233738     
   2569000   5.539769e-10   14415.338      5237.3268      933140.42      3.114824e-07   9.9618745e-09  3.0152053e-07  12233698     
   2570000   5.5419254e-10  14415.312      5237.2851      933141.97      3.1148223e-07  9.9622415e-09  3.0151998e-07  12233663     
   2571000   5.5440818e-10  14415.553      5237.5082      933143.99      3.1148129e-07  9.956268e-09   3.0152502e-07  12233687     
   2572000   5.5462382e-10  14415.391      5237.2924      933149.23      3.1148088e-07  9.9592437e-09  3.0152164e-07  12233585     
   2573000   5.5483946e-10  14415.282      5237.4151      933125.96      3.1148131e-07  9.9619475e-09  3.0151936e-07  12233550     
   2574000   5.5505509e-10  14415.446      5237.6912      933114.88      3.1148107e-07  9.9582765e-09  3.0152279e-07  12233591     
   2575000   5.5527073e-10  14415.269      5237.7149      933094.62      3.1148082e-07  9.9617323e-09  3.0151909e-07  12233516     
   2576000   5.5548637e-10  14415.309      5237.9085      933079.25      3.1148102e-07  9.9611023e-09  3.0151992e-07  12233564     
   2577000   5.5570201e-10  14415.6        5238.3554      933063.91      3.1148196e-07  9.955961e-09   3.01526e-07    12233747     
   2578000   5.5591765e-10  14415.453      5238.3687      933047.77      3.1148155e-07  9.9586152e-09  3.0152294e-07  12233678     
   2579000   5.5613329e-10  14415.551      5238.4901      933045.54      3.1148262e-07  9.9576338e-09  3.0152499e-07  12233778     
   2580000   5.5634893e-10  14415.978      5238.8836      933049.31      3.1148252e-07  9.9486045e-09  3.0153392e-07  12233923     
   2581000   5.5656457e-10  14415.626      5238.6713      933034.91      3.114824e-07   9.9558553e-09  3.0152655e-07  12233770     
   2582000   5.5678021e-10  14415.826      5239.0308      933019.2       3.1148171e-07  9.9509758e-09  3.0153074e-07  12233807     
   2583000   5.5699585e-10  14415.574      5238.6496      933031.88      3.1148195e-07  9.9564783e-09  3.0152547e-07  12233716     
   2584000   5.5721149e-10  14415.704      5238.7813      933031.82      3.1148171e-07  9.9535255e-09  3.0152818e-07  12233729     
   2585000   5.5742713e-10  14415.601      5238.9425      933005.29      3.1148145e-07  9.9554214e-09  3.0152603e-07  12233649     
   2586000   5.5764276e-10  14415.944      5239.3066      933003.5       3.1148065e-07  9.9474435e-09  3.015332e-07   12233722     
   2587000   5.578584e-10   14415.586      5239.052       932992.78      3.1148083e-07  9.9551134e-09  3.0152571e-07  12233589     
   2588000   5.5807404e-10  14415.49       5238.9574      932992.56      3.1148007e-07  9.9563674e-09  3.0152371e-07  12233522     
   2589000   5.5828968e-10  14415.846      5239.3361      932990.61      3.1148091e-07  9.9497682e-09  3.0153115e-07  12233713     
   2590000   5.5850532e-10  14416.063      5239.6564      932980.57      3.1148183e-07  9.9461291e-09  3.015357e-07   12233880     
   2591000   5.5872096e-10  14415.668      5239.5421      932952.06      3.114819e-07   9.9544577e-09  3.0152744e-07  12233767     
   2592000   5.589366e-10   14415.428      5239.3071      932951.29      3.1148211e-07  9.9597021e-09  3.0152241e-07  12233703     
   2593000   5.5915224e-10  14415.473      5239.4114      932945.42      3.1148255e-07  9.9591977e-09  3.0152336e-07  12233750     
   2594000   5.5936788e-10  14415.193      5239.187       932939.53      3.1148369e-07  9.9661992e-09  3.0151749e-07  12233708     
   2595000   5.5958352e-10  14415.244      5239.3333      932930.06      3.1148393e-07  9.9653646e-09  3.0151856e-07  12233771     
   2596000   5.5979916e-10  14414.848      5239.1443      932908.97      3.1148348e-07  9.9731973e-09  3.0151028e-07  12233593     
   2597000   5.6001479e-10  14415.492      5239.9288      932895.55      3.1148311e-07  9.9593581e-09  3.0152375e-07  12233808     
   2598000   5.6023043e-10  14415.904      5240.5157      932878.41      3.1148305e-07  9.9506927e-09  3.0153236e-07  12233930     
   2599000   5.6044607e-10  14415.886      5240.5796      932870.21      3.1148266e-07  9.9506757e-09  3.0153199e-07  12233880     
   2600000   5.6066171e-10  14415.25       5239.9861      932865.36      3.114823e-07   9.9636109e-09  3.0151869e-07  12233610     
   2601000   5.6087735e-10  14415.176      5240.0035      932856.15      3.1148201e-07  9.9648606e-09  3.0151715e-07  12233571     
   2602000   5.6109299e-10  14415.369      5240.175       932858.44      3.1148198e-07  9.9608085e-09  3.0152117e-07  12233648     
   2603000   5.6130863e-10  14415.837      5241.0482      932818.38      3.1148262e-07  9.951645e-09   3.0153097e-07  12233862     
   2604000   5.6152427e-10  14415.732      5241.2699      932785.52      3.1148261e-07  9.9538456e-09  3.0152876e-07  12233816     
   2605000   5.6173991e-10  14415.646      5241.3339      932770.43      3.1148343e-07  9.9564589e-09  3.0152697e-07  12233841     
   2606000   5.6195555e-10  14415.412      5241.1812      932762.1       3.1148294e-07  9.9608607e-09  3.0152208e-07  12233726     
   2607000   5.6217119e-10  14415.109      5240.9795      932751.61      3.114819e-07   9.9661682e-09  3.0151573e-07  12233535     
   2608000   5.6238682e-10  14415.203      5241.113       932747.76      3.1148277e-07  9.9650698e-09  3.015177e-07   12233607     
   2609000   5.6260246e-10  14415.256      5241.2225      932742.13      3.1148252e-07  9.9637189e-09  3.015188e-07   12233600     
   2610000   5.628181e-10   14415.582      5241.6942      932727.89      3.1148337e-07  9.95774e-09    3.0152563e-07  12233762     
   2611000   5.6303374e-10  14415.656      5241.7031      932734.55      3.1148382e-07  9.9566268e-09  3.0152719e-07  12233831     
   2612000   5.6324938e-10  14415.697      5241.6911      932739.82      3.1148294e-07  9.954907e-09   3.0152803e-07  12233818     
   2613000   5.6346502e-10  14415.328      5241.3617      932735.49      3.1148249e-07  9.9621757e-09  3.0152031e-07  12233698     
   2614000   5.6368066e-10  14414.895      5240.9447      932733.45      3.1148237e-07  9.9711115e-09  3.0151125e-07  12233561     
   2615000   5.638963e-10   14414.903      5240.9757      932731.17      3.114829e-07   9.9714782e-09  3.0151143e-07  12233617     
   2616000   5.6411194e-10  14414.919      5241.0521      932725.18      3.1148376e-07  9.9719886e-09  3.0151177e-07  12233688     
   2617000   5.6432758e-10  14414.942      5241.0953      932723.19      3.1148403e-07  9.9717773e-09  3.0151225e-07  12233732     
   2618000   5.6454322e-10  14414.75       5241.0225      932711.04      3.114847e-07   9.9764698e-09  3.0150823e-07  12233719     
   2619000   5.6475886e-10  14414.938      5241.2726      932704.97      3.114849e-07   9.9727446e-09  3.0151215e-07  12233815     
   2620000   5.6497449e-10  14414.549      5240.9368      932699.27      3.1148509e-07  9.9810698e-09  3.0150402e-07  12233652     
   2621000   5.6519013e-10  14415.254      5241.5877      932705.44      3.11485e-07    9.9662254e-09  3.0151878e-07  12233912     
   2622000   5.6540577e-10  14415.125      5241.6374      932687.38      3.1148519e-07  9.9691198e-09  3.0151607e-07  12233854     
   2623000   5.6562141e-10  14415.326      5241.9144      932679.95      3.1148501e-07  9.9647457e-09  3.0152027e-07  12233905     
   2624000   5.6583705e-10  14415.597      5242.3048      932668.35      3.1148505e-07  9.9590924e-09  3.0152595e-07  12233974     
   2625000   5.6605269e-10  14415.663      5242.4359      932661.85      3.1148474e-07  9.9574175e-09  3.0152733e-07  12233928     
   2626000   5.6626833e-10  14415.916      5242.8258      932648.4       3.1148316e-07  9.9505397e-09  3.0153262e-07  12233869     
   2627000   5.6648397e-10  14416.192      5242.9748      932661.44      3.1148174e-07  9.9433447e-09  3.015384e-07   12233865     
   2628000   5.6669961e-10  14416.113      5242.9486      932655.99      3.1148079e-07  9.9440639e-09  3.0153673e-07  12233765     
   2629000   5.6691525e-10  14415.917      5242.7785      932653.21      3.1148008e-07  9.9474491e-09  3.0153263e-07  12233649     
   2630000   5.6713089e-10  14415.966      5242.8843      932647.64      3.1148017e-07  9.9464987e-09  3.0153367e-07  12233685     
   2631000   5.6734652e-10  14416.017      5242.8647      932654.76      3.1148095e-07  9.9462175e-09  3.0153474e-07  12233753     
   2632000   5.6756216e-10  14416.211      5243.0928      932651.49      3.1148143e-07  9.9426482e-09  3.0153878e-07  12233868     
   2633000   5.677778e-10   14415.756      5242.7968      932635.14      3.114812e-07   9.951924e-09   3.0152927e-07  12233699     
   2634000   5.6799344e-10  14415.907      5243.0514      932624.89      3.1148101e-07  9.948583e-09   3.0153242e-07  12233769     
   2635000   5.6820908e-10  14415.482      5242.6446      932622.71      3.1148288e-07  9.9593271e-09  3.0152355e-07  12233736     
   2636000   5.6842472e-10  14415.588      5242.7015      932627.7       3.1148336e-07  9.957604e-09   3.0152576e-07  12233844     
   2637000   5.6864036e-10  14415.378      5242.6087      932615.71      3.1148312e-07  9.9617641e-09  3.0152136e-07  12233775     
   2638000   5.68856e-10    14415.349      5242.6263      932611.08      3.1148371e-07  9.9629456e-09  3.0152076e-07  12233816     
   2639000   5.6907164e-10  14415.175      5242.585       932597.56      3.1148387e-07  9.9667637e-09  3.0151711e-07  12233764     
   2640000   5.6928728e-10  14415.253      5242.7405      932589.92      3.1148406e-07  9.9653086e-09  3.0151875e-07  12233811     
   2641000   5.6950292e-10  14415.223      5242.9491      932566.04      3.1148384e-07  9.9657118e-09  3.0151813e-07  12233790     
   2642000   5.6971855e-10  14414.898      5242.5064      932577.42      3.114845e-07   9.9731863e-09  3.0151132e-07  12233673     
   2643000   5.6993419e-10  14415.442      5243.0705      932576.02      3.1148487e-07  9.9621621e-09  3.0152271e-07  12233901     
   2644000   5.7014983e-10  14415.458      5243.1162      932573.01      3.1148518e-07  9.9621449e-09  3.0152303e-07  12233958     
   2645000   5.7036547e-10  14414.86       5242.7682      932547.42      3.1148578e-07  9.9752506e-09  3.0151053e-07  12233808     
   2646000   5.7058111e-10  14414.481      5242.3801      932547.9       3.1148642e-07  9.9838232e-09  3.0150259e-07  12233737     
   2647000   5.7079675e-10  14414.506      5242.3506      932553.46      3.1148542e-07  9.982286e-09   3.0150313e-07  12233694     
   2648000   5.7101239e-10  14414.694      5242.7269      932534.77      3.1148565e-07  9.9785948e-09  3.0150706e-07  12233758     
   2649000   5.7122803e-10  14415.142      5243.121       932540.6       3.1148606e-07  9.9696355e-09  3.0151643e-07  12233924     
   2650000   5.7144367e-10  14415.157      5243.1321      932541.04      3.1148493e-07  9.9681783e-09  3.0151675e-07  12233826     
   2651000   5.7165931e-10  14414.96       5242.9807      932536.28      3.1148369e-07  9.971065e-09   3.0151263e-07  12233642     
   2652000   5.7187495e-10  14415.038      5243.0368      932538.54      3.1148282e-07  9.9685664e-09  3.0151426e-07  12233599     
   2653000   5.7209059e-10  14415.374      5243.6292      932513.23      3.1148231e-07  9.9610256e-09  3.0152129e-07  12233690     
   2654000   5.7230622e-10  14415.455      5243.8774      932496.58      3.1148157e-07  9.9585883e-09  3.0152298e-07  12233684     
   2655000   5.7252186e-10  14415.358      5243.981       932476.35      3.1148149e-07  9.9605487e-09  3.0152094e-07  12233640     
   2656000   5.727375e-10   14415.362      5244.0901      932465.82      3.1148178e-07  9.9607576e-09  3.0152102e-07  12233654     
   2657000   5.7295314e-10  14415.342      5244.2864      932444.22      3.1148143e-07  9.9608068e-09  3.0152062e-07  12233635     
   2658000   5.7316878e-10  14415.049      5244.2199      932421.16      3.1148222e-07  9.9677443e-09  3.0151447e-07  12233557     
   2659000   5.7338442e-10  14415.694      5245.0424      932404.1       3.1148229e-07  9.9543152e-09  3.0152798e-07  12233789     
   2660000   5.7360006e-10  14415.696      5244.9804      932410.48      3.114818e-07   9.9537917e-09  3.0152801e-07  12233745     
   2661000   5.738157e-10   14415.7        5245.0047      932408.51      3.1148163e-07  9.9535173e-09  3.0152811e-07  12233728     
   2662000   5.7403134e-10  14415.837      5245.2761      932395.11      3.1148133e-07  9.9503701e-09  3.0153096e-07  12233761     
   2663000   5.7424698e-10  14415.863      5245.5226      932373.1       3.1148148e-07  9.9499693e-09  3.0153151e-07  12233783     
   2664000   5.7446262e-10  14415.659      5245.3316      932371.56      3.1148166e-07  9.9544282e-09  3.0152723e-07  12233717     
   2665000   5.7467825e-10  14415.503      5245.2071      932368.33      3.114827e-07   9.9587115e-09  3.0152399e-07  12233731     
   2666000   5.7489389e-10  14415.621      5245.5418      932346.71      3.1148338e-07  9.9569347e-09  3.0152645e-07  12233817     
   2667000   5.7510953e-10  14416.142      5246.1143      932342.06      3.1148299e-07  9.9456531e-09  3.0153734e-07  12233991     
   2668000   5.7532517e-10  14415.898      5246.2963      932299.24      3.1148304e-07  9.9507912e-09  3.0153225e-07  12233891     
   2669000   5.7554081e-10  14415.909      5246.3642      932293.49      3.1148279e-07  9.9503201e-09  3.0153247e-07  12233896     
   2670000   5.7575645e-10  14415.215      5245.824       932277.41      3.114832e-07   9.9652474e-09  3.0151795e-07  12233687     
   2671000   5.7597209e-10  14414.996      5245.7352      932264.14      3.1148298e-07  9.9696142e-09  3.0151337e-07  12233632     
   2672000   5.7618773e-10  14414.918      5245.8868      932241.12      3.1148262e-07  9.9708689e-09  3.0151175e-07  12233597     
   2673000   5.7640337e-10  14414.997      5245.8733      932250.45      3.1148335e-07  9.9699571e-09  3.015134e-07   12233647     
   2674000   5.7661901e-10  14415.355      5246.2517      932248.8       3.1148269e-07  9.9617988e-09  3.0152089e-07  12233711     
   2675000   5.7683465e-10  14415.253      5246.2528      932238.33      3.1148246e-07  9.9637158e-09  3.0151875e-07  12233647     
   2676000   5.7705029e-10  14415.387      5246.9212      932184.99      3.1148264e-07  9.9610864e-09  3.0152155e-07  12233708     
   2677000   5.7726592e-10  14415.602      5247.302       932168.64      3.1148277e-07  9.9567091e-09  3.0152606e-07  12233805     
   2678000   5.7748156e-10  14415.547      5247.3811      932155.15      3.1148422e-07  9.9593158e-09  3.0152491e-07  12233883     
   2679000   5.776972e-10   14415.447      5247.3818      932144.92      3.1148483e-07  9.9620259e-09  3.015228e-07   12233892     
   2680000   5.7791284e-10  14415.26       5247.2389      932140.33      3.1148429e-07  9.9653992e-09  3.0151889e-07  12233793     
   2681000   5.7812848e-10  14415.239      5247.291       932132.96      3.1148321e-07  9.9647628e-09  3.0151845e-07  12233716     
   2682000   5.7834412e-10  14415.235      5247.2559      932136.16      3.1148307e-07  9.964686e-09   3.0151838e-07  12233678     
   2683000   5.7855976e-10  14415.554      5247.7867      932115.27      3.1148296e-07  9.9579054e-09  3.0152505e-07  12233765     
   2684000   5.787754e-10   14415.671      5248.0448      932101.21      3.1148301e-07  9.9555206e-09  3.0152749e-07  12233795     
   2685000   5.7899104e-10  14415.522      5247.9718      932093.44      3.1148287e-07  9.9585029e-09  3.0152437e-07  12233728     
   2686000   5.7920668e-10  14415.083      5247.7569      932070.59      3.1148203e-07  9.9668378e-09  3.0151519e-07  12233506     
   2687000   5.7942232e-10  14415.415      5248.2247      932057.32      3.1148133e-07  9.959199e-09   3.0152214e-07  12233606     
   2688000   5.7963795e-10  14415.409      5248.2751      932051.65      3.1148075e-07  9.9587429e-09  3.0152201e-07  12233568     
   2689000   5.7985359e-10  14415.456      5248.475       932036.45      3.1148155e-07  9.9585486e-09  3.01523e-07    12233611     
   2690000   5.8006923e-10  14415.592      5248.8725      932010.4       3.1148129e-07  9.9554429e-09  3.0152584e-07  12233629     
   2691000   5.8028487e-10  14415.57       5248.8776      932007.64      3.1148034e-07  9.9549605e-09  3.0152538e-07  12233576     
   2692000   5.8050051e-10  14415.208      5250.5605      931802.62      3.1148207e-07  9.9642551e-09  3.0151781e-07  12233516     
   2693000   5.8071615e-10  14415.541      5250.8927      931802.99      3.1148223e-07  9.9574621e-09  3.0152477e-07  12233685     
   2694000   5.8093179e-10  14415.756      5251.3315      931780.81      3.1148278e-07  9.9535138e-09  3.0152927e-07  12233830     
   2695000   5.8114743e-10  14415.401      5251.061       931772         3.1148354e-07  9.9616896e-09  3.0152185e-07  12233732     
   2696000   5.8136307e-10  14415.167      5251.0621      931748.2       3.1148364e-07  9.9666958e-09  3.0151694e-07  12233610     
   2697000   5.8157871e-10  14415.5        5251.4696      931741.09      3.1148335e-07  9.9594376e-09  3.0152391e-07  12233707     
   2698000   5.8179435e-10  14415.567      5251.7271      931722.07      3.1148352e-07  9.9582135e-09  3.0152531e-07  12233747     
   2699000   5.8200998e-10  14415.984      5252.0836      931728.63      3.1148447e-07  9.950421e-09   3.0153405e-07  12233984     
   2700000   5.8222562e-10  14415.41       5251.7882      931700.14      3.1148415e-07  9.9621102e-09  3.0152204e-07  12233749     
   2701000   5.8244126e-10  14415.661      5251.9554      931708.81      3.1148463e-07  9.957338e-09   3.0152729e-07  12233890     
   2702000   5.826569e-10   14415.732      5252.2443      931687.06      3.1148448e-07  9.9556988e-09  3.0152878e-07  12233929     
   2703000   5.8287254e-10  14415.747      5252.1526      931697.68      3.1148478e-07  9.9557032e-09  3.0152908e-07  12233937     
   2704000   5.8308818e-10  14415.627      5252.1863      931682.24      3.1148322e-07  9.9566415e-09  3.0152658e-07  12233772     
   2705000   5.8330382e-10  14415.198      5251.9731      931660.17      3.1148324e-07  9.9656467e-09  3.015176e-07   12233601     
   2706000   5.8351946e-10  14415.457      5252.3195      931651.7       3.1148335e-07  9.9603326e-09  3.0152302e-07  12233718     
   2707000   5.837351e-10   14415.604      5252.3302      931665.51      3.1148408e-07  9.9579873e-09  3.015261e-07   12233803     
   2708000   5.8395074e-10  14415.557      5252.4278      931650.93      3.1148422e-07  9.9591227e-09  3.015251e-07   12233783     
   2709000   5.8416638e-10  14415.134      5252.2472      931626.27      3.1148328e-07  9.967025e-09   3.0151626e-07  12233573     
   2710000   5.8438202e-10  14415.578      5252.5292      931642.98      3.1148411e-07  9.9585502e-09  3.0152556e-07  12233816     
   2711000   5.8459765e-10  14415.516      5252.5275      931636.85      3.1148423e-07  9.9599804e-09  3.0152425e-07  12233806     
   2712000   5.8481329e-10  14415.19       5252.422       931614.44      3.1148369e-07  9.966252e-09   3.0151743e-07  12233650     
   2713000   5.8502893e-10  14415.31       5252.5511      931613.7       3.1148435e-07  9.9643957e-09  3.0151995e-07  12233757     
   2714000   5.8524457e-10  14415.086      5252.4738      931598.74      3.1148437e-07  9.9691168e-09  3.0151526e-07  12233690     
   2715000   5.8546021e-10  14415.616      5253.2167      931578.01      3.1148513e-07  9.9587733e-09  3.0152635e-07  12233951     
   2716000   5.8567585e-10  14415.424      5253.0796      931572.31      3.1148479e-07  9.962459e-09   3.0152234e-07  12233845     
   2717000   5.8589149e-10  14415.206      5253.154       931542.74      3.1148498e-07  9.9672232e-09  3.0151776e-07  12233745     
   2718000   5.8610713e-10  14415.391      5253.9506      931481.79      3.1148534e-07  9.963695e-09   3.0152165e-07  12233838     
   2719000   5.8632277e-10  14415.28       5253.8607      931479.55      3.1148483e-07  9.9655139e-09  3.0151932e-07  12233785     
   2720000   5.8653841e-10  14415.065      5253.6617      931477.71      3.1148469e-07  9.9698665e-09  3.0151482e-07  12233701     
   2721000   5.8675405e-10  14415.288      5253.7883      931487.59      3.114844e-07   9.9649179e-09  3.0151948e-07  12233772     
   2722000   5.8696968e-10  14415.181      5253.7364      931481.92      3.1148387e-07  9.9666375e-09  3.0151724e-07  12233687     
   2723000   5.8718532e-10  14415.084      5254.014       931444.37      3.114844e-07   9.969188e-09   3.0151522e-07  12233674     
   2724000   5.8740096e-10  14415.482      5254.4708      931438.84      3.1148428e-07  9.9607481e-09  3.0152353e-07  12233812     
   2725000   5.876166e-10   14415.405      5254.3408      931444.15      3.1148514e-07  9.963202e-09   3.0152194e-07  12233818     
   2726000   5.8783224e-10  14415.725      5254.709       931439.6       3.1148517e-07  9.9565498e-09  3.0152862e-07  12233948     
   2727000   5.8804788e-10  14415.657      5254.7849      931425.13      3.1148529e-07  9.9580927e-09  3.015272e-07   12233948     
   2728000   5.8826352e-10  14415.278      5254.7617      931389.15      3.1148654e-07  9.9672654e-09  3.0151928e-07  12233901     
   2729000   5.8847916e-10  14414.861      5254.6475      931358.43      3.1148547e-07  9.9749114e-09  3.0151056e-07  12233698     
   2730000   5.886948e-10   14415.044      5254.7031      931371.31      3.1148577e-07  9.9713946e-09  3.0151437e-07  12233787     
   2731000   5.8891044e-10  14415.25       5254.8547      931377.03      3.1148595e-07  9.9672531e-09  3.015187e-07   12233880     
   2732000   5.8912608e-10  14415.131      5254.8527      931365.13      3.1148674e-07  9.9705485e-09  3.0151619e-07  12233909     
   2733000   5.8934171e-10  14414.931      5254.8558      931344.6       3.1148679e-07  9.9747845e-09  3.0151201e-07  12233857     
   2734000   5.8955735e-10  14414.967      5254.8628      931347.58      3.1148719e-07  9.9744253e-09  3.0151277e-07  12233883     
   2735000   5.8977299e-10  14415.193      5255.0753      931349.14      3.1148662e-07  9.9691253e-09  3.0151749e-07  12233920     
   2736000   5.8998863e-10  14415.608      5255.421       931356.53      3.1148515e-07  9.9589715e-09  3.0152618e-07  12233956     
   2737000   5.9020427e-10  14415.527      5255.3143      931359         3.1148396e-07  9.9594751e-09  3.0152448e-07  12233806     
   2738000   5.9041991e-10  14415.263      5255.2603      931337.66      3.1148362e-07  9.9646737e-09  3.0151895e-07  12233663     
   2739000   5.9063555e-10  14415.402      5255.5369      931324.12      3.1148318e-07  9.9613028e-09  3.0152188e-07  12233714     
   2740000   5.9085119e-10  14415.031      5255.3588      931304.38      3.11484e-07    9.9698997e-09  3.015141e-07   12233634     
   2741000   5.9106683e-10  14414.982      5255.5813      931277.17      3.1148557e-07  9.9724882e-09  3.0151308e-07  12233737     
   2742000   5.9128247e-10  14415.217      5255.7245      931286.59      3.1148431e-07  9.9663139e-09  3.01518e-07    12233767     
   2743000   5.9149811e-10  14415.213      5255.82        931276.6       3.1148464e-07  9.966736e-09   3.0151791e-07  12233770     
   2744000   5.9171375e-10  14415.647      5256.445       931257.9       3.114856e-07   9.9586129e-09  3.0152698e-07  12233959     
   2745000   5.9192938e-10  14415.498      5256.2825      931259.19      3.1148463e-07  9.9607466e-09  3.0152388e-07  12233807     
   2746000   5.9214502e-10  14415.794      5256.7055      931246.73      3.1148362e-07  9.9535551e-09  3.0153007e-07  12233844     
   2747000   5.9236066e-10  14415.568      5256.6917      931225.31      3.1148291e-07  9.9575566e-09  3.0152535e-07  12233703     
   2748000   5.925763e-10   14415.515      5256.5123      931237.84      3.11482e-07    9.9577723e-09  3.0152423e-07  12233638     
   2749000   5.9279194e-10  14415.365      5256.4948      931224.42      3.1148254e-07  9.9614462e-09  3.0152109e-07  12233619     
   2750000   5.9300758e-10  14415.376      5256.3796      931237.08      3.1148285e-07  9.9615248e-09  3.0152132e-07  12233636     
   2751000   5.9322322e-10  14415.332      5256.307       931239.9       3.1148356e-07  9.9631631e-09  3.015204e-07   12233680     
   2752000   5.9343886e-10  14415.195      5256.3164      931225.14      3.1148465e-07  9.9671051e-09  3.0151754e-07  12233712     
   2753000   5.936545e-10   14415.392      5256.5037      931226.3       3.114842e-07   9.9625398e-09  3.0152166e-07  12233764     
   2754000   5.9387014e-10  14415.631      5256.6632      931234.46      3.1148331e-07  9.9566591e-09  3.0152665e-07  12233798     
   2755000   5.9408578e-10  14415.523      5256.7124      931218.61      3.1148343e-07  9.9590426e-09  3.0152439e-07  12233768     
   2756000   5.9430141e-10  14415.534      5256.7347      931217.56      3.1148336e-07  9.9587242e-09  3.0152464e-07  12233769     
   2757000   5.9451705e-10  14415.649      5256.8549      931217.07      3.1148379e-07  9.9567607e-09  3.0152703e-07  12233838     
   2758000   5.9473269e-10  14415.548      5256.7873      931213.69      3.1148379e-07  9.958865e-09   3.0152492e-07  12233803     
   2759000   5.9494833e-10  14415.741      5256.9621      931215.69      3.1148354e-07  9.9545821e-09  3.0152896e-07  12233858     
   2760000   5.9516397e-10  14415.558      5256.909       931202.48      3.1148393e-07  9.9588051e-09  3.0152512e-07  12233801     
   2761000   5.9537961e-10  14415.43       5256.8627      931194.22      3.114832e-07   9.9607453e-09  3.0152246e-07  12233704     
   2762000   5.9559525e-10  14415.274      5256.7234      931192.34      3.1148381e-07  9.9646231e-09  3.0151918e-07  12233677     
   2763000   5.9581089e-10  14415.079      5256.6678      931178.18      3.1148409e-07  9.9689837e-09  3.015151e-07   12233631     
   2764000   5.9602653e-10  14415.309      5257.095       931158.69      3.1148438e-07  9.9644663e-09  3.0151992e-07  12233754     
   2765000   5.9624217e-10  14415.033      5256.965       931143.78      3.1148429e-07  9.9701487e-09  3.0151414e-07  12233626     
   2766000   5.9645781e-10  14415.755      5257.6363      931149.59      3.1148346e-07  9.9542184e-09  3.0152924e-07  12233837     
   2767000   5.9667344e-10  14415.928      5258.0288      931127.78      3.1148422e-07  9.9513547e-09  3.0153286e-07  12233927     
   2768000   5.9688908e-10  14415.853      5258.0023      931122.85      3.1148321e-07  9.9519175e-09  3.0153129e-07  12233833     
   2769000   5.9710472e-10  14416.058      5258.3229      931111.52      3.1148349e-07  9.9479041e-09  3.0153559e-07  12233908     
   2770000   5.9732036e-10  14415.904      5258.3701      931091.19      3.1148323e-07  9.9508692e-09  3.0153236e-07  12233821     
   2771000   5.97536e-10    14415.81       5258.2784      931090.88      3.1148401e-07  9.9536117e-09  3.015304e-07   12233853     
   2772000   5.9775164e-10  14415.67       5258.1825      931086.36      3.1148301e-07  9.9555282e-09  3.0152748e-07  12233768     
   2773000   5.9796728e-10  14415.527      5257.9721      931092.99      3.1148375e-07  9.9592601e-09  3.0152449e-07  12233774     
   2774000   5.9818292e-10  14415.389      5258.0754      931068.67      3.114834e-07   9.961799e-09   3.015216e-07   12233708     
   2775000   5.9839856e-10  14415.13       5257.7662      931073.38      3.1148331e-07  9.9671403e-09  3.0151617e-07  12233605     
   2776000   5.986142e-10   14414.807      5257.6798      931049.45      3.1148355e-07  9.9741211e-09  3.0150943e-07  12233505     
   2777000   5.9882984e-10  14415.115      5258.1562      931032.86      3.1148315e-07  9.967293e-09   3.0151586e-07  12233592     
   2778000   5.9904548e-10  14416.079      5259.0501      931040.84      3.1148392e-07  9.9478899e-09  3.0153603e-07  12233984     
   2779000   5.9926111e-10  14415.715      5259.0333      931005.71      3.1148407e-07  9.9556573e-09  3.0152841e-07  12233846     
   2780000   5.9947675e-10  14415.624      5259.0605      930993.78      3.1148481e-07  9.9583064e-09  3.015265e-07   12233868     
   2781000   5.9969239e-10  14415.325      5258.6632      931003.33      3.1148469e-07  9.9644353e-09  3.0152025e-07  12233763     
   2782000   5.9990803e-10  14415.55       5258.952       930997.2       3.1148407e-07  9.9591073e-09  3.0152496e-07  12233827     
   2783000   6.0012367e-10  14415.392      5258.8903      930987.39      3.1148418e-07  9.9625215e-09  3.0152166e-07  12233766     
   2784000   6.0033931e-10  14415.25       5258.7956      930982.54      3.1148432e-07  9.96563e-09    3.0151869e-07  12233711     
   2785000   6.0055495e-10  14415.25       5258.9915      930962.95      3.1148392e-07  9.9652232e-09  3.015187e-07   12233687     
   2786000   6.0077059e-10  14415.087      5258.9659      930949.03      3.1148273e-07  9.9674451e-09  3.0151529e-07  12233559     
   2787000   6.0098623e-10  14415.56       5259.4032      930953.05      3.1148397e-07  9.9587987e-09  3.0152517e-07  12233810     
   2788000   6.0120187e-10  14415.402      5259.5298      930924.38      3.1148455e-07  9.9626784e-09  3.0152187e-07  12233777     
   2789000   6.0141751e-10  14415.628      5259.805       930919.7       3.1148522e-07  9.9586236e-09  3.015266e-07   12233910     
   2790000   6.0163314e-10  14415.599      5259.8982      930907.48      3.1148483e-07  9.9588351e-09  3.01526e-07    12233884     
   2791000   6.0184878e-10  14415.367      5259.8376      930890.01      3.1148388e-07  9.9627537e-09  3.0152113e-07  12233742     
   2792000   6.0206442e-10  14415.492      5260.0832      930878.14      3.1148408e-07  9.9603241e-09  3.0152376e-07  12233807     
   2793000   6.0228006e-10  14415.308      5260.076       930860.24      3.1148416e-07  9.9642497e-09  3.0151991e-07  12233739     
   2794000   6.024957e-10   14415.466      5260.3013      930853.68      3.1148424e-07  9.9610208e-09  3.0152321e-07  12233790     
   2795000   6.0271134e-10  14415.442      5260.5225      930829.07      3.1148397e-07  9.961262e-09   3.015227e-07   12233760     
   2796000   6.0292698e-10  14415.551      5260.6648      930825.88      3.1148386e-07  9.958864e-09   3.0152499e-07  12233815     
   2797000   6.0314262e-10  14415.258      5260.5352      930809.16      3.1148459e-07  9.9657386e-09  3.0151885e-07  12233754     
   2798000   6.0335826e-10  14415.109      5260.3944      930808.26      3.1148432e-07  9.9685715e-09  3.0151575e-07  12233698     
   2799000   6.035739e-10   14415.11       5260.6896      930778.77      3.1148499e-07  9.9692316e-09  3.0151576e-07  12233741     
   2800000   6.0378954e-10  14415.392      5260.9836      930777.83      3.1148423e-07  9.9625737e-09  3.0152165e-07  12233791     
   2801000   6.0400518e-10  14415.539      5261.3842      930752.65      3.1148343e-07  9.9586879e-09  3.0152474e-07  12233781     
   2802000   6.0422081e-10  14415.429      5261.3266      930747.31      3.1148267e-07  9.960224e-09   3.0152244e-07  12233658     
   2803000   6.0443645e-10  14415.484      5261.5272      930732.79      3.1148246e-07  9.9588662e-09  3.0152359e-07  12233654     
   2804000   6.0465209e-10  14415.618      5261.8616      930712.86      3.1148341e-07  9.9570119e-09  3.0152639e-07  12233768     
   2805000   6.0486773e-10  14415.637      5261.8493      930716.01      3.114834e-07   9.9566117e-09  3.0152679e-07  12233782     
   2806000   6.0508337e-10  14415.878      5262.1302      930712.22      3.1148387e-07  9.9520445e-09  3.0153183e-07  12233922     
   2807000   6.0529901e-10  14415.465      5261.8547      930698.05      3.1148286e-07  9.9596713e-09  3.0152319e-07  12233693     
   2808000   6.0551465e-10  14415.459      5261.8711      930695.75      3.1148361e-07  9.9605587e-09  3.0152305e-07  12233722     
   2809000   6.0573029e-10  14415.535      5261.9738      930693.21      3.1148376e-07  9.9591042e-09  3.0152465e-07  12233767     
   2810000   6.0594593e-10  14415.361      5262.0352      930669.5       3.1148335e-07  9.9623327e-09  3.0152102e-07  12233688     
   2811000   6.0616157e-10  14415.605      5262.2051      930677.16      3.1148347e-07  9.9573459e-09  3.0152612e-07  12233778     
   2812000   6.0637721e-10  14415.686      5262.4336      930662.44      3.1148323e-07  9.9554251e-09  3.0152781e-07  12233808     
   2813000   6.0659284e-10  14415.23       5262.0348      930656.25      3.1148313e-07  9.9648627e-09  3.0151827e-07  12233651     
   2814000   6.0680848e-10  14415.16       5262.1785      930634.78      3.1148301e-07  9.96621e-09    3.015168e-07   12233615     
   2815000   6.0702412e-10  14415.423      5262.5693      930622.25      3.1148396e-07  9.9616555e-09  3.015223e-07   12233750     
   2816000   6.0723976e-10  14415.801      5262.858       930631.56      3.1148419e-07  9.9539831e-09  3.0153021e-07  12233902     
   2817000   6.074554e-10   14415.542      5262.6582      930625.4       3.1148455e-07  9.959758e-09   3.015248e-07   12233814     
   2818000   6.0767104e-10  14415.842      5262.8941      930632.08      3.1148397e-07  9.9529057e-09  3.0153106e-07  12233901     
   2819000   6.0788668e-10  14415.282      5262.7746      930587.42      3.1148415e-07  9.9647957e-09  3.0151935e-07  12233713     
   2820000   6.0810232e-10  14415.29       5262.674       930598.37      3.1148368e-07  9.9641509e-09  3.0151953e-07  12233701     
   2821000   6.0831796e-10  14415.741      5263.3696      930574.3       3.114842e-07   9.9552416e-09  3.0152896e-07  12233899     
   2822000   6.085336e-10   14415.895      5263.5384      930573.03      3.114847e-07   9.9525157e-09  3.0153219e-07  12234002     
   2823000   6.0874924e-10  14415.45       5263.0871      930573.2       3.1148451e-07  9.9616287e-09  3.0152288e-07  12233844     
   2824000   6.0896487e-10  14414.776      5262.8161      930532.16      3.1148618e-07  9.9774058e-09  3.0150878e-07  12233709     
   2825000   6.0918051e-10  14414.856      5262.8486      930536.96      3.1148616e-07  9.9757226e-09  3.0151044e-07  12233777     
   2826000   6.0939615e-10  14414.503      5262.7575      930510.37      3.11485e-07    9.9819463e-09  3.0150306e-07  12233562     
   2827000   6.0961179e-10  14415.007      5263.2907      930507.96      3.1148516e-07  9.9715559e-09  3.015136e-07   12233740     
   2828000   6.0982743e-10  14415.312      5263.6277      930505.08      3.1148451e-07  9.9645256e-09  3.0151998e-07  12233768     
   2829000   6.1004307e-10  14415.742      5264.0201      930509.33      3.1148458e-07  9.9555943e-09  3.0152899e-07  12233894     
   2830000   6.1025871e-10  14415.803      5264.1924      930498.26      3.1148475e-07  9.9544838e-09  3.0153026e-07  12233921     
   2831000   6.1047435e-10  14415.316      5263.7261      930495.64      3.1148481e-07  9.964748e-09   3.0152007e-07  12233754     
   2832000   6.1068999e-10  14415.202      5264.3101      930425.68      3.1148444e-07  9.9667502e-09  3.0151769e-07  12233715     
   2833000   6.1090563e-10  14415.086      5264.0712      930437.84      3.1148459e-07  9.9693353e-09  3.0151526e-07  12233687     
   2834000   6.1112127e-10  14415.308      5264.3046      930436.9       3.1148487e-07  9.9649767e-09  3.0151989e-07  12233795     
   2835000   6.1133691e-10  14415.449      5264.5975      930421.84      3.1148519e-07  9.9623455e-09  3.0152284e-07  12233879     
   2836000   6.1155254e-10  14414.92       5264.4373      930384.48      3.1148529e-07  9.9734938e-09  3.015118e-07   12233683     
   2837000   6.1176818e-10  14415.289      5265.0216      930363.27      3.114847e-07   9.9651917e-09  3.0151951e-07  12233792     
   2838000   6.1198382e-10  14415.388      5265.2273      930352.7       3.1148537e-07  9.9637879e-09  3.0152158e-07  12233864     
   2839000   6.1219946e-10  14415.228      5265.14        930345.17      3.1148442e-07  9.9662005e-09  3.0151822e-07  12233733     
   2840000   6.124151e-10   14415.292      5265.1386      930351.83      3.1148399e-07  9.9644229e-09  3.0151957e-07  12233726     
   2841000   6.1263074e-10  14415.525      5265.4463      930344.59      3.114839e-07   9.9594572e-09  3.0152444e-07  12233808     
   2842000   6.1284638e-10  14415.006      5265.2218      930314.61      3.1148356e-07  9.9699705e-09  3.0151359e-07  12233565     
   2843000   6.1306202e-10  14415.43       5265.7293      930306.67      3.1148317e-07  9.9607204e-09  3.0152245e-07  12233702     
   2844000   6.1327766e-10  14415.565      5265.8223      930311.01      3.1148291e-07  9.9576284e-09  3.0152528e-07  12233719     
   2845000   6.134933e-10   14415.171      5265.6542      930287.94      3.1148331e-07  9.9662838e-09  3.0151703e-07  12233596     
   2846000   6.1370894e-10  14415.298      5265.8889      930277.33      3.1148429e-07  9.9645963e-09  3.0151969e-07  12233740     
   2847000   6.1392457e-10  14415.322      5266.0205      930266.6       3.1148469e-07  9.9644896e-09  3.015202e-07   12233803     
   2848000   6.1414021e-10  14415.324      5266.442       930224.59      3.1148718e-07  9.9669451e-09  3.0152023e-07  12233960     
   2849000   6.1435585e-10  14415.552      5266.7685      930214.99      3.114865e-07   9.9614941e-09  3.0152501e-07  12234007     
   2850000   6.1457149e-10  14415.444      5266.783       930202.61      3.114875e-07   9.9647559e-09  3.0152275e-07  12234026     
   2851000   6.1478713e-10  14415.423      5266.7747      930201.3       3.1148659e-07  9.9642871e-09  3.015223e-07   12233994     
   2852000   6.1500277e-10  14415.173      5266.6729      930186.23      3.1148663e-07  9.9695512e-09  3.0151708e-07  12233902     
   2853000   6.1521841e-10  14415.507      5267.0196      930185.32      3.1148584e-07  9.9617649e-09  3.0152407e-07  12233981     
   2854000   6.1543405e-10  14415.298      5267.1269      930153.44      3.1148633e-07  9.966632e-09   3.015197e-07   12233929     
   2855000   6.1564969e-10  14415.315      5267.0701      930160.84      3.1148612e-07  9.9660687e-09  3.0152005e-07  12233927     
   2856000   6.1586533e-10  14415.239      5267.0156      930158.6       3.1148582e-07  9.9673592e-09  3.0151846e-07  12233862     
   2857000   6.1608097e-10  14415.5        5267.4658      930139.92      3.1148539e-07  9.9614692e-09  3.0152392e-07  12233929     
   2858000   6.162966e-10   14415.405      5267.585       930118.33      3.1148512e-07  9.9632007e-09  3.0152192e-07  12233864     
   2859000   6.1651224e-10  14414.985      5267.334       930101.06      3.1148551e-07  9.9723634e-09  3.0151315e-07  12233724     
   2860000   6.1672788e-10  14415.052      5267.4252      930098.67      3.1148561e-07  9.9710716e-09  3.0151454e-07  12233747     
   2861000   6.1694352e-10  14415.327      5267.8199      930086.97      3.1148457e-07  9.9642771e-09  3.015203e-07   12233778     
   2862000   6.1715916e-10  14415.666      5268.2574      930077.49      3.1148385e-07  9.9564503e-09  3.015274e-07   12233847     
   2863000   6.173748e-10   14415.694      5268.256       930080.47      3.1148367e-07  9.9556871e-09  3.0152798e-07  12233827     
   2864000   6.1759044e-10  14415.322      5267.8718      930081.3       3.1148455e-07  9.9643478e-09  3.015202e-07   12233739     
   2865000   6.1780608e-10  14415.188      5267.8657      930068.36      3.1148505e-07  9.9676491e-09  3.015174e-07   12233720     
   2866000   6.1802172e-10  14415.599      5268.4432      930052.13      3.1148493e-07  9.9589287e-09  3.01526e-07    12233872     
   2867000   6.1823736e-10  14415.485      5268.5463      930030.23      3.1148391e-07  9.9603085e-09  3.015236e-07   12233780     
   2868000   6.18453e-10    14415.259      5268.5057      930011.42      3.114835e-07   9.9646293e-09  3.0151887e-07  12233687     
   2869000   6.1866864e-10  14415.321      5268.7231      929995.99      3.1148437e-07  9.96419e-09    3.0152018e-07  12233769     
   2870000   6.1888427e-10  14415.584      5269.0101      929993.86      3.1148431e-07  9.9586215e-09  3.0152568e-07  12233853     
   2871000   6.1909991e-10  14415.216      5268.7859      929979.05      3.1148567e-07  9.9676915e-09  3.0151797e-07  12233794     
   2872000   6.1931555e-10  14415.469      5269.4028      929942.9       3.1148618e-07  9.9629076e-09  3.0152327e-07  12233943     
   2873000   6.1953119e-10  14415.28       5269.1586      929948.19      3.1148585e-07  9.9665392e-09  3.0151931e-07  12233847     
   2874000   6.1974683e-10  14415.373      5269.2217      929951.33      3.114846e-07   9.9633314e-09  3.0152126e-07  12233794     
   2875000   6.1996247e-10  14415.236      5269.1305      929946.61      3.1148443e-07  9.9660262e-09  3.015184e-07   12233736     
   2876000   6.2017811e-10  14415.301      5269.1751      929948.74      3.1148402e-07  9.9642521e-09  3.0151976e-07  12233763     
   2877000   6.2039375e-10  14414.946      5269.2132      929909.02      3.1148345e-07  9.971118e-09   3.0151234e-07  12233598     
   2878000   6.2060939e-10  14415.001      5269.4201      929893.82      3.1148389e-07  9.9704177e-09  3.0151348e-07  12233636     
   2879000   6.2082503e-10  14415.46       5269.7622      929906.03      3.114847e-07   9.9616145e-09  3.0152309e-07  12233845     
   2880000   6.2104067e-10  14415.357      5269.8268      929889.16      3.1148455e-07  9.9636173e-09  3.0152094e-07  12233766     
   2881000   6.212563e-10   14415.604      5270.1468      929882.02      3.1148488e-07  9.9587925e-09  3.0152608e-07  12233867     
   2882000   6.2147194e-10  14415.507      5270.2661      929860.31      3.1148508e-07  9.9610134e-09  3.0152406e-07  12233861     
   2883000   6.2168758e-10  14414.722      5269.7158      929836.06      3.1148585e-07  9.9781959e-09  3.0150765e-07  12233607     
   2884000   6.2190322e-10  14415.26       5270.4144      929820.47      3.1148574e-07  9.9668485e-09  3.0151889e-07  12233815     
   2885000   6.2211886e-10  14415.469      5270.6143      929821.57      3.1148471e-07  9.9614487e-09  3.0152326e-07  12233825     
   2886000   6.223345e-10   14415.539      5270.6487      929825.29      3.1148477e-07  9.9600295e-09  3.0152474e-07  12233856     
   2887000   6.2255014e-10  14415.074      5270.0573      929837.4       3.1148427e-07  9.9692657e-09  3.01515e-07    12233643     
   2888000   6.2276578e-10  14415.194      5270.2678      929828.53      3.1148434e-07  9.9668141e-09  3.0151753e-07  12233703     
   2889000   6.2298142e-10  14415.508      5270.8082      929806.12      3.1148333e-07  9.9592558e-09  3.0152408e-07  12233772     
   2890000   6.2319706e-10  14415.304      5270.6179      929804.54      3.1148312e-07  9.9633129e-09  3.0151981e-07  12233674     
   2891000   6.234127e-10   14415.141      5270.6906      929780.84      3.1148435e-07  9.9679398e-09  3.0151641e-07  12233682     
   2892000   6.2362833e-10  14415.19       5270.7348      929781.36      3.1148448e-07  9.9670466e-09  3.0151744e-07  12233695     
   2893000   6.2384397e-10  14415.135      5270.7801      929771.26      3.1148376e-07  9.9674759e-09  3.0151628e-07  12233632     
   2894000   6.2405961e-10  14415.192      5270.992       929755.78      3.1148375e-07  9.9662806e-09  3.0151747e-07  12233663     
   2895000   6.2427525e-10  14415.135      5270.9044      929758.83      3.1148395e-07  9.9676588e-09  3.0151629e-07  12233655     
   2896000   6.2449089e-10  14415.687      5271.4703      929757.97      3.1148536e-07  9.9575333e-09  3.0152783e-07  12233951     
   2897000   6.2470653e-10  14415.727      5271.5124      929757.75      3.1148449e-07  9.9558345e-09  3.0152865e-07  12233909     
   2898000   6.2492217e-10  14415.702      5271.6786      929738.68      3.1148448e-07  9.9563286e-09  3.0152815e-07  12233896     
   2899000   6.2513781e-10  14415.665      5271.5837      929744.41      3.1148482e-07  9.9574471e-09  3.0152737e-07  12233910     
   2900000   6.2535345e-10  14415.339      5271.2204      929747.77      3.1148519e-07  9.9646503e-09  3.0152054e-07  12233830     
   2901000   6.2556909e-10  14414.858      5270.8808      929733.17      3.1148644e-07  9.9759487e-09  3.0151049e-07  12233744     
   2902000   6.2578473e-10  14415.051      5271.0685      929733.89      3.1148529e-07  9.9707593e-09  3.0151453e-07  12233759     
   2903000   6.2600037e-10  14415.419      5271.5572      929722.18      3.1148506e-07  9.9628372e-09  3.0152222e-07  12233865     
   2904000   6.26216e-10    14415.508      5271.6719      929719.71      3.1148422e-07  9.9601322e-09  3.0152409e-07  12233831     
   2905000   6.2643164e-10  14415.714      5271.942       929713.53      3.1148328e-07  9.9548788e-09  3.015284e-07   12233829     
   2906000   6.2664728e-10  14415.622      5272.0958      929688.82      3.1148376e-07  9.9572852e-09  3.0152648e-07  12233805     
   2907000   6.2686292e-10  14415.365      5272.4218      929630.21      3.1148378e-07  9.9626846e-09  3.015211e-07   12233694     
   2908000   6.2707856e-10  14415.324      5272.4383      929624.36      3.1148328e-07  9.9630514e-09  3.0152023e-07  12233646     
   2909000   6.272942e-10   14415.419      5272.606       929617.24      3.1148308e-07  9.9608501e-09  3.0152223e-07  12233666     
   2910000   6.2750984e-10  14415.548      5274.0291      929487.74      3.1148273e-07  9.9578229e-09  3.0152491e-07  12233693     
   2911000   6.2772548e-10  14415.643      5274.1209      929488.24      3.1148293e-07  9.9560127e-09  3.0152692e-07  12233746     
   2912000   6.2794112e-10  14415.753      5274.3255      929478.89      3.1148266e-07  9.9534458e-09  3.0152922e-07  12233761     
   2913000   6.2815676e-10  14415.811      5274.3406      929483.16      3.1148191e-07  9.9514999e-09  3.0153041e-07  12233710     
   2914000   6.283724e-10   14415.75       5274.3815      929472.98      3.1148217e-07  9.9530172e-09  3.0152916e-07  12233692     
   2915000   6.2858803e-10  14415.513      5274.1418      929472.96      3.1148258e-07  9.9583934e-09  3.0152419e-07  12233629     
   2916000   6.2880367e-10  14415.933      5274.7914      929450.43      3.1148299e-07  9.9500133e-09  3.0153298e-07  12233830     
   2917000   6.2901931e-10  14415.994      5274.9487      929440.78      3.1148342e-07  9.9491765e-09  3.0153424e-07  12233885     
   2918000   6.2923495e-10  14415.394      5274.659       929409.13      3.1148392e-07  9.9622299e-09  3.0152169e-07  12233694     
   2919000   6.2945059e-10  14415.391      5274.7592      929398.84      3.1148386e-07  9.9622266e-09  3.0152164e-07  12233720     
   2920000   6.2966623e-10  14415.601      5274.8923      929406.74      3.1148397e-07  9.9579382e-09  3.0152603e-07  12233825     
   2921000   6.2988187e-10  14415.347      5274.7652      929393.78      3.1148415e-07  9.9634354e-09  3.0152072e-07  12233769     
   2922000   6.3009751e-10  14415.197      5274.6552      929389.61      3.1148406e-07  9.9664865e-09  3.0151757e-07  12233749     
   2923000   6.3031315e-10  14415.068      5274.6654      929375.52      3.1148514e-07  9.9702696e-09  3.0151487e-07  12233780     
   2924000   6.3052879e-10  14414.866      5274.42        929379.68      3.1148445e-07  9.9737955e-09  3.0151065e-07  12233654     
   2925000   6.3074443e-10  14414.903      5274.6356      929361.82      3.1148451e-07  9.9730859e-09  3.0151142e-07  12233662     
   2926000   6.3096007e-10  14415.266      5275.0673      929355.38      3.1148444e-07  9.9654068e-09  3.0151903e-07  12233788     
   2927000   6.311757e-10   14415.412      5275.324       929344.42      3.1148442e-07  9.9623449e-09  3.0152208e-07  12233818     
   2928000   6.3139134e-10  14415.535      5275.566       929332.6       3.1148396e-07  9.9593171e-09  3.0152464e-07  12233815     
   2929000   6.3160698e-10  14415.363      5275.425       929329.35      3.1148418e-07  9.9631318e-09  3.0152105e-07  12233747     
   2930000   6.3182262e-10  14415.363      5275.604       929311.48      3.1148352e-07  9.9624613e-09  3.0152106e-07  12233717     
   2931000   6.3203826e-10  14415.26       5275.5689      929304.56      3.1148342e-07  9.9645185e-09  3.015189e-07   12233664     
   2932000   6.322539e-10   14415.122      5275.51        929296.43      3.1148308e-07  9.9670775e-09  3.01516e-07    12233556     
   2933000   6.3246954e-10  14415.694      5276.2502      929280.22      3.1148338e-07  9.9554044e-09  3.0152798e-07  12233787     
   2934000   6.3268518e-10  14415.523      5276.0201      929285.94      3.114834e-07   9.9590055e-09  3.0152439e-07  12233733     
   2935000   6.3290082e-10  14415.581      5276.3994      929253.86      3.1148287e-07  9.9572555e-09  3.0152561e-07  12233743     
   2936000   6.3311646e-10  14415.701      5276.5639      929249.55      3.1148412e-07  9.9559966e-09  3.0152813e-07  12233866     
   2937000   6.333321e-10   14415.493      5276.4441      929240.53      3.1148394e-07  9.9601561e-09  3.0152378e-07  12233763     
   2938000   6.3354773e-10  14415.791      5276.7538      929239.63      3.1148386e-07  9.9538529e-09  3.0153001e-07  12233870     
   2939000   6.3376337e-10  14415.794      5276.6831      929247.02      3.1148346e-07  9.9533927e-09  3.0153007e-07  12233833     
   2940000   6.3397901e-10  14415.736      5276.8062      929228.77      3.1148329e-07  9.9544477e-09  3.0152885e-07  12233791     
   2941000   6.3419465e-10  14415.92       5276.9839      929229.6       3.114835e-07   9.9507992e-09  3.015327e-07   12233879     
   2942000   6.3441029e-10  14415.833      5276.9962      929219.6       3.1148374e-07  9.9528566e-09  3.0153088e-07  12233858     
   2943000   6.3462593e-10  14415.6        5276.7971      929215.92      3.1148384e-07  9.9578422e-09  3.01526e-07    12233785     
   2944000   6.3484157e-10  14415.217      5276.6286      929194.15      3.1148427e-07  9.9662617e-09  3.0151801e-07  12233686     
   2945000   6.3505721e-10  14415.448      5276.9485      929185.49      3.1148362e-07  9.9607857e-09  3.0152284e-07  12233761     
   2946000   6.3527285e-10  14415.396      5277.887       929086.24      3.1148361e-07  9.9618643e-09  3.0152174e-07  12233742     
   2947000   6.3548849e-10  14415.198      5277.7788      929077.09      3.114839e-07   9.9662928e-09  3.0151761e-07  12233675     
   2948000   6.3570413e-10  14415.577      5278.1478      929078.48      3.1148304e-07  9.9575078e-09  3.0152554e-07  12233746     
   2949000   6.3591976e-10  14415.776      5278.2773      929085.62      3.1148277e-07  9.9530741e-09  3.0152969e-07  12233777     
   2950000   6.361354e-10   14415.718      5278.2502      929082.4       3.1148169e-07  9.9532225e-09  3.0152847e-07  12233660     
   2951000   6.3635104e-10  14415.875      5278.6074      929062.54      3.1148182e-07  9.9500579e-09  3.0153176e-07  12233709     
   2952000   6.3656668e-10  14415.844      5278.6832      929051.87      3.1148184e-07  9.9507185e-09  3.0153112e-07  12233719     
   2953000   6.3678232e-10  14415.622      5278.5569      929042.06      3.1148261e-07  9.9561379e-09  3.0152647e-07  12233701     
   2954000   6.3699796e-10  14415.586      5278.614       929032.69      3.1148325e-07  9.9575321e-09  3.0152572e-07  12233741     
   2955000   6.372136e-10   14415.731      5278.8501      929023.68      3.114838e-07   9.9550592e-09  3.0152874e-07  12233850     
   2956000   6.3742924e-10  14415.47       5278.7735      929004.95      3.1148372e-07  9.9604397e-09  3.0152328e-07  12233735     
   2957000   6.3764488e-10  14415.605      5279.0643      928989.56      3.1148342e-07  9.9573015e-09  3.0152612e-07  12233766     
   2958000   6.3786052e-10  14415.561      5279.1078      928980.7       3.1148349e-07  9.9583047e-09  3.0152519e-07  12233751     
   2959000   6.3807616e-10  14415.769      5279.4601      928966.46      3.1148416e-07  9.9546177e-09  3.0152954e-07  12233879     
   2960000   6.382918e-10   14415.712      5279.3764      928969.09      3.1148308e-07  9.9547289e-09  3.0152835e-07  12233798     
   2961000   6.3850743e-10  14415.603      5279.3562      928960.14      3.1148295e-07  9.9568726e-09  3.0152608e-07  12233741     
   2962000   6.3872307e-10  14415.81       5279.5462      928961.98      3.1148238e-07  9.9519917e-09  3.0153039e-07  12233781     
   2963000   6.3893871e-10  14415.833      5279.6377      928955.2       3.1148254e-07  9.9516573e-09  3.0153089e-07  12233806     
   2964000   6.3915435e-10  14415.437      5279.5901      928919.87      3.1148281e-07  9.960224e-09   3.0152259e-07  12233672     
   2965000   6.3936999e-10  14415.393      5279.5422      928920.23      3.1148304e-07  9.9613634e-09  3.0152167e-07  12233685     
   2966000   6.3958563e-10  14415.433      5279.6743      928911.1       3.1148309e-07  9.9605675e-09  3.0152252e-07  12233721     
   2967000   6.3980127e-10  14415.289      5279.5475      928909.26      3.1148264e-07  9.9631275e-09  3.0151951e-07  12233618     
   2968000   6.4001691e-10  14415.18       5279.3755      928915.38      3.1148322e-07  9.9660055e-09  3.0151722e-07  12233585     
   2969000   6.4023255e-10  14415.864      5280.1938      928902.6       3.1148331e-07  9.95179e-09    3.0153152e-07  12233846     
   2970000   6.4044819e-10  14415.85       5280.3007      928890.58      3.1148434e-07  9.953094e-09   3.0153125e-07  12233899     
   2971000   6.4066383e-10  14415.397      5280.0606      928868.79      3.1148448e-07  9.9627108e-09  3.0152177e-07  12233740     
   2972000   6.4087946e-10  14415.747      5280.4109      928869.12      3.114838e-07   9.9547078e-09  3.0152909e-07  12233846     
   2973000   6.410951e-10   14416.014      5280.8331      928853.8       3.1148415e-07  9.9494923e-09  3.0153466e-07  12233975     
   2974000   6.4131074e-10  14415.555      5280.4693      928843.81      3.1148385e-07  9.95879e-09    3.0152506e-07  12233780     
   2975000   6.4152638e-10  14415.657      5280.5259      928848.5       3.1148381e-07  9.9566067e-09  3.0152721e-07  12233813     
   2976000   6.4174202e-10  14415.624      5280.7439      928823.37      3.1148381e-07  9.9572905e-09  3.0152652e-07  12233787     
   2977000   6.4195766e-10  14415.683      5280.9161      928812.01      3.1148436e-07  9.956618e-09   3.0152774e-07  12233834     
   2978000   6.421733e-10   14415.859      5281.0189      928819.55      3.1148329e-07  9.9518697e-09  3.0153142e-07  12233826     
   2979000   6.4238894e-10  14416.136      5281.6397      928785.39      3.1148436e-07  9.9471442e-09  3.0153722e-07  12233984     
   2980000   6.4260458e-10  14416.054      5281.5033      928790.79      3.1148374e-07  9.9482356e-09  3.0153551e-07  12233928     
   2981000   6.4282022e-10  14415.712      5281.2228      928784.33      3.1148304e-07  9.9546772e-09  3.0152836e-07  12233777     
   2982000   6.4303586e-10  14415.55       5281.1174      928778.5       3.1148314e-07  9.9581654e-09  3.0152497e-07  12233729     
   2983000   6.4325149e-10  14415.682      5281.176       928785.97      3.1148437e-07  9.9566368e-09  3.0152773e-07  12233853     
   2984000   6.4346713e-10  14415.938      5281.7224      928757.14      3.1148296e-07  9.9498742e-09  3.0153308e-07  12233873     
   2985000   6.4368277e-10  14415.775      5281.6508      928747.78      3.114836e-07   9.9539322e-09  3.0152967e-07  12233846     
   2986000   6.4389841e-10  14415.785      5281.6387      928750.01      3.114842e-07   9.9543284e-09  3.0152987e-07  12233894     
   2987000   6.4411405e-10  14415.787      5281.6489      928749.26      3.114839e-07   9.9539665e-09  3.0152993e-07  12233892     
   2988000   6.4432969e-10  14415.797      5281.9595      928719.09      3.1148412e-07  9.9539957e-09  3.0153012e-07  12233911     
   2989000   6.4454533e-10  14415.86       5282.2612      928695.29      3.1148476e-07  9.9533152e-09  3.0153144e-07  12233976     
   2990000   6.4476097e-10  14415.856      5282.3307      928687.97      3.1148466e-07  9.9532964e-09  3.0153137e-07  12233955     
   2991000   6.4497661e-10  14415.577      5282.3296      928659.83      3.1148543e-07  9.9599024e-09  3.0152552e-07  12233880     
   2992000   6.4519225e-10  14416.166      5283.201       928632.19      3.114854e-07   9.9475461e-09  3.0153785e-07  12234118     
   2993000   6.4540789e-10  14415.571      5282.6319      928628.99      3.1148498e-07  9.9595762e-09  3.015254e-07   12233866     
   2994000   6.4562353e-10  14415.533      5282.6036      928627.93      3.1148468e-07  9.9600837e-09  3.015246e-07   12233852     
   2995000   6.4583916e-10  14415.551      5282.6921      928620.9       3.1148496e-07  9.9599847e-09  3.0152498e-07  12233890     
   2996000   6.460548e-10   14415.35       5282.6553      928604.3       3.1148389e-07  9.9631089e-09  3.0152078e-07  12233748     
   2997000   6.4627044e-10  14415.461      5282.6307      928618         3.1148316e-07  9.9600546e-09  3.0152311e-07  12233721     
   2998000   6.4648608e-10  14415.812      5283.3676      928579.73      3.1148385e-07  9.9534048e-09  3.0153045e-07  12233870     
   2999000   6.4670172e-10  14415.919      5283.6887      928558.37      3.1148434e-07  9.9516639e-09  3.0153268e-07  12233919     
   3000000   6.4691736e-10  14415.454      5283.3628      928544.02      3.1148312e-07  9.9601525e-09  3.0152296e-07  12233667     
   3001000   6.47133e-10    14415.343      5283.341       928534.98      3.1148293e-07  9.962292e-09   3.0152064e-07  12233634     
   3002000   6.4734864e-10  14415.105      5283.2121      928523.82      3.1148399e-07  9.9683325e-09  3.0151566e-07  12233631     
   3003000   6.4756428e-10  14414.829      5283.0242      928514.68      3.1148362e-07  9.973745e-09   3.0150988e-07  12233530     
   3004000   6.4777992e-10  14414.953      5283.1226      928517.39      3.1148473e-07  9.9722489e-09  3.0151248e-07  12233664     
   3005000   6.4799556e-10  14415.089      5283.464       928496.94      3.114848e-07   9.9694847e-09  3.0151532e-07  12233750     
   3006000   6.4821119e-10  14414.82       5283.2049      928495.65      3.114844e-07   9.9747181e-09  3.0150969e-07  12233637     
   3007000   6.4842683e-10  14414.594      5283.0433      928488.99      3.114845e-07   9.9795387e-09  3.0150496e-07  12233555     
   3008000   6.4864247e-10  14414.96       5283.4651      928483.77      3.1148444e-07  9.9718205e-09  3.0151262e-07  12233678     
   3009000   6.4885811e-10  14415.229      5283.998       928457.7       3.1148435e-07  9.9660892e-09  3.0151826e-07  12233753     
   3010000   6.4907375e-10  14415.422      5283.9828      928478.65      3.1148394e-07  9.9616588e-09  3.0152228e-07  12233786     
   3011000   6.4928939e-10  14415.089      5283.8945      928453.86      3.1148331e-07  9.9679932e-09  3.0151532e-07  12233614     
   3012000   6.4950503e-10  14415.182      5283.9877      928453.94      3.1148359e-07  9.966322e-09   3.0151727e-07  12233647     
   3013000   6.4972067e-10  14415.371      5284.3526      928436.57      3.1148241e-07  9.9611821e-09  3.0152123e-07  12233616     
   3014000   6.4993631e-10  14415.641      5284.5433      928444.73      3.1148127e-07  9.9544026e-09  3.0152687e-07  12233623     
   3015000   6.5015195e-10  14415.913      5285.2542      928401.04      3.1148074e-07  9.9481875e-09  3.0153255e-07  12233691     
   3016000   6.5036759e-10  14415.72       5285.1142      928395.58      3.1148165e-07  9.9531298e-09  3.0152852e-07  12233661     
   3017000   6.5058322e-10  14415.836      5285.5971      928358.93      3.1148112e-07  9.9501815e-09  3.0153094e-07  12233665     
   3018000   6.5079886e-10  14416.048      5285.7844      928361.68      3.1148153e-07  9.9461395e-09  3.0153539e-07  12233764     
   3019000   6.510145e-10   14416.085      5285.8792      928355.86      3.1148157e-07  9.9454243e-09  3.0153615e-07  12233780     
   3020000   6.5123014e-10  14416.179      5286.0248      928350.83      3.1148293e-07  9.9448115e-09  3.0153812e-07  12233908     
   3021000   6.5144578e-10  14415.705      5285.5728      928348.17      3.1148306e-07  9.9548477e-09  3.0152821e-07  12233745     
   3022000   6.5166142e-10  14415.852      5285.9463      928325.62      3.1148272e-07  9.9514412e-09  3.0153128e-07  12233807     
   3023000   6.5187706e-10  14415.763      5286.0875      928302.46      3.1148351e-07  9.9541017e-09  3.0152941e-07  12233839     
   3024000   6.520927e-10   14415.541      5285.9558      928293.18      3.1148363e-07  9.9588673e-09  3.0152477e-07  12233772     
   3025000   6.5230834e-10  14415.406      5285.9209      928283.02      3.1148272e-07  9.9607798e-09  3.0152194e-07  12233659     
   3026000   6.5252398e-10  14415.774      5286.3004      928282.27      3.1148415e-07  9.9545064e-09  3.0152964e-07  12233891     
   3027000   6.5273962e-10  14415.557      5286.015       928288.97      3.1148365e-07  9.9585337e-09  3.0152512e-07  12233783     
   3028000   6.5295526e-10  14415.46       5285.9         928290.62      3.1148472e-07  9.9616459e-09  3.0152308e-07  12233810     
   3029000   6.5317089e-10  14415.695      5286.2132      928283.05      3.1148437e-07  9.9563707e-09  3.01528e-07    12233889     
   3030000   6.5338653e-10  14415.79       5286.6222      928251.69      3.1148347e-07  9.953484e-09   3.0152998e-07  12233869     
   3031000   6.5360217e-10  14416.056      5286.8878      928252         3.1148388e-07  9.948332e-09   3.0153555e-07  12233976     
   3032000   6.5381781e-10  14415.987      5287.0484      928228.98      3.1148359e-07  9.9494789e-09  3.0153411e-07  12233934     
   3033000   6.5403345e-10  14415.099      5286.3614      928207.96      3.1148318e-07  9.9676438e-09  3.0151553e-07  12233567     
   3034000   6.5424909e-10  14415.135      5286.383       928209.38      3.1148385e-07  9.9675782e-09  3.0151628e-07  12233619     
   3035000   6.5446473e-10  14415.277      5286.5872      928203.3       3.114834e-07   9.9641512e-09  3.0151925e-07  12233661     
   3036000   6.5468037e-10  14415.629      5286.9066      928206.9       3.1148493e-07  9.9583292e-09  3.0152661e-07  12233899     
   3037000   6.5489601e-10  14415.863      5287.178       928203.41      3.1148491e-07  9.9534062e-09  3.0153151e-07  12233996     
   3038000   6.5511165e-10  14415.777      5287.3067      928181.88      3.1148436e-07  9.9546429e-09  3.0152972e-07  12233925     
   3039000   6.5532729e-10  14415.637      5287.2892      928169.41      3.1148356e-07  9.9567874e-09  3.0152677e-07  12233825     
   3040000   6.5554292e-10  14415.635      5287.4031      928157.87      3.1148346e-07  9.9567141e-09  3.0152674e-07  12233818     
   3041000   6.5575856e-10  14415.675      5287.5844      928143.72      3.1148388e-07  9.9563131e-09  3.0152757e-07  12233860     
   3042000   6.559742e-10   14415.422      5287.2195      928154.73      3.1148458e-07  9.9622916e-09  3.0152229e-07  12233821     
   3043000   6.5618984e-10  14415.29       5287.3082      928132.51      3.1148464e-07  9.9651102e-09  3.0151953e-07  12233791     
   3044000   6.5640548e-10  14415.473      5287.5363      928128.13      3.1148528e-07  9.9619296e-09  3.0152335e-07  12233895     
   3045000   6.5662112e-10  14415.352      5287.458       928123.78      3.1148505e-07  9.964223e-09   3.0152083e-07  12233812     
   3046000   6.5683676e-10  14415.357      5287.5591      928114.19      3.1148378e-07  9.9628476e-09  3.0152094e-07  12233721     
   3047000   6.570524e-10   14415.405      5287.7308      928101.77      3.1148317e-07  9.9612449e-09  3.0152192e-07  12233684     
   3048000   6.5726804e-10  14415.688      5288.011       928102.32      3.1148452e-07  9.9566815e-09  3.0152784e-07  12233867     
   3049000   6.5748368e-10  14415.842      5288.3306      928085.91      3.1148315e-07  9.9520846e-09  3.0153106e-07  12233853     
   3050000   6.5769932e-10  14415.34       5287.9745      928070.86      3.1148252e-07  9.9619465e-09  3.0152057e-07  12233622     
   3051000   6.5791496e-10  14415.696      5288.0892      928095.38      3.1148182e-07  9.9537994e-09  3.0152802e-07  12233717     
   3052000   6.5813059e-10  14415.443      5287.9293      928085.72      3.1148208e-07  9.9593696e-09  3.0152271e-07  12233629     
   3053000   6.5834623e-10  14415.811      5288.378       928078.04      3.1148315e-07  9.9527338e-09  3.0153042e-07  12233840     
   3054000   6.5856187e-10  14415.664      5288.2898      928072.02      3.1148392e-07  9.9565774e-09  3.0152735e-07  12233835     
   3055000   6.5877751e-10  14415.412      5288.2031      928055.21      3.1148491e-07  9.9628353e-09  3.0152207e-07  12233808     
   3056000   6.5899315e-10  14415.303      5288.0034      928064.25      3.1148461e-07  9.9647996e-09  3.0151981e-07  12233759     
   3057000   6.5920879e-10  14415.723      5288.5641      928050.56      3.1148315e-07  9.9545607e-09  3.0152859e-07  12233849     
   3058000   6.5942443e-10  14415.656      5288.6212      928038.02      3.1148335e-07  9.9561718e-09  3.0152717e-07  12233833     
   3059000   6.5964007e-10  14415.136      5288.1321      928034.39      3.1148362e-07  9.9673246e-09  3.015163e-07   12233642     
   3060000   6.5985571e-10  14415.69       5288.8526      928018.34      3.114843e-07   9.9564053e-09  3.0152789e-07  12233872     
   3061000   6.6007135e-10  14415.546      5288.9102      927998.03      3.1148361e-07  9.958724e-09   3.0152489e-07  12233738     
   3062000   6.6028699e-10  14416.087      5289.3746      928006.23      3.1148405e-07  9.9478537e-09  3.015362e-07   12233960     
   3063000   6.6050262e-10  14416.004      5289.1822      928017.1       3.114837e-07   9.9492305e-09  3.0153446e-07  12233893     
   3064000   6.6071826e-10  14415.37       5288.4873      928022.59      3.1148322e-07  9.9620121e-09  3.0152121e-07  12233649     
   3065000   6.609339e-10   14415.37       5288.6433      928006.9       3.1148338e-07  9.9621917e-09  3.0152119e-07  12233711     
   3066000   6.6114954e-10  14415.374      5288.7758      927994.04      3.1148426e-07  9.962986e-09   3.0152128e-07  12233800     
   3067000   6.6136518e-10  14415.575      5289.2369      927968.27      3.1148485e-07  9.9593513e-09  3.015255e-07   12233918     
   3068000   6.6158082e-10  14415.126      5288.8735      927959.2       3.1148512e-07  9.9690313e-09  3.0151609e-07  12233752     
   3069000   6.6179646e-10  14415.468      5289.2046      927960.64      3.1148475e-07  9.9614986e-09  3.0152325e-07  12233854     
   3070000   6.620121e-10   14415.638      5289.5164      927946.64      3.114841e-07   9.9572937e-09  3.0152681e-07  12233846     
   3071000   6.6222774e-10  14415.759      5289.6254      927947.99      3.1148303e-07  9.9536912e-09  3.0152934e-07  12233808     
   3072000   6.6244338e-10  14415.843      5289.7571      927943.28      3.1148316e-07  9.9520665e-09  3.015311e-07   12233842     
   3073000   6.6265902e-10  14415.979      5290.0739      927925.27      3.1148299e-07  9.9490611e-09  3.0153393e-07  12233865     
   3074000   6.6287465e-10  14416.007      5289.9767      927937.87      3.1148252e-07  9.9479929e-09  3.0153453e-07  12233830     
   3075000   6.6309029e-10  14415.919      5289.9148      927935.12      3.1148276e-07  9.9500872e-09  3.0153267e-07  12233793     
   3076000   6.6330593e-10  14415.752      5289.9077      927918.98      3.1148299e-07  9.9538059e-09  3.0152919e-07  12233758     
   3077000   6.6352157e-10  14415.695      5290.0442      927899.51      3.1148203e-07  9.95404e-09    3.0152799e-07  12233742     
   3078000   6.6373721e-10  14415.356      5289.6681      927902.97      3.1148237e-07  9.96145e-09    3.0152092e-07  12233659     
   3079000   6.6395285e-10  14415.278      5289.6579      927896.07      3.1148322e-07  9.9639467e-09  3.0151928e-07  12233687     
   3080000   6.6416849e-10  14415.355      5289.7558      927894         3.114838e-07   9.9629286e-09  3.0152087e-07  12233745     
   3081000   6.6438413e-10  14415.268      5289.8187      927878.9       3.1148381e-07  9.9647525e-09  3.0151905e-07  12233689     
   3082000   6.6459977e-10  14415.295      5290.0277      927860.75      3.1148417e-07  9.9645446e-09  3.0151963e-07  12233689     
   3083000   6.6481541e-10  14415.482      5290.3665      927845.75      3.1148474e-07  9.9612005e-09  3.0152354e-07  12233780     
   3084000   6.6503105e-10  14416.022      5290.7531      927861.68      3.1148393e-07  9.9490876e-09  3.0153484e-07  12233934     
   3085000   6.6524669e-10  14415.868      5291.1325      927808.07      3.1148357e-07  9.9519635e-09  3.0153161e-07  12233865     
   3086000   6.6546232e-10  14415.457      5290.6972      927810.13      3.1148353e-07  9.9605143e-09  3.0152302e-07  12233738     
   3087000   6.6567796e-10  14415.454      5290.8712      927792.41      3.1148273e-07  9.9597736e-09  3.0152296e-07  12233721     
   3088000   6.658936e-10   14415.206      5290.7212      927782.38      3.1148362e-07  9.965843e-09   3.0151778e-07  12233690     
   3089000   6.6610924e-10  14415.372      5290.8533      927785.86      3.1148491e-07  9.9636773e-09  3.0152123e-07  12233809     
   3090000   6.6632488e-10  14415.382      5290.9273      927779.54      3.1148479e-07  9.9633318e-09  3.0152145e-07  12233788     
   3091000   6.6654052e-10  14415.521      5291.2643      927759.8       3.1148484e-07  9.9604924e-09  3.0152435e-07  12233830     
   3092000   6.6675616e-10  14415.765      5291.7892      927731.95      3.1148406e-07  9.9546029e-09  3.0152946e-07  12233873     
   3093000   6.669718e-10   14415.737      5291.8632      927721.67      3.1148465e-07  9.9557879e-09  3.0152887e-07  12233902     
   3094000   6.6718744e-10  14415.368      5291.5079      927719.94      3.1148427e-07  9.9631233e-09  3.0152115e-07  12233751     
   3095000   6.6740308e-10  14415.003      5291.359       927697.97      3.114843e-07   9.9707818e-09  3.0151352e-07  12233640     
   3096000   6.6761872e-10  14415.307      5291.6698      927697.63      3.1148368e-07  9.9637929e-09  3.0151988e-07  12233737     
   3097000   6.6783435e-10  14415.024      5291.5408      927681.9       3.1148447e-07  9.9705128e-09  3.0151396e-07  12233677     
   3098000   6.6804999e-10  14415.247      5291.7404      927684.46      3.1148478e-07  9.9661572e-09  3.0151862e-07  12233778     
   3099000   6.6826563e-10  14415.273      5291.7976      927681.4       3.1148415e-07  9.9649718e-09  3.0151918e-07  12233745     
   3100000   6.6848127e-10  14415.418      5292.1475      927661.05      3.1148375e-07  9.9615426e-09  3.0152221e-07  12233771     
   3101000   6.6869691e-10  14415.51       5292.1979      927665.28      3.1148313e-07  9.9590039e-09  3.0152413e-07  12233752     
   3102000   6.6891255e-10  14415.771      5292.4517      927666.22      3.1148366e-07  9.9540843e-09  3.0152958e-07  12233866     
   3103000   6.6912819e-10  14415.536      5292.5572      927631.94      3.1148342e-07  9.9587473e-09  3.0152467e-07  12233748     
   3104000   6.6934383e-10  14415.568      5292.5451      927636.42      3.1148326e-07  9.9579087e-09  3.0152535e-07  12233760     
   3105000   6.6955947e-10  14415.545      5292.4511      927643.48      3.1148332e-07  9.9584549e-09  3.0152486e-07  12233759     
   3106000   6.6977511e-10  14415.509      5292.5438      927630.52      3.1148251e-07  9.9584088e-09  3.015241e-07   12233699     
   3107000   6.6999075e-10  14415.393      5292.4397      927629.23      3.1148298e-07  9.9613038e-09  3.0152168e-07  12233685     
   3108000   6.7020638e-10  14415.243      5292.3293      927625.16      3.1148274e-07  9.9641843e-09  3.0151855e-07  12233623     
   3109000   6.7042202e-10  14414.986      5292.4026      927591.78      3.1148336e-07  9.9701989e-09  3.0151316e-07  12233546     
   3110000   6.7063766e-10  14415.121      5292.783       927567.38      3.1148328e-07  9.9672912e-09  3.0151599e-07  12233583     
   3111000   6.708533e-10   14415.549      5293.2348      927565.38      3.1148374e-07  9.958802e-09   3.0152494e-07  12233783     
   3112000   6.7106894e-10  14415.63       5293.2731      927569.74      3.11484e-07    9.9573741e-09  3.0152663e-07  12233833     
   3113000   6.7128458e-10  14415.37       5292.9763      927573.19      3.1148339e-07  9.9621952e-09  3.015212e-07   12233701     
   3114000   6.7150022e-10  14415.463      5293.0859      927571.61      3.1148455e-07  9.9614065e-09  3.0152314e-07  12233810     
   3115000   6.7171586e-10  14415.445      5293.2254      927555.79      3.1148482e-07  9.9620669e-09  3.0152276e-07  12233806     
   3116000   6.719315e-10   14415.516      5293.2722      927558.33      3.1148495e-07  9.9606935e-09  3.0152425e-07  12233845     
   3117000   6.7214714e-10  14415.19       5292.9975      927552.85      3.1148383e-07  9.9664039e-09  3.0151743e-07  12233680     
   3118000   6.7236278e-10  14415.004      5292.9559      927538.23      3.1148433e-07  9.9707854e-09  3.0151354e-07  12233661     
   3119000   6.7257842e-10  14415.188      5293.2037      927532.07      3.1148445e-07  9.967054e-09   3.015174e-07   12233736     
   3120000   6.7279405e-10  14414.971      5293.0314      927527.31      3.114843e-07   9.971451e-09   3.0151285e-07  12233614     
   3121000   6.7300969e-10  14415.402      5293.6917      927504.83      3.1148392e-07  9.9620492e-09  3.0152187e-07  12233742     
   3122000   6.7322533e-10  14415.237      5293.5868      927498.67      3.1148325e-07  9.964831e-09   3.0151842e-07  12233629     
   3123000   6.7344097e-10  14415.542      5293.9005      927498.04      3.1148298e-07  9.9581876e-09  3.0152479e-07  12233718     
   3124000   6.7365661e-10  14415.672      5293.9921      927502.01      3.1148399e-07  9.9564801e-09  3.0152751e-07  12233814     
   3125000   6.7387225e-10  14415.774      5294.1987      927491.73      3.114836e-07   9.9539369e-09  3.0152966e-07  12233846     
   3126000   6.7408789e-10  14415.638      5294.0479      927493.03      3.1148387e-07  9.9570601e-09  3.0152681e-07  12233821     
   3127000   6.7430353e-10  14415.824      5294.239       927492.65      3.114844e-07   9.9537116e-09  3.0153068e-07  12233926     
   3128000   6.7451917e-10  14415.499      5293.9933      927484.4       3.1148499e-07  9.9611041e-09  3.0152389e-07  12233823     
   3129000   6.7473481e-10  14415.637      5294.1119      927486.5       3.1148426e-07  9.9574788e-09  3.0152678e-07  12233836     
   3130000   6.7495045e-10  14415.681      5294.2937      927472.76      3.1148327e-07  9.9555649e-09  3.015277e-07   12233797     
   3131000   6.7516608e-10  14416.025      5294.678       927469.1       3.1148291e-07  9.9480012e-09  3.0153491e-07  12233906     
   3132000   6.7538172e-10  14415.779      5294.3017      927481.87      3.114838e-07   9.9540439e-09  3.0152975e-07  12233865     
   3133000   6.7559736e-10  14415.265      5293.8263      927477.44      3.1148358e-07  9.9645898e-09  3.0151899e-07  12233659     
   3134000   6.75813e-10    14415.187      5293.9081      927461.4       3.1148343e-07  9.9660621e-09  3.0151736e-07  12233633     
   3135000   6.7602864e-10  14415.599      5294.2914      927464.75      3.1148414e-07  9.958142e-09   3.01526e-07    12233840     
   3136000   6.7624428e-10  14415.695      5294.3573      927467.76      3.114834e-07   9.9554184e-09  3.0152799e-07  12233814     
   3137000   6.7645992e-10  14415.715      5294.4304      927462.48      3.114829e-07   9.9544894e-09  3.0152841e-07  12233763     
   3138000   6.7667556e-10  14415.754      5294.5578      927453.71      3.114826e-07   9.9533723e-09  3.0152923e-07  12233754     
   3139000   6.768912e-10   14415.604      5294.4036      927453.98      3.1148267e-07  9.9565736e-09  3.0152609e-07  12233719     
   3140000   6.7710684e-10  14415.655      5294.4777      927451.73      3.1148341e-07  9.9562473e-09  3.0152716e-07  12233807     
   3141000   6.7732248e-10  14415.284      5294.0274      927459.23      3.1148342e-07  9.9640344e-09  3.0151939e-07  12233670     
   3142000   6.7753811e-10  14415.378      5294.291       927442.4       3.1148334e-07  9.9619755e-09  3.0152136e-07  12233697     
   3143000   6.7775375e-10  14415.442      5294.4812      927429.83      3.1148347e-07  9.9607661e-09  3.015227e-07   12233708     
   3144000   6.7796939e-10  14415.906      5294.9031      927434.48      3.1148415e-07  9.951751e-09   3.015324e-07   12233896     
   3145000   6.7818503e-10  14415.614      5294.766       927418.74      3.1148393e-07  9.9576181e-09  3.0152631e-07  12233755     
   3146000   6.7840067e-10  14415.91       5295.1311      927412.12      3.1148364e-07  9.9511451e-09  3.015325e-07   12233878     
   3147000   6.7861631e-10  14415.77       5295.0489      927406.17      3.1148361e-07  9.9540396e-09  3.0152957e-07  12233833     
   3148000   6.7883195e-10  14415.734      5295.078       927399.66      3.1148317e-07  9.9543494e-09  3.0152882e-07  12233794     
   3149000   6.7904759e-10  14415.367      5294.7509      927395.21      3.1148399e-07  9.9628609e-09  3.0152113e-07  12233711     
   3150000   6.7926323e-10  14415.406      5295.0045      927373.77      3.1148409e-07  9.9621485e-09  3.0152194e-07  12233771     
   3151000   6.7947887e-10  14414.902      5294.5666      927366.64      3.1148365e-07  9.9722529e-09  3.015114e-07   12233590     
   3152000   6.7969451e-10  14415.037      5294.8681      927350.12      3.114844e-07   9.9701741e-09  3.0151422e-07  12233698     
   3153000   6.7991015e-10  14415.426      5295.1705      927359.17      3.1148437e-07  9.9620124e-09  3.0152236e-07  12233839     
   3154000   6.8012578e-10  14415.039      5294.8725      927349.95      3.1148499e-07  9.9707078e-09  3.0151428e-07  12233718     
   3155000   6.8034142e-10  14415.28       5295.3591      927325.57      3.1148527e-07  9.9659535e-09  3.0151931e-07  12233824     
   3156000   6.8055706e-10  14415.368      5295.6797      927302.43      3.1148521e-07  9.9640418e-09  3.0152117e-07  12233844     
   3157000   6.807727e-10   14415.374      5295.64        927307.01      3.1148472e-07  9.9634305e-09  3.0152129e-07  12233799     
   3158000   6.8098834e-10  14415.548      5295.7714      927311.35      3.1148425e-07  9.9593374e-09  3.0152491e-07  12233809     
   3159000   6.8120398e-10  14416.001      5296.1115      927323.12      3.1148405e-07  9.9496647e-09  3.0153439e-07  12233961     
   3160000   6.8141962e-10  14415.997      5296.269       927306.96      3.1148447e-07  9.9501619e-09  3.0153431e-07  12233985     
   3161000   6.8163526e-10  14415.894      5296.3231      927291.2       3.1148457e-07  9.9523983e-09  3.0153217e-07  12233972     
   3162000   6.818509e-10   14415.507      5295.9149      927292.85      3.1148513e-07  9.9610723e-09  3.0152406e-07  12233872     
   3163000   6.8206654e-10  14415.568      5295.9659      927293.93      3.1148494e-07  9.9596043e-09  3.0152533e-07  12233880     
   3164000   6.8228218e-10  14415.277      5295.8075      927280.41      3.1148435e-07  9.9650933e-09  3.0151926e-07  12233716     
   3165000   6.8249781e-10  14415.36       5295.9997      927269.57      3.1148371e-07  9.9627134e-09  3.01521e-07    12233717     
   3166000   6.8271345e-10  14415.423      5296.2218      927253.65      3.114843e-07   9.9619951e-09  3.015223e-07   12233778     
   3167000   6.8292909e-10  14415.604      5296.4714      927247.02      3.1148468e-07  9.9585793e-09  3.015261e-07   12233867     
   3168000   6.8314473e-10  14415.716      5296.5709      927248.32      3.1148455e-07  9.9561267e-09  3.0152843e-07  12233880     
   3169000   6.8336037e-10  14415.975      5296.9256      927239.03      3.1148533e-07  9.9514744e-09  3.0153385e-07  12234003     
   3170000   6.8357601e-10  14415.786      5296.7579      927236.76      3.1148485e-07  9.9549447e-09  3.0152991e-07  12233895     
   3171000   6.8379165e-10  14415.898      5297.0081      927223.01      3.114853e-07   9.9530557e-09  3.0153225e-07  12233987     
   3172000   6.8400729e-10  14415.537      5296.829       927204.38      3.1148431e-07  9.9596305e-09  3.0152468e-07  12233799     
   3173000   6.8422293e-10  14415.508      5296.8489      927199.49      3.114846e-07   9.9605169e-09  3.0152408e-07  12233801     
   3174000   6.8443857e-10  14415.847      5297.1944      927199.14      3.114843e-07   9.9531376e-09  3.0153117e-07  12233906     
   3175000   6.8465421e-10  14415.671      5297.5246      927148.34      3.1148384e-07  9.9563446e-09  3.0152749e-07  12233794     
   3176000   6.8486985e-10  14415.329      5297.3238      927133.84      3.1148337e-07  9.9630352e-09  3.0152034e-07  12233633     
   3177000   6.8508548e-10  14415.823      5297.7527      927140.91      3.114838e-07   9.9531183e-09  3.0153068e-07  12233859     
   3178000   6.8530112e-10  14416.059      5298.1211      927127.89      3.1148318e-07  9.9475688e-09  3.0153562e-07  12233933     
   3179000   6.8551676e-10  14415.93       5298.0798      927118.91      3.1148354e-07  9.9506395e-09  3.015329e-07   12233909     
   3180000   6.857324e-10   14415.599      5297.7889      927114.64      3.1148379e-07  9.9577921e-09  3.0152599e-07  12233794     
   3181000   6.8594804e-10  14415.372      5297.4909      927121.51      3.1148337e-07  9.9621273e-09  3.0152124e-07  12233692     
   3182000   6.8616368e-10  14415.377      5297.5034      927120.73      3.1148349e-07  9.962146e-09   3.0152134e-07  12233702     
   3183000   6.8637932e-10  14415.432      5297.708       927105.82      3.1148358e-07  9.9610844e-09  3.0152249e-07  12233712     
   3184000   6.8659496e-10  14415.78       5297.9244      927119.32      3.1148447e-07  9.9546994e-09  3.0152977e-07  12233892     
   3185000   6.868106e-10   14415.705      5297.9086      927113.33      3.1148384e-07  9.9556351e-09  3.015282e-07   12233854     
   3186000   6.8702624e-10  14415.32       5297.8748      927077.78      3.114833e-07   9.9631548e-09  3.0152015e-07  12233701     
   3187000   6.8724188e-10  14415.31       5297.9648      927067.74      3.1148344e-07  9.9635046e-09  3.0151994e-07  12233710     
   3188000   6.8745751e-10  14415.515      5298.032       927081.76      3.114834e-07   9.959175e-09   3.0152423e-07  12233791     
   3189000   6.8767315e-10  14414.78       5297.3184      927078.88      3.1148491e-07  9.9760546e-09  3.0150885e-07  12233596     
   3190000   6.8788879e-10  14415.444      5298.1304      927064.71      3.1148428e-07  9.9615434e-09  3.0152274e-07  12233840     
   3191000   6.8810443e-10  14415.369      5298.1718      927052.98      3.1148429e-07  9.9631208e-09  3.0152117e-07  12233816     
   3192000   6.8832007e-10  14415.156      5297.9215      927056.51      3.11484e-07    9.9672886e-09  3.0151671e-07  12233705     
   3193000   6.8853571e-10  14415.696      5298.5922      927043.98      3.1148466e-07  9.9566466e-09  3.0152801e-07  12233946     
   3194000   6.8875135e-10  14415.145      5298.2944      927018.13      3.1148524e-07  9.9687394e-09  3.015165e-07   12233748     
   3195000   6.8896699e-10  14415.517      5298.7947      927005.64      3.1148547e-07  9.9611916e-09  3.0152427e-07  12233911     
   3196000   6.8918263e-10  14415.543      5298.9631      926991.45      3.1148599e-07  9.9611666e-09  3.0152483e-07  12233945     
   3197000   6.8939827e-10  14415.502      5298.9253      926991.05      3.1148606e-07  9.9621043e-09  3.0152396e-07  12233923     
   3198000   6.8961391e-10  14415.501      5298.9743      926986.06      3.1148522e-07  9.961277e-09   3.0152394e-07  12233861     
   3199000   6.8982954e-10  14415.616      5299.2132      926973.71      3.1148503e-07  9.9586986e-09  3.0152634e-07  12233906     
   3200000   6.9004518e-10  14415.043      5298.7478      926962.36      3.1148496e-07  9.9706111e-09  3.0151435e-07  12233701     
   3201000   6.9026082e-10  14415.637      5299.3995      926957.21      3.1148428e-07  9.9575055e-09  3.0152678e-07  12233908     
   3202000   6.9047646e-10  14415.331      5299.1188      926954.38      3.1148269e-07  9.9623082e-09  3.0152038e-07  12233693     
   3203000   6.906921e-10   14415.248      5299.0367      926954.19      3.1148344e-07  9.9648e-09     3.0151864e-07  12233686     
   3204000   6.9090774e-10  14415.6        5299.3952      926953.92      3.1148325e-07  9.9572434e-09  3.0152601e-07  12233788     
   3205000   6.9112338e-10  14415.96       5299.9037      926939.39      3.1148426e-07  9.9507287e-09  3.0153353e-07  12233967     
   3206000   6.9133902e-10  14415.496      5299.5782      926925.06      3.1148394e-07  9.9601114e-09  3.0152383e-07  12233766     
   3207000   6.9155466e-10  14415.306      5299.3019      926933.58      3.1148333e-07  9.9634621e-09  3.0151987e-07  12233666     
   3208000   6.917703e-10   14415.536      5299.6641      926920.52      3.1148404e-07  9.9593671e-09  3.0152467e-07  12233809     
   3209000   6.9198594e-10  14415.591      5299.8554      926906.94      3.1148413e-07  9.9583052e-09  3.0152582e-07  12233838     
   3210000   6.9220158e-10  14415.477      5299.9153      926889.41      3.1148299e-07  9.9595601e-09  3.0152343e-07  12233732     
   3211000   6.9241721e-10  14415.466      5299.9594      926883.87      3.1148467e-07  9.9614715e-09  3.015232e-07   12233843     
   3212000   6.9263285e-10  14415.754      5300.2421      926884.71      3.1148494e-07  9.9557125e-09  3.0152923e-07  12233998     
   3213000   6.9284849e-10  14415.094      5299.6726      926874.95      3.114847e-07   9.9692842e-09  3.0151541e-07  12233745     
   3214000   6.9306413e-10  14415.152      5299.9221      926855.88      3.1148422e-07  9.9675847e-09  3.0151664e-07  12233741     
   3215000   6.9327977e-10  14415.177      5300.0543      926845.18      3.1148408e-07  9.9669205e-09  3.0151716e-07  12233707     
   3216000   6.9349541e-10  14415.243      5300.0944      926847.84      3.1148388e-07  9.9653352e-09  3.0151854e-07  12233698     
   3217000   6.9371105e-10  14415.416      5300.3485      926839.89      3.1148537e-07  9.9632089e-09  3.0152216e-07  12233853     
   3218000   6.9392669e-10  14415.488      5300.4668      926835.33      3.1148474e-07  9.9610769e-09  3.0152367e-07  12233842     
   3219000   6.9414233e-10  14415.372      5300.4224      926828.08      3.1148497e-07  9.9637272e-09  3.0152125e-07  12233807     
   3220000   6.9435797e-10  14415.166      5300.2482      926824.66      3.1148407e-07  9.967137e-09   3.0151693e-07  12233664     
   3221000   6.9457361e-10  14415.742      5300.8646      926821.17      3.1148349e-07  9.9545199e-09  3.0152898e-07  12233837     
   3222000   6.9478924e-10  14415.63       5300.8398      926812.37      3.1148273e-07  9.956087e-09   3.0152664e-07  12233739     
   3223000   6.9500488e-10  14415.337      5300.4882      926817.9       3.1148346e-07  9.9629563e-09  3.015205e-07   12233683     
   3224000   6.9522052e-10  14415.232      5300.3567      926820.42      3.1148461e-07  9.966312e-09   3.015183e-07   12233740     
   3225000   6.9543616e-10  14415.441      5300.8158      926795.64      3.1148625e-07  9.9635647e-09  3.0152268e-07  12233946     
   3226000   6.956518e-10   14415.534      5300.8064      926806.01      3.1148501e-07  9.9603791e-09  3.0152463e-07  12233897     
   3227000   6.9586744e-10  14415.471      5300.5834      926821.91      3.1148484e-07  9.9615332e-09  3.0152331e-07  12233825     
   3228000   6.9608308e-10  14415.592      5300.8565      926806.82      3.1148406e-07  9.9582192e-09  3.0152584e-07  12233806     
   3229000   6.9629872e-10  14416.035      5301.3226      926804.95      3.1148406e-07  9.9489569e-09  3.015351e-07   12233967     
   3230000   6.9651436e-10  14415.763      5301.0513      926804.67      3.1148368e-07  9.9542541e-09  3.0152943e-07  12233846     
   3231000   6.9673e-10     14415.659      5301.0587      926793.36      3.1148402e-07  9.9567817e-09  3.0152724e-07  12233832     
   3232000   6.9694564e-10  14415.438      5300.8838      926788.55      3.1148392e-07  9.9612909e-09  3.0152262e-07  12233737     
   3233000   6.9716127e-10  14415.652      5301.237       926774.78      3.1148438e-07  9.9572963e-09  3.0152709e-07  12233843     
   3234000   6.9737691e-10  14415.413      5301.0312      926771.27      3.1148351e-07  9.9614108e-09  3.015221e-07   12233706     
   3235000   6.9759255e-10  14415.453      5301.2327      926755.08      3.1148475e-07  9.961823e-09   3.0152293e-07  12233807     
   3236000   6.9780819e-10  14415.581      5301.2162      926769.76      3.1148492e-07  9.9593027e-09  3.0152562e-07  12233876     
   3237000   6.9802383e-10  14415.592      5301.1562      926776.88      3.1148493e-07  9.9590827e-09  3.0152585e-07  12233888     
   3238000   6.9823947e-10  14415.623      5301.3299      926762.57      3.1148413e-07  9.9576439e-09  3.0152649e-07  12233861     
   3239000   6.9845511e-10  14415.38       5301.4414      926726.83      3.1148461e-07  9.9632119e-09  3.015214e-07   12233771     
   3240000   6.9867075e-10  14415.623      5301.6398      926731.55      3.1148464e-07  9.9581536e-09  3.0152649e-07  12233846     
   3241000   6.9888639e-10  14415.603      5301.7243      926721.12      3.1148403e-07  9.9579537e-09  3.0152608e-07  12233797     
   3242000   6.9910203e-10  14415.568      5301.6728      926722.73      3.1148372e-07  9.9583722e-09  3.0152535e-07  12233771     
   3243000   6.9931767e-10  14415.891      5302.0634      926716.23      3.1148309e-07  9.9509952e-09  3.0153209e-07  12233859     
   3244000   6.9953331e-10  14415.849      5302.0395      926714.45      3.1148368e-07  9.9524518e-09  3.0153123e-07  12233846     
   3245000   6.9974894e-10  14416.246      5302.4636      926712.11      3.114838e-07   9.9442708e-09  3.0153953e-07  12233985     
   3246000   6.9996458e-10  14416.157      5302.3649      926712.92      3.1148339e-07  9.945735e-09   3.0153765e-07  12233926     
   3247000   7.0018022e-10  14415.706      5301.9734      926706.58      3.1148346e-07  9.9552331e-09  3.0152823e-07  12233763     
   3248000   7.0039586e-10  14415.868      5302.2106      926699.18      3.1148279e-07  9.9511767e-09  3.0153161e-07  12233797     
   3249000   7.006115e-10   14415.392      5301.8788      926684.26      3.1148314e-07  9.9614818e-09  3.0152165e-07  12233639     
   3250000   7.0082714e-10  14415.616      5302.1553      926679.25      3.1148297e-07  9.9566315e-09  3.0152634e-07  12233732     
   3251000   7.0104278e-10  14415.427      5302.0852      926667.21      3.1148318e-07  9.9607833e-09  3.015224e-07   12233686     
   3252000   7.0125842e-10  14415.613      5302.2933      926665.11      3.1148312e-07  9.9568451e-09  3.0152628e-07  12233767     
   3253000   7.0147406e-10  14415.4        5302.4919      926623.72      3.1148333e-07  9.9615016e-09  3.0152182e-07  12233697     
   3254000   7.016897e-10   14415.4        5302.5378      926619.08      3.1148369e-07  9.9618685e-09  3.0152182e-07  12233719     
   3255000   7.0190534e-10  14415.214      5302.5218      926601.88      3.1148348e-07  9.9655519e-09  3.0151793e-07  12233636     
   3256000   7.0212097e-10  14415.712      5303.0029      926604.09      3.1148409e-07  9.9557448e-09  3.0152834e-07  12233880     
   3257000   7.0233661e-10  14415.311      5302.7499      926588.93      3.1148377e-07  9.9637976e-09  3.0151997e-07  12233719     
   3258000   7.0255225e-10  14415.364      5302.9405      926575.21      3.1148357e-07  9.9624939e-09  3.0152108e-07  12233740     
   3259000   7.0276789e-10  14415.359      5303.0341      926565.28      3.1148239e-07  9.9614289e-09  3.0152096e-07  12233675     
   3260000   7.0298353e-10  14415.128      5302.9866      926546.75      3.1148221e-07  9.9660674e-09  3.0151614e-07  12233556     
   3261000   7.0319917e-10  14415.602      5303.3698      926556.25      3.1148243e-07  9.9563855e-09  3.0152605e-07  12233709     
   3262000   7.0341481e-10  14415.707      5303.4549      926558.37      3.1148251e-07  9.9542586e-09  3.0152825e-07  12233724     
   3263000   7.0363045e-10  14415.706      5303.719       926531.79      3.1148224e-07  9.9540203e-09  3.0152822e-07  12233695     
   3264000   7.0384609e-10  14415.416      5303.5553      926518.91      3.1148181e-07  9.959642e-09   3.0152216e-07  12233541     
   3265000   7.0406173e-10  14415.982      5304.1871      926512.82      3.1148255e-07  9.9485565e-09  3.0153399e-07  12233825     
   3266000   7.0427737e-10  14415.558      5303.985       926490.21      3.1148327e-07  9.9581458e-09  3.0152513e-07  12233727     
   3267000   7.04493e-10    14415.415      5303.9145      926482.83      3.1148447e-07  9.9623294e-09  3.0152214e-07  12233766     
   3268000   7.0470864e-10  14415.683      5304.2615      926475.15      3.1148401e-07  9.9562741e-09  3.0152774e-07  12233863     
   3269000   7.0492428e-10  14415.273      5303.9076      926469.12      3.1148527e-07  9.9661085e-09  3.0151916e-07  12233797     
   3270000   7.0513992e-10  14415.274      5304.1167      926448.31      3.1148481e-07  9.9656298e-09  3.0151918e-07  12233786     
   3271000   7.0535556e-10  14415.086      5303.994       926441.64      3.1148452e-07  9.9692587e-09  3.0151526e-07  12233709     
   3272000   7.055712e-10   14414.842      5303.8372      926432.62      3.1148434e-07  9.9741973e-09  3.0151015e-07  12233613     
   3273000   7.0578684e-10  14415.069      5304.2381      926415.48      3.1148398e-07  9.9690728e-09  3.0151491e-07  12233675     
   3274000   7.0600248e-10  14414.781      5304.1728      926392.91      3.1148433e-07  9.9754442e-09  3.0150888e-07  12233563     
   3275000   7.0621812e-10  14415.213      5305.0094      926352.82      3.1148296e-07  9.9650431e-09  3.0151792e-07  12233637     
   3276000   7.0643376e-10  14415.305      5305.2772      926335.3       3.1148389e-07  9.9640589e-09  3.0151984e-07  12233694     
   3277000   7.066494e-10   14415.838      5305.8801      926328.84      3.1148369e-07  9.9527101e-09  3.0153098e-07  12233881     
   3278000   7.0686504e-10  14415.729      5305.8138      926324.43      3.1148372e-07  9.9550217e-09  3.015287e-07   12233844     
   3279000   7.0708067e-10  14415.359      5305.4515      926323.31      3.1148459e-07  9.9636195e-09  3.0152097e-07  12233772     
   3280000   7.0729631e-10  14415.468      5305.4019      926339.34      3.1148514e-07  9.9618878e-09  3.0152326e-07  12233868     
   3281000   7.0751195e-10  14415.346      5305.3231      926334.89      3.1148455e-07  9.9638431e-09  3.015207e-07   12233803     
   3282000   7.0772759e-10  14415.306      5305.2366      926339.43      3.1148458e-07  9.9647241e-09  3.0151985e-07  12233805     
   3283000   7.0794323e-10  14415.133      5305.2088      926324.81      3.1148455e-07  9.9683011e-09  3.0151625e-07  12233729     
   3284000   7.0815887e-10  14415.061      5305.1575      926322.58      3.1148394e-07  9.9692117e-09  3.0151473e-07  12233648     
   3285000   7.0837451e-10  14415.347      5305.3697      926330.27      3.1148399e-07  9.9632743e-09  3.0152071e-07  12233753     
   3286000   7.0859015e-10  14415.179      5305.1952      926330.76      3.1148442e-07  9.9672257e-09  3.015172e-07   12233691     
   3287000   7.0880579e-10  14415.298      5305.4009      926322.22      3.1148395e-07  9.9642593e-09  3.0151969e-07  12233706     
   3288000   7.0902143e-10  14415.449      5305.5756      926319.95      3.1148408e-07  9.9612365e-09  3.0152284e-07  12233777     
   3289000   7.0923707e-10  14415.428      5305.5404      926321.36      3.1148461e-07  9.9622037e-09  3.015224e-07   12233802     
   3290000   7.094527e-10   14415.346      5305.6234      926304.76      3.1148398e-07  9.9632882e-09  3.0152069e-07  12233737     
   3291000   7.0966834e-10  14415.418      5305.7032      926304.11      3.1148324e-07  9.9610357e-09  3.0152221e-07  12233730     
   3292000   7.0988398e-10  14415.303      5305.8145      926281.34      3.1148394e-07  9.964139e-09   3.015198e-07   12233733     
   3293000   7.1009962e-10  14415.319      5306.0431      926260.08      3.1148449e-07  9.9643529e-09  3.0152014e-07  12233773     
   3294000   7.1031526e-10  14415.413      5306.1497      926258.89      3.1148374e-07  9.961643e-09   3.015221e-07   12233758     
   3295000   7.105309e-10   14415.014      5305.7846      926255.09      3.114832e-07   9.9694518e-09  3.0151375e-07  12233563     
   3296000   7.1074654e-10  14415.421      5306.2099      926253.66      3.1148369e-07  9.9614254e-09  3.0152226e-07  12233745     
   3297000   7.1096218e-10  14415.455      5306.4913      926228.93      3.1148404e-07  9.961064e-09   3.0152297e-07  12233783     
   3298000   7.1117782e-10  14415.37       5306.9821      926171.19      3.1148428e-07  9.9630919e-09  3.0152119e-07  12233765     
   3299000   7.1139346e-10  14415.497      5307.3194      926150.26      3.1148393e-07  9.9600801e-09  3.0152385e-07  12233769     
   3300000   7.116091e-10   14416.09       5307.9173      926150.44      3.1148357e-07  9.9473089e-09  3.0153627e-07  12233951     
   3301000   7.1182474e-10  14415.849      5307.6805      926149.78      3.1148365e-07  9.9524236e-09  3.0153122e-07  12233843     
   3302000   7.1204037e-10  14415.845      5307.7068      926146.68      3.1148327e-07  9.9521369e-09  3.0153113e-07  12233821     
   3303000   7.1225601e-10  14415.71       5307.6603      926137.71      3.1148339e-07  9.9550792e-09  3.0152831e-07  12233775     
   3304000   7.1247165e-10  14416.271      5308.2615      926134.25      3.1148405e-07  9.9440018e-09  3.0154005e-07  12234039     
   3305000   7.1268729e-10  14416.036      5308.3421      926102.43      3.1148399e-07  9.9488608e-09  3.0153513e-07  12233939     
   3306000   7.1290293e-10  14415.77       5308.1214      926097.66      3.1148402e-07  9.9544422e-09  3.0152957e-07  12233845     
   3307000   7.1311857e-10  14415.314      5307.7955      926084.13      3.1148376e-07  9.9637382e-09  3.0152002e-07  12233673     
   3308000   7.1333421e-10  14415.11       5307.9219      926050.83      3.1148268e-07  9.9669311e-09  3.0151575e-07  12233555     
   3309000   7.1354985e-10  14415.37       5308.3415      926035.13      3.1148383e-07  9.9626371e-09  3.0152119e-07  12233736     
   3310000   7.1376549e-10  14415.498      5308.6344      926018.77      3.1148406e-07  9.9601811e-09  3.0152387e-07  12233786     
   3311000   7.1398113e-10  14415.687      5308.9311      926008.22      3.1148455e-07  9.9567095e-09  3.0152784e-07  12233868     
   3312000   7.1419677e-10  14415.744      5308.9947      926007.57      3.1148529e-07  9.9562724e-09  3.0152902e-07  12233930     
   3313000   7.144124e-10   14415.924      5309.1824      926007.01      3.1148468e-07  9.9518874e-09  3.0153279e-07  12233980     
   3314000   7.1462804e-10  14415.313      5308.7476      925988.72      3.1148531e-07  9.9653083e-09  3.0152e-07     12233805     
   3315000   7.1484368e-10  14415.405      5308.9415      925978.61      3.1148577e-07  9.9638436e-09  3.0152193e-07  12233902     
   3316000   7.1505932e-10  14415.372      5309.0533      925964.07      3.1148563e-07  9.9643987e-09  3.0152123e-07  12233902     
   3317000   7.1527496e-10  14415.392      5309.2543      925945.96      3.1148531e-07  9.9636606e-09  3.0152165e-07  12233897     
   3318000   7.154906e-10   14415.217      5309.2085      925932.87      3.1148476e-07  9.9667706e-09  3.0151799e-07  12233785     
   3319000   7.1570624e-10  14415.449      5309.5653      925920.62      3.114841e-07   9.9612547e-09  3.0152285e-07  12233836     
   3320000   7.1592188e-10  14415.108      5309.1737      925925.36      3.1148524e-07  9.9695212e-09  3.0151572e-07  12233760     
   3321000   7.1613752e-10  14415.138      5309.4636      925899.36      3.1148518e-07  9.9688334e-09  3.0151634e-07  12233756     
   3322000   7.1635316e-10  14415.446      5309.9646      925880.39      3.1148483e-07  9.9620328e-09  3.0152279e-07  12233855     
   3323000   7.165688e-10   14415.458      5310.1688      925861.13      3.114852e-07   9.9621609e-09  3.0152304e-07  12233876     
   3324000   7.1678443e-10  14415.419      5310.2393      925850.15      3.1148423e-07  9.962002e-09   3.0152222e-07  12233788     
   3325000   7.1700007e-10  14415.344      5310.6571      925800.76      3.114839e-07   9.9632357e-09  3.0152066e-07  12233722     
   3326000   7.1721571e-10  14415.727      5311.206       925784.51      3.1148448e-07  9.9558152e-09  3.0152867e-07  12233879     
   3327000   7.1743135e-10  14415.73       5311.2682      925778.58      3.1148357e-07  9.9548459e-09  3.0152873e-07  12233802     
   3328000   7.1764699e-10  14415.628      5311.1253      925782.61      3.1148305e-07  9.9564503e-09  3.015266e-07   12233739     
   3329000   7.1786263e-10  14415.491      5310.8922      925792.06      3.1148282e-07  9.9590889e-09  3.0152373e-07  12233685     
   3330000   7.1807827e-10  14415.978      5311.5567      925774.82      3.1148339e-07  9.9494686e-09  3.0153392e-07  12233911     
   3331000   7.1829391e-10  14415.86       5311.5905      925759.52      3.1148403e-07  9.9525762e-09  3.0153146e-07  12233896     
   3332000   7.1850955e-10  14415.9        5312.4876      925673.76      3.1148327e-07  9.9509744e-09  3.0153229e-07  12233861     
   3333000   7.1872519e-10  14415.746      5312.3643      925670.47      3.1148336e-07  9.954298e-09   3.0152906e-07  12233813     
   3334000   7.1894083e-10  14415.332      5312.0423      925660.83      3.1148383e-07  9.9634318e-09  3.015204e-07   12233686     
   3335000   7.1915647e-10  14415.19       5312.0262      925648.12      3.1148363e-07  9.9662002e-09  3.0151743e-07  12233648     
   3336000   7.193721e-10   14415.484      5312.2815      925652.28      3.1148416e-07  9.9605773e-09  3.0152358e-07  12233802     
   3337000   7.1958774e-10  14415.418      5312.1194      925661.89      3.114844e-07   9.9621845e-09  3.0152221e-07  12233777     
   3338000   7.1980338e-10  14415.752      5312.9546      925612.02      3.1148396e-07  9.9547677e-09  3.0152919e-07  12233884     
   3339000   7.2001902e-10  14415.736      5313.1298      925592.86      3.1148386e-07  9.9550071e-09  3.0152886e-07  12233859     
   3340000   7.2023466e-10  14415.435      5312.9705      925578.32      3.1148479e-07  9.9622418e-09  3.0152255e-07  12233790     
   3341000   7.204503e-10   14415.662      5313.3482      925563.54      3.1148539e-07  9.9580812e-09  3.0152731e-07  12233914     
   3342000   7.2066594e-10  14415.818      5313.7533      925538.71      3.1148567e-07  9.9551072e-09  3.0153057e-07  12234015     
   3343000   7.2088158e-10  14415.429      5313.3522      925539.56      3.1148588e-07  9.9634433e-09  3.0152243e-07  12233916     
   3344000   7.2109722e-10  14415.067      5313.0677      925531.4       3.1148663e-07  9.9717754e-09  3.0151486e-07  12233869     
   3345000   7.2131286e-10  14415.341      5313.3673      925529.13      3.1148593e-07  9.9653419e-09  3.0152059e-07  12233953     
   3346000   7.215285e-10   14415.128      5313.2462      925519.76      3.1148753e-07  9.9713884e-09  3.0151614e-07  12233961     
   3347000   7.2174413e-10  14414.91       5313.1896      925503.35      3.1148721e-07  9.9756336e-09  3.0151158e-07  12233841     
   3348000   7.2195977e-10  14415.183      5313.6733      925482.53      3.1148765e-07  9.9703666e-09  3.0151729e-07  12233952     
   3349000   7.2217541e-10  14415.323      5313.8306      925480.91      3.1148588e-07  9.9656671e-09  3.0152021e-07  12233877     
   3350000   7.2239105e-10  14415.663      5314.0771      925490.59      3.1148668e-07  9.9593672e-09  3.0152732e-07  12234053     
   3351000   7.2260669e-10  14415.507      5314.1651      925466.09      3.1148577e-07  9.9616982e-09  3.0152407e-07  12233963     
   3352000   7.2282233e-10  14414.902      5313.5943      925462.08      3.1148632e-07  9.9749004e-09  3.0151142e-07  12233783     
   3353000   7.2303797e-10  14414.881      5313.7618      925443.09      3.1148604e-07  9.9750812e-09  3.0151096e-07  12233777     
   3354000   7.2325361e-10  14414.778      5313.6731      925441.57      3.1148526e-07  9.9764554e-09  3.0150881e-07  12233698     
   3355000   7.2346925e-10  14415.125      5313.9343      925450.51      3.1148576e-07  9.9696904e-09  3.0151607e-07  12233855     
   3356000   7.2368489e-10  14415.103      5314.0829      925433.41      3.1148688e-07  9.971278e-09   3.015156e-07   12233890     
   3357000   7.2390053e-10  14415.037      5314.1548      925419.62      3.1148641e-07  9.9721703e-09  3.0151424e-07  12233800     
   3358000   7.2411616e-10  14415.806      5314.9181      925420.92      3.11486e-07    9.9556831e-09  3.0153032e-07  12234041     
   3359000   7.243318e-10   14415.942      5315.2291      925403.55      3.1148498e-07  9.9518126e-09  3.0153317e-07  12234008     
   3360000   7.2454744e-10  14416.175      5315.7179      925378.2       3.1148573e-07  9.9476866e-09  3.0153804e-07  12234159     
   3361000   7.2476308e-10  14415.363      5314.9436      925373.59      3.1148504e-07  9.9639852e-09  3.0152105e-07  12233822     
   3362000   7.2497872e-10  14415.247      5314.9712      925359.08      3.1148475e-07  9.9661259e-09  3.0151862e-07  12233765     
   3363000   7.2519436e-10  14415.519      5315.3818      925345.5       3.1148495e-07  9.9606309e-09  3.0152432e-07  12233868     
   3364000   7.2541e-10     14415.542      5315.4301      925342.95      3.1148432e-07  9.9595255e-09  3.0152479e-07  12233826     
   3365000   7.2562564e-10  14415.681      5315.5728      925342.73      3.1148422e-07  9.9565158e-09  3.015277e-07   12233863     
   3366000   7.2584128e-10  14415.65       5315.4126      925355.64      3.114843e-07   9.957248e-09   3.0152705e-07  12233855     
   3367000   7.2605692e-10  14415.429      5315.2798      925346.62      3.1148364e-07  9.961207e-09   3.0152244e-07  12233733     
   3368000   7.2627256e-10  14415.625      5315.5661      925337.79      3.1148334e-07  9.9568014e-09  3.0152654e-07  12233791     
   3369000   7.264882e-10   14415.732      5315.6912      925336.02      3.1148354e-07  9.9547728e-09  3.0152876e-07  12233819     
   3370000   7.2670383e-10  14415.419      5315.5162      925321.9       3.1148344e-07  9.9612183e-09  3.0152222e-07  12233680     
   3371000   7.2691947e-10  14415.86       5316.1103      925307.08      3.1148236e-07  9.9509036e-09  3.0153146e-07  12233813     
   3372000   7.2713511e-10  14415.709      5316.0137      925301.45      3.1148346e-07  9.9551735e-09  3.0152829e-07  12233837     
   3373000   7.2735075e-10  14415.47       5315.6926      925309.4       3.1148343e-07  9.9601423e-09  3.0152329e-07  12233745     
   3374000   7.2756639e-10  14415.263      5315.5207      925305.69      3.1148375e-07  9.9647882e-09  3.0151896e-07  12233671     
   3375000   7.2778203e-10  14415.864      5316.1081      925307.67      3.114833e-07   9.9517662e-09  3.0153153e-07  12233861     
   3376000   7.2799767e-10  14415.77       5316.0765      925301.28      3.1148312e-07  9.9535682e-09  3.0152956e-07  12233793     
   3377000   7.2821331e-10  14415.966      5316.2722      925301.56      3.1148437e-07  9.9507077e-09  3.0153367e-07  12233966     
   3378000   7.2842895e-10  14415.846      5316.2537      925291.24      3.1148496e-07  9.9538145e-09  3.0153115e-07  12233995     
   3379000   7.2864459e-10  14415.626      5316.092       925285.21      3.1148549e-07  9.9589407e-09  3.0152655e-07  12233962     
   3380000   7.2886023e-10  14415.792      5316.397       925271.46      3.1148539e-07  9.9553693e-09  3.0153002e-07  12234023     
   3381000   7.2907586e-10  14415.424      5315.9605      925277.95      3.1148433e-07  9.9619999e-09  3.0152233e-07  12233816     
   3382000   7.292915e-10   14415.309      5315.8388      925278.51      3.1148484e-07  9.9649193e-09  3.0151992e-07  12233798     
   3383000   7.2950714e-10  14415.254      5315.9977      925257.04      3.1148411e-07  9.9653416e-09  3.0151877e-07  12233722     
   3384000   7.2972278e-10  14415.573      5316.4705      925242.01      3.1148511e-07  9.9596577e-09  3.0152545e-07  12233894     
   3385000   7.2993842e-10  14415.387      5316.1416      925256.09      3.114847e-07   9.9631494e-09  3.0152156e-07  12233782     
   3386000   7.3015406e-10  14415.411      5316.2468      925247.95      3.1148481e-07  9.9627655e-09  3.0152205e-07  12233791     
   3387000   7.303697e-10   14415.947      5317.0499      925221.78      3.1148431e-07  9.9510464e-09  3.0153327e-07  12233979     
   3388000   7.3058534e-10  14415.595      5316.9069      925200.47      3.1148378e-07  9.957883e-09   3.015259e-07   12233812     
   3389000   7.3080098e-10  14415.411      5317.0074      925171.89      3.1148472e-07  9.9626582e-09  3.0152206e-07  12233803     
   3390000   7.3101662e-10  14415.251      5316.8261      925173.79      3.1148424e-07  9.9655412e-09  3.015187e-07   12233728     
   3391000   7.3123226e-10  14415.427      5317.3324      925140.94      3.1148456e-07  9.9621709e-09  3.0152239e-07  12233839     
   3392000   7.3144789e-10  14415.5        5317.3851      925143.01      3.1148426e-07  9.9603453e-09  3.0152391e-07  12233854     
   3393000   7.3166353e-10  14415.047      5316.9162      925144.16      3.1148463e-07  9.9701907e-09  3.0151444e-07  12233687     
   3394000   7.3187917e-10  14415.067      5316.9403      925143.76      3.1148449e-07  9.9696314e-09  3.0151486e-07  12233683     
   3395000   7.3209481e-10  14415.031      5316.9605      925138.14      3.1148439e-07  9.970273e-09   3.0151411e-07  12233656     
   3396000   7.3231045e-10  14415.416      5317.4696      925126.12      3.1148433e-07  9.9621611e-09  3.0152217e-07  12233788     
   3397000   7.3252609e-10  14415.255      5317.498       925106.98      3.1148427e-07  9.9654745e-09  3.015188e-07   12233717     
   3398000   7.3274173e-10  14415.308      5317.7332      925088.82      3.1148508e-07  9.965174e-09   3.0151991e-07  12233788     
   3399000   7.3295737e-10  14415.445      5317.8233      925093.63      3.1148412e-07  9.9613472e-09  3.0152277e-07  12233789     
   3400000   7.3317301e-10  14415.011      5317.5077      925081.36      3.1148351e-07  9.9698111e-09  3.015137e-07   12233605     
   3401000   7.3338865e-10  14415.067      5317.6849      925069.25      3.1148397e-07  9.9691073e-09  3.0151486e-07  12233669     
   3402000   7.3360429e-10  14415.377      5318.1568      925053.33      3.1148553e-07  9.9641863e-09  3.0152134e-07  12233892     
   3403000   7.3381993e-10  14415.171      5317.9785      925050.34      3.1148415e-07  9.9671183e-09  3.0151703e-07  12233724     
   3404000   7.3403556e-10  14415.527      5318.5186      925032.29      3.1148423e-07  9.9597551e-09  3.0152448e-07  12233857     
   3405000   7.342512e-10   14415.447      5318.797       924996.39      3.1148402e-07  9.9612015e-09  3.0152282e-07  12233783     
   3406000   7.3446684e-10  14415.276      5318.6249      924996.29      3.1148403e-07  9.9647989e-09  3.0151923e-07  12233698     
   3407000   7.3468248e-10  14415.175      5318.6063      924987.95      3.1148361e-07  9.9664892e-09  3.0151712e-07  12233652     
   3408000   7.3489812e-10  14414.875      5318.4962      924968.63      3.1148347e-07  9.9726273e-09  3.0151084e-07  12233560     
   3409000   7.3511376e-10  14414.864      5318.6137      924955.75      3.1148402e-07  9.9734057e-09  3.0151061e-07  12233600     
   3410000   7.353294e-10   14414.837      5318.6555      924948.84      3.1148438e-07  9.9743251e-09  3.0151005e-07  12233593     
   3411000   7.3554504e-10  14414.919      5318.7517      924947.48      3.1148399e-07  9.9722267e-09  3.0151176e-07  12233573     
   3412000   7.3576068e-10  14415.46       5319.4023      924937.11      3.114838e-07   9.9607167e-09  3.0152309e-07  12233751     
   3413000   7.3597632e-10  14415.831      5319.8103      924933.77      3.1148365e-07  9.952799e-09   3.0153085e-07  12233877     
   3414000   7.3619196e-10  14415.372      5319.3776      924930.67      3.1148359e-07  9.9623439e-09  3.0152124e-07  12233706     
   3415000   7.3640759e-10  14415.362      5319.4812      924919.29      3.1148453e-07  9.963498e-09   3.0152104e-07  12233801     
   3416000   7.3662323e-10  14415.164      5319.341       924913.23      3.1148475e-07  9.9678744e-09  3.0151688e-07  12233770     
   3417000   7.3683887e-10  14415.108      5319.4098      924900.78      3.1148525e-07  9.9695174e-09  3.0151573e-07  12233801     
   3418000   7.3705451e-10  14415.049      5319.4047      924895.31      3.1148583e-07  9.9713437e-09  3.0151449e-07  12233814     
   3419000   7.3727015e-10  14415.365      5319.8075      924886.9       3.1148601e-07  9.9649176e-09  3.0152109e-07  12233917     
   3420000   7.3748579e-10  14415.299      5319.8928      924871.73      3.1148521e-07  9.9654869e-09  3.0151972e-07  12233807     
   3421000   7.3770143e-10  14414.965      5319.5376      924873.47      3.1148519e-07  9.9724652e-09  3.0151272e-07  12233668     
   3422000   7.3791707e-10  14414.995      5319.6217      924868.11      3.1148478e-07  9.9714181e-09  3.0151336e-07  12233663     
   3423000   7.3813271e-10  14414.902      5319.5852      924862.37      3.1148563e-07  9.9742203e-09  3.0151141e-07  12233696     
   3424000   7.3834835e-10  14415.235      5319.9724      924857.24      3.1148457e-07  9.9661951e-09  3.0151837e-07  12233773     
   3425000   7.3856399e-10  14415.447      5320.2143      924854.47      3.1148458e-07  9.9617784e-09  3.0152281e-07  12233846     
   3426000   7.3877963e-10  14415.379      5320.4076      924828.27      3.1148394e-07  9.9625555e-09  3.0152139e-07  12233763     
   3427000   7.3899526e-10  14415.226      5320.3168      924821.85      3.1148453e-07  9.9663492e-09  3.0151818e-07  12233707     
   3428000   7.392109e-10   14415.746      5320.8807      924818.02      3.114847e-07   9.9556372e-09  3.0152907e-07  12233888     
   3429000   7.3942654e-10  14416.021      5321.1465      924819.15      3.1148429e-07  9.9494801e-09  3.0153481e-07  12233936     
   3430000   7.3964218e-10  14416.011      5321.2359      924809.21      3.1148335e-07  9.94875e-09    3.015346e-07   12233874     
   3431000   7.3985782e-10  14416.108      5321.4704      924795.53      3.1148352e-07  9.9468939e-09  3.0153663e-07  12233934     
   3432000   7.4007346e-10  14416.118      5321.4299      924800.67      3.1148345e-07  9.9466001e-09  3.0153685e-07  12233961     
   3433000   7.402891e-10   14415.667      5321.0845      924789.66      3.1148467e-07  9.9572449e-09  3.0152742e-07  12233886     
   3434000   7.4050474e-10  14415.152      5320.6562      924780.44      3.1148532e-07  9.9686802e-09  3.0151664e-07  12233757     
   3435000   7.4072038e-10  14415.098      5320.7401      924766.6       3.1148525e-07  9.9697324e-09  3.0151552e-07  12233756     
   3436000   7.4093602e-10  14415.271      5320.9524      924762.75      3.1148574e-07  9.96662e-09    3.0151912e-07  12233862     
   3437000   7.4115166e-10  14414.763      5320.6626      924740.46      3.1148563e-07  9.9771217e-09  3.015085e-07   12233665     
   3438000   7.4136729e-10  14414.99       5321.0471      924724.88      3.1148559e-07  9.9723506e-09  3.0151324e-07  12233769     
   3439000   7.4158293e-10  14414.709      5320.7872      924722.56      3.1148597e-07  9.9785858e-09  3.0150738e-07  12233693     
   3440000   7.4179857e-10  14414.561      5320.5944      924726.81      3.114864e-07   9.9821319e-09  3.0150427e-07  12233659     
   3441000   7.4201421e-10  14415.152      5321.1541      924730.57      3.1148653e-07  9.9698964e-09  3.0151664e-07  12233883     
   3442000   7.4222985e-10  14415.327      5321.4089      924722.73      3.1148619e-07  9.9659017e-09  3.0152029e-07  12233912     
   3443000   7.4244549e-10  14415.128      5321.288       924714.73      3.1148618e-07  9.9700515e-09  3.0151613e-07  12233819     
   3444000   7.4266113e-10  14415.317      5321.6341      924699.19      3.114853e-07   9.9652203e-09  3.0152008e-07  12233847     
   3445000   7.4287677e-10  14414.838      5321.2936      924684.91      3.1148566e-07  9.9755862e-09  3.0151008e-07  12233685     
   3446000   7.4309241e-10  14415.31       5321.7342      924688.48      3.1148516e-07  9.965223e-09   3.0151994e-07  12233847     
   3447000   7.4330805e-10  14414.951      5321.4966      924676.01      3.114856e-07   9.9731606e-09  3.0151244e-07  12233733     
   3448000   7.4352369e-10  14415.36       5321.9976      924667.15      3.1148592e-07  9.9649337e-09  3.0152098e-07  12233918     
   3449000   7.4373932e-10  14415.18       5322.0517      924643.53      3.114849e-07   9.9676774e-09  3.0151722e-07  12233778     
   3450000   7.4395496e-10  14415.223      5322.2262      924630.4       3.1148513e-07  9.9670152e-09  3.0151811e-07  12233781     
   3451000   7.441706e-10   14415.935      5322.8963      924635.36      3.1148486e-07  9.9518459e-09  3.0153302e-07  12234033     
   3452000   7.4438624e-10  14415.399      5322.4931      924621.56      3.1148501e-07  9.9631996e-09  3.0152181e-07  12233848     
   3453000   7.4460188e-10  14415.512      5322.6935      924612.89      3.114848e-07   9.9606273e-09  3.0152417e-07  12233910     
   3454000   7.4481752e-10  14415.183      5322.634       924585.56      3.1148438e-07  9.9670974e-09  3.0151728e-07  12233761     
   3455000   7.4503316e-10  14415.213      5322.7814      924573.83      3.1148439e-07  9.9664851e-09  3.0151791e-07  12233753     
   3456000   7.452488e-10   14414.832      5322.5241      924561.07      3.1148394e-07  9.9740007e-09  3.0150994e-07  12233571     
   3457000   7.4546444e-10  14415.159      5323.1444      924532.03      3.114843e-07   9.9675204e-09  3.0151678e-07  12233720     
   3458000   7.4568008e-10  14415.27       5323.1958      924538.14      3.1148423e-07  9.9651231e-09  3.0151911e-07  12233756     
   3459000   7.4589572e-10  14415.136      5323.1101      924533.12      3.1148512e-07  9.9688303e-09  3.0151629e-07  12233769     
   3460000   7.4611136e-10  14414.973      5322.9322      924534.47      3.1148517e-07  9.9722767e-09  3.0151289e-07  12233724     
   3461000   7.4632699e-10  14414.697      5322.781       924521.69      3.1148542e-07  9.97831e-09    3.0150711e-07  12233652     
   3462000   7.4654263e-10  14415.195      5323.8261      924467.47      3.114858e-07   9.968259e-09   3.0151754e-07  12233871     
   3463000   7.4675827e-10  14415.34       5324.0838      924456.34      3.1148532e-07  9.9647472e-09  3.0152057e-07  12233880     
   3464000   7.4697391e-10  14415.1        5323.978       924442.62      3.1148528e-07  9.9697342e-09  3.0151555e-07  12233779     
   3465000   7.4718955e-10  14414.693      5323.7105      924428.27      3.1148559e-07  9.9785559e-09  3.0150704e-07  12233630     
   3466000   7.4740519e-10  14415.404      5324.2458      924446.53      3.1148486e-07  9.9629644e-09  3.015219e-07   12233855     
   3467000   7.4762083e-10  14415.499      5324.1794      924462.83      3.114854e-07   9.9615013e-09  3.015239e-07   12233915     
   3468000   7.4783647e-10  14415.191      5323.9289      924456.79      3.114844e-07   9.9669441e-09  3.0151746e-07  12233723     
   3469000   7.4805211e-10  14415.216      5324.0282      924449.37      3.1148367e-07  9.9656886e-09  3.0151798e-07  12233655     
   3470000   7.4826775e-10  14415.336      5324.2057      924443.73      3.1148336e-07  9.9628709e-09  3.0152049e-07  12233634     
   3471000   7.4848339e-10  14415.863      5324.9226      924425.21      3.1148358e-07  9.9520745e-09  3.0153151e-07  12233817     
   3472000   7.4869902e-10  14415.974      5325.0614      924422.52      3.1148239e-07  9.9485702e-09  3.0153382e-07  12233793     
   3473000   7.4891466e-10  14415.851      5325.1358      924402.73      3.1148178e-07  9.9505111e-09  3.0153127e-07  12233728     
   3474000   7.491303e-10   14415.846      5325.2536      924390.44      3.1148201e-07  9.95085e-09    3.0153116e-07  12233748     
   3475000   7.4934594e-10  14415.656      5325.1155      924384.95      3.1148275e-07  9.9555798e-09  3.0152717e-07  12233706     
   3476000   7.4956158e-10  14415.508      5325.0181      924379.83      3.1148326e-07  9.9591679e-09  3.0152409e-07  12233681     
   3477000   7.4977722e-10  14415.648      5325.218       924373.93      3.114828e-07   9.9557876e-09  3.0152701e-07  12233727     
   3478000   7.4999286e-10  14415.963      5325.4355      924384         3.1148296e-07  9.9493636e-09  3.015336e-07   12233873     
   3479000   7.502085e-10   14415.715      5325.1398      924388.52      3.1148327e-07  9.9548573e-09  3.0152841e-07  12233806     
   3480000   7.5042414e-10  14415.72       5325.3036      924372.65      3.1148377e-07  9.9552463e-09  3.0152852e-07  12233862     
   3481000   7.5063978e-10  14415.4        5325.1795      924352.7       3.114851e-07   9.9632763e-09  3.0152182e-07  12233835     
   3482000   7.5085542e-10  14415.413      5325.2859      924343.35      3.1148541e-07  9.9633154e-09  3.0152209e-07  12233864     
   3483000   7.5107105e-10  14415.648      5325.4789      924347.83      3.1148534e-07  9.9583285e-09  3.0152702e-07  12233932     
   3484000   7.5128669e-10  14415.806      5325.9818      924313.49      3.1148642e-07  9.9560884e-09  3.0153033e-07  12234065     
   3485000   7.5150233e-10  14415.493      5325.811       924298.87      3.1148686e-07  9.9630941e-09  3.0152376e-07  12234023     
   3486000   7.5171797e-10  14415.063      5325.6972      924266.77      3.1148741e-07  9.9726405e-09  3.0151477e-07  12233930     
   3487000   7.5193361e-10  14415.216      5325.854       924266.59      3.1148754e-07  9.9695638e-09  3.0151798e-07  12234007     
   3488000   7.5214925e-10  14414.9        5325.53        924267.12      3.114874e-07   9.9760277e-09  3.0151137e-07  12233854     
   3489000   7.5236489e-10  14415.051      5325.6263      924272.7       3.114869e-07   9.9723761e-09  3.0151453e-07  12233861     
   3490000   7.5258053e-10  14415.293      5325.8801      924271.73      3.1148573e-07  9.9661479e-09  3.0151958e-07  12233861     
   3491000   7.5279617e-10  14415.073      5325.7732      924260.18      3.114844e-07   9.9694263e-09  3.0151498e-07  12233676     
   3492000   7.5301181e-10  14415.133      5325.9344      924250.13      3.114845e-07   9.9682637e-09  3.0151624e-07  12233695     
   3493000   7.5322745e-10  14415.264      5326.4785      924208.94      3.1148432e-07  9.9653437e-09  3.0151898e-07  12233727     
   3494000   7.5344309e-10  14415.464      5326.7361      924203.33      3.1148421e-07  9.9610507e-09  3.0152316e-07  12233782     
   3495000   7.5365872e-10  14415.3        5326.6953      924190.86      3.1148411e-07  9.9643797e-09  3.0151973e-07  12233708     
   3496000   7.5387436e-10  14415.732      5327.1183      924192.25      3.114843e-07   9.9555214e-09  3.0152878e-07  12233903     
   3497000   7.5409e-10     14415.005      5326.7151      924159.05      3.1148406e-07  9.9704987e-09  3.0151356e-07  12233619     
   3498000   7.5430564e-10  14415.102      5326.7916      924161.18      3.1148463e-07  9.9690434e-09  3.0151558e-07  12233699     
   3499000   7.5452128e-10  14415.249      5327.052       924150.02      3.114842e-07   9.9655327e-09  3.0151867e-07  12233739     
   3500000   7.5473692e-10  14414.97       5326.9207      924134.95      3.1148412e-07  9.9712835e-09  3.0151283e-07  12233616     
   3501000   7.5495256e-10  14415.225      5327.2494      924127.84      3.1148322e-07  9.9650546e-09  3.0151817e-07  12233651     
   3502000   7.551682e-10   14415.448      5327.6497      924110.28      3.1148401e-07  9.9611813e-09  3.0152283e-07  12233757     
   3503000   7.5538384e-10  14415.897      5328.0831      924112.3       3.114841e-07   9.9518817e-09  3.0153222e-07  12233922     
   3504000   7.5559948e-10  14416.199      5328.4977      924101.35      3.1148347e-07  9.944936e-09   3.0153854e-07  12234002     
