Job ID:        404030
Host:          daisg116
Start time:    Wed Aug  5 03:49:38 PM CEST 2026
Working dir:   /dais/fs/scratch/kshao/wd/White-Dwarf-Codes/unforced/dais
MPI tasks:     1
CPUs/task:     12
Visible GPU:   0
LAMMPS:        /u/kshao/software/lammps-gpu-cuda12-install/bin/lmp
Input:         unforcedvel_v2.9e+06_c2.in
Currently Loaded Modulefiles:
 1) gcc/14   2) cuda/12.8   3) openmpi/5.0  
name, uuid, driver_version, memory.total [MiB]
NVIDIA H200, GPU-c2b2a21b-0266-e029-65ae-7dc80ea731da, 580.173.02, 143771 MiB
LAMMPS (22 Jul 2025 - Update 4)
  using 1 OpenMP thread(s) per MPI task
Created orthogonal box = (0 0 0) to (2.5958006e-05 2.5958006e-05 2.5958006e-05)
  1 by 1 by 1 MPI processor grid
Created 100000 atoms
  using lattice units in orthogonal box = (0 0 0) to (2.5958006e-05 2.5958006e-05 2.5958006e-05)
  create_atoms CPU = 109.923 seconds
Created 1000 atoms
  using lattice units in orthogonal box = (0 0 0) to (2.5958006e-05 2.5958006e-05 2.5958006e-05)
  create_atoms CPU = 2.204 seconds
1000 atoms in group Si
100000 atoms in group H

CITE-CITE-CITE-CITE-CITE-CITE-CITE-CITE-CITE-CITE-CITE-CITE-CITE

Your simulation uses code contributions which should be cited:
- GPU package (short-range, long-range and three-body potentials): doi:10.1016/j.cpc.2010.12.021, doi:10.1016/j.cpc.2011.10.012, doi:10.1016/j.cpc.2013.08.002, doi:10.1016/j.commatsci.2014.10.068, doi:10.1016/j.cpc.2016.10.020, doi:10.3233/APC200086
The log file lists these citations in BibTeX format.

CITE-CITE-CITE-CITE-CITE-CITE-CITE-CITE-CITE-CITE-CITE-CITE-CITE


--------------------------------------------------------------------------
- Using acceleration for yukawa:
-  with 1 proc(s) per device.
-  with 1 thread(s) per proc.
-  Horizontal vector operations: ENABLED
-  Shared memory system: No
--------------------------------------------------------------------------
Device 0: NVIDIA H200, 132 CUs, 1.4e+02/1.4e+02 GB, 2 GHZ (Mixed Precision)
--------------------------------------------------------------------------

Initializing Device and compiling on process 0...Done.
Initializing Device 0 on core 0...Done.

Generated 0 of 1 mixed pair_coeff terms from geometric mixing rule
Neighbor list info ...
  update: every = 1 steps, delay = 0 steps, check = yes
  max neighbors/atom: 10000, page size: 100000
  master list distance cutoff = 6.4137883e-06
  ghost atom cutoff = 6.4137883e-06
  binsize = 3.2068942e-06, bins = 9 9 9
  1 neighbor lists, perpetual/occasional/extra = 1 0 0
  (1) pair yukawa/gpu, perpetual
      attributes: full, newton on
      pair build: full/bin/atomonly
      stencil: full/bin/3d
      bin: standard
Setting up Verlet run ...
  Unit style    : cgs
  Current step  : 0
  Time step     : 2.0365758775611e-16
Per MPI rank memory allocation (min/avg/max) = 2678 | 2678 | 2678 Mbytes
   Step          Time           Temp         c_tempH        c_tempSi        TotEng         PotEng         KinEng         Press           v_k0           v_dt        v_collfreq       v_ccs     
         0   0              100000         99997.834      100316.89      3.2893843e-06  1.1977196e-06  2.0916646e-06  1.2739277e+08  623656.38      2.0365759e-16  2.2873486e+12  4.34323e-14  
      1000   2.0365759e-13  100134.31      100129.78      100688.41      3.28717e-06    1.1926959e-06  2.094474e-06   1.2738401e+08  623656.38      2.0365759e-16  2.2873486e+12  4.34323e-14  
      2000   4.0731518e-13  99847.531      99839.713      100730.1       3.2789723e-06  1.1904968e-06  2.0884755e-06  1.2709112e+08  623656.38      2.0365759e-16  2.2873486e+12  4.34323e-14  
Loop time of 38.6177 on 1 procs for 2000 steps with 101000 atoms

99.3% CPU use with 1 MPI tasks x 1 OpenMP threads

MPI task timing breakdown:
Section |  min time  |  avg time  |  max time  |%varavg| %total
---------------------------------------------------------------
Pair    | 7.5271     | 7.5271     | 7.5271     |   0.0 | 19.49
Neigh   | 26.524     | 26.524     | 26.524     |   0.0 | 68.68
Comm    | 1.7887     | 1.7887     | 1.7887     |   0.0 |  4.63
Output  | 0.016968   | 0.016968   | 0.016968   |   0.0 |  0.04
Modify  | 1.8875     | 1.8875     | 1.8875     |   0.0 |  4.89
Other   |            | 0.8735     |            |       |  2.26

Nlocal:         101000 ave      101000 max      101000 min
Histogram: 1 0 0 0 0 0 0 0 0 0
Nghost:         235660 ave      235660 max      235660 min
Histogram: 1 0 0 0 0 0 0 0 0 0
Neighs:              0 ave           0 max           0 min
Histogram: 1 0 0 0 0 0 0 0 0 0
FullNghs:  6.44506e+08 ave 6.44506e+08 max 6.44506e+08 min
Histogram: 1 0 0 0 0 0 0 0 0 0

Total # of neighbors = 6.4450634e+08
Ave neighs/atom = 6381.2509
Neighbor list builds = 3
Dangerous builds = 0


---------------------------------------------------------------------
      Device Time Info (average): 
---------------------------------------------------------------------
Data Transfer:   0.3226 s.
Neighbor copy:   1.7734 s.
Neighbor unpack: 0.0000 s.
Force calc:      5.5102 s.
Device Overhead: 0.0696 s.
CPU Cast/Pack:   1.1769 s.
CPU Driver_Time: 0.0260 s.
CPU Idle_Time:   4.9237 s.
Average split:   1.0000.
Max Mem / Proc:  3097.52 MB.
Prefetch mode:   None.
Vector width:    32.
Lanes / atom:    4.
Pair block:      256.
Neigh block:     128.
Neigh mode:      Host.
---------------------------------------------------------------------


--------------------------------------------------------------------------
- Using acceleration for yukawa:
-  with 1 proc(s) per device.
-  with 1 thread(s) per proc.
-  Horizontal vector operations: ENABLED
-  Shared memory system: No
--------------------------------------------------------------------------
Device 0: NVIDIA H200, 132 CUs, 1.4e+02/1.4e+02 GB, 2 GHZ (Mixed Precision)
--------------------------------------------------------------------------

Initializing Device and compiling on process 0...Done.
Initializing Device 0 on core 0...Done.

Generated 0 of 1 mixed pair_coeff terms from geometric mixing rule
Setting up Verlet run ...
  Unit style    : cgs
  Current step  : 2000
  Time step     : 2.0365758775611e-16
Per MPI rank memory allocation (min/avg/max) = 2686 | 2686 | 2686 Mbytes
   Step          Time           Temp         c_tempH        c_tempSi        TotEng         PotEng         KinEng         Press     
      2000   4.0731518e-13  109404.39      99839.713      1066929.1      3.4788697e-06  1.1904968e-06  2.2883729e-06  1.3471019e+08
      3000   6.1097276e-13  109388.89      99867.104      1062620.7      3.4788433e-06  1.1907945e-06  2.2880488e-06  1.347029e+08 
      4000   8.1463035e-13  109410.69      99951.844      1056342.5      3.4788074e-06  1.1903026e-06  2.2885048e-06  1.3470968e+08
      5000   1.0182879e-12  109407.91      100022.05      1049033.1      3.478832e-06   1.1903855e-06  2.2884465e-06  1.3471006e+08
      6000   1.2219455e-12  109399.09      100067.56      1043586.5      3.4788587e-06  1.1905966e-06  2.2882622e-06  1.3470858e+08
      7000   1.4256031e-12  109398.92      100119.19      1038400.6      3.4787475e-06  1.190489e-06   2.2882585e-06  1.3469964e+08
      8000   1.6292607e-12  109409.18      100180.75      1033275.8      3.4788189e-06  1.1903458e-06  2.2884731e-06  1.3470815e+08
      9000   1.8329183e-12  109369.18      100193.21      1027984.7      3.4788884e-06  1.191252e-06   2.2876364e-06  1.3469956e+08
     10000   2.0365759e-12  109399.08      100287.43      1021577        3.4788355e-06  1.1905736e-06  2.2882619e-06  1.3470682e+08
     11000   2.2402335e-12  109419.6       100372.32      1015153.9      3.4788647e-06  1.1901735e-06  2.2886911e-06  1.3471538e+08
     12000   2.4438911e-12  109401.34      100401.16      1010421.2      3.4788589e-06  1.1905496e-06  2.2883092e-06  1.3470992e+08
     13000   2.6475486e-12  109399.28      100457.37      1004585.4      3.478843e-06   1.1905769e-06  2.2882661e-06  1.3470768e+08
     14000   2.8512062e-12  109416.34      100537.01      998339.56      3.4788061e-06  1.1901831e-06  2.288623e-06   1.3471141e+08
     15000   3.0548638e-12  109406.7       100577.29      993332.65      3.4788642e-06  1.1904428e-06  2.2884213e-06  1.347113e+08 
     16000   3.2585214e-12  109384.96      100615.32      987327.44      3.4788642e-06  1.1908978e-06  2.2879665e-06  1.3470435e+08
     17000   3.462179e-12   109397.92      100680.07      982156.61      3.4788236e-06  1.190586e-06   2.2882376e-06  1.3470641e+08
     18000   3.6658366e-12  109408.14      100741.63      977027.18      3.4788064e-06  1.190355e-06   2.2884514e-06  1.3470603e+08
     19000   3.8694942e-12  109404.92      100800.41      970817.58      3.4788156e-06  1.1904317e-06  2.288384e-06   1.3470583e+08
     20000   4.0731518e-12  109396.49      100851.57      964844.4       3.4788202e-06  1.1906125e-06  2.2882077e-06  1.3470339e+08
     21000   4.2768093e-12  109414.88      100924.07      959446.63      3.4788092e-06  1.190217e-06   2.2885923e-06  1.3471022e+08
     22000   4.4804669e-12  109398.44      100969.61      953226.86      3.4788368e-06  1.1905882e-06  2.2882486e-06  1.3470666e+08
     23000   4.6841245e-12  109405.56      101044.24      946475.97      3.4788178e-06  1.1904203e-06  2.2883975e-06  1.3470825e+08
     24000   4.8877821e-12  109396.64      101088.01      941192.93      3.4788125e-06  1.1906017e-06  2.2882108e-06  1.3470398e+08
     25000   5.0914397e-12  109397.36      101135.94      936467.21      3.4788179e-06  1.1905921e-06  2.2882259e-06  1.347057e+08 
     26000   5.2950973e-12  109382.66      101167.56      931815.97      3.4788383e-06  1.1909199e-06  2.2879184e-06  1.3470125e+08
     27000   5.4987549e-12  109384.18      101227.59      925961.24      3.4788027e-06  1.1908524e-06  2.2879503e-06  1.3469924e+08
     28000   5.7024125e-12  109382.95      101294.19      919169.75      3.4787733e-06  1.1908488e-06  2.2879245e-06  1.3469627e+08
     29000   5.90607e-12    109418.59      101371.53      915032.24      3.4787671e-06  1.190097e-06   2.2886701e-06  1.34708e+08  
     30000   6.1097276e-12  109387.15      101389.83      910021.22      3.4787281e-06  1.1907158e-06  2.2880123e-06  1.3469445e+08
     31000   6.3133852e-12  109398.16      101450.05      905106.12      3.4787773e-06  1.1905346e-06  2.2882427e-06  1.3470266e+08
     32000   6.5170428e-12  109382.97      101483.31      900242.02      3.4788237e-06  1.1908988e-06  2.287925e-06   1.3470165e+08
     33000   6.7207004e-12  109386.97      101547.62      894209.05      3.4787476e-06  1.1907389e-06  2.2880087e-06  1.3469625e+08
     34000   6.924358e-12   109409.85      101624.71      888805.24      3.4788118e-06  1.1903246e-06  2.2884872e-06  1.3470724e+08
     35000   7.1280156e-12  109409.61      101677.25      883521.37      3.4787952e-06  1.190313e-06   2.2884822e-06  1.3470661e+08
     36000   7.3316732e-12  109395.26      101717.53      878038.1       3.4787494e-06  1.1905675e-06  2.2881819e-06  1.3469804e+08
     37000   7.5353307e-12  109396.34      101762.4       873656.68      3.4788026e-06  1.1905979e-06  2.2882047e-06  1.3470175e+08
     38000   7.7389883e-12  109403.82      101809.38      869709.95      3.4788396e-06  1.1904787e-06  2.2883609e-06  1.3470679e+08
     39000   7.9426459e-12  109387.15      101819.53      867008.29      3.4788319e-06  1.1908197e-06  2.2880123e-06  1.3470008e+08
     40000   8.1463035e-12  109417.6       101882.16      863817.18      3.47878e-06    1.1901308e-06  2.2886492e-06  1.3470838e+08
     41000   8.3499611e-12  109392.54      101892.77      860222.05      3.4787983e-06  1.1906733e-06  2.288125e-06   1.3470151e+08
     42000   8.5536187e-12  109402.45      101937.19      856778.43      3.4788235e-06  1.190491e-06   2.2883324e-06  1.3470788e+08
     43000   8.7572763e-12  109381.38      101965.31      851833.24      3.4788432e-06  1.1909515e-06  2.2878917e-06  1.3470087e+08
     44000   8.9609339e-12  109389.14      102022.04      846938.46      3.4788137e-06  1.1907597e-06  2.288054e-06   1.3470288e+08
     45000   9.1645914e-12  109387.47      102084.29      840539.37      3.4788525e-06  1.1908333e-06  2.2880191e-06  1.3470421e+08
     46000   9.368249e-12   109393.21      102143.81      835160.74      3.4788057e-06  1.1906666e-06  2.2881391e-06  1.3470281e+08
     47000   9.5719066e-12  109411.6       102219.82      829411.49      3.4788068e-06  1.190283e-06   2.2885238e-06  1.3470908e+08
     48000   9.7755642e-12  109402.09      102245.26      825903.11      3.4788524e-06  1.1905276e-06  2.2883247e-06  1.3470805e+08
     49000   9.9792218e-12  109408.85      102292.17      821892.11      3.4788905e-06  1.1904242e-06  2.2884662e-06  1.3471397e+08
     50000   1.0182879e-11  109389.66      102309.61      818205.85      3.4788225e-06  1.1907577e-06  2.2880648e-06  1.3470227e+08
     51000   1.0386537e-11  109394.79      102362.76      813403.94      3.4787758e-06  1.1906037e-06  2.2881721e-06  1.3469963e+08
     52000   1.0590195e-11  109370.33      102382.05      809000.06      3.4787827e-06  1.1911223e-06  2.2876604e-06  1.3469232e+08
     53000   1.0793852e-11  109381.9       102431.02      805268.19      3.4788481e-06  1.1909455e-06  2.2879026e-06  1.3470294e+08
     54000   1.099751e-11   109390.48      102484.51      800781.47      3.4788922e-06  1.1908101e-06  2.2880821e-06  1.3470783e+08
     55000   1.1201167e-11  109374.95      102509.28      796732.2       3.4788799e-06  1.1911227e-06  2.2877571e-06  1.3470253e+08
     56000   1.1404825e-11  109390.92      102573.26      791941.51      3.4788964e-06  1.1908053e-06  2.2880911e-06  1.3470843e+08
     57000   1.1608483e-11  109361.98      102580.25      788316.56      3.4787237e-06  1.1912378e-06  2.2874859e-06  1.3468655e+08
     58000   1.181214e-11   109392.92      102647.33      784730.32      3.4787825e-06  1.1906494e-06  2.2881331e-06  1.3470042e+08
     59000   1.2015798e-11  109411.49      102701.13      781221.73      3.4788128e-06  1.1902914e-06  2.2885215e-06  1.347089e+08 
     60000   1.2219455e-11  109386.6       102716.38      777179.37      3.4788669e-06  1.190866e-06   2.2880009e-06  1.3470614e+08
     61000   1.2423113e-11  109394.07      102756.23      773944.99      3.4788833e-06  1.1907262e-06  2.2881571e-06  1.3470951e+08
     62000   1.262677e-11   109411.9       102816.38      769727.51      3.4788479e-06  1.1903179e-06  2.2885301e-06  1.3471268e+08
     63000   1.2830428e-11  109382.48      102839.88      764400.16      3.4788599e-06  1.1909453e-06  2.2879146e-06  1.347021e+08 
     64000   1.3034086e-11  109412.04      102913.51      760019.04      3.4788219e-06  1.1902888e-06  2.288533e-06   1.3471089e+08
     65000   1.3237743e-11  109391.56      102949.15      754380.02      3.4788419e-06  1.1907373e-06  2.2881046e-06  1.3470465e+08
     66000   1.3441401e-11  109416.42      103014.19      750383.91      3.4788417e-06  1.1902171e-06  2.2886246e-06  1.3471365e+08
     67000   1.3645058e-11  109405.46      103050.4       745650.77      3.478853e-06   1.1904578e-06  2.2883952e-06  1.3471024e+08
     68000   1.3848716e-11  109388.26      103076.9       741259.33      3.4788983e-06  1.1908627e-06  2.2880357e-06  1.3470718e+08
     69000   1.4052374e-11  109403.88      103127.78      737744.93      3.4788218e-06  1.1904596e-06  2.2883622e-06  1.3470784e+08
     70000   1.4256031e-11  109370.47      103131.47      733998.35      3.4787891e-06  1.1911255e-06  2.2876635e-06  1.3469463e+08
     71000   1.4459689e-11  109429.27      103220.51      731029.55      3.4788889e-06  1.1899956e-06  2.2888933e-06  1.3472164e+08
     72000   1.4663346e-11  109416.68      103249.14      726890.82      3.4788685e-06  1.1902386e-06  2.28863e-06    1.3471567e+08
     73000   1.4867004e-11  109409.66      103282.69      722824.14      3.4788782e-06  1.190395e-06   2.2884833e-06  1.3471355e+08
     74000   1.5070661e-11  109402.44      103313.88      718970.65      3.4788128e-06  1.1904807e-06  2.2883321e-06  1.3470746e+08
     75000   1.5274319e-11  109412.32      103357.6       715593.41      3.4788342e-06  1.1902954e-06  2.2885387e-06  1.3471058e+08
     76000   1.5477977e-11  109405.13      103380.17      712608.17      3.4787777e-06  1.1903892e-06  2.2883885e-06  1.34704e+08  
     77000   1.5681634e-11  109396         103397.24      709975.52      3.4788161e-06  1.1906188e-06  2.2881974e-06  1.3470428e+08
     78000   1.5885292e-11  109410.33      103439.33      707211.95      3.4787912e-06  1.190294e-06   2.2884972e-06  1.3470717e+08
     79000   1.6088949e-11  109400.91      103454.34      704757.21      3.4788009e-06  1.1905007e-06  2.2883002e-06  1.3470328e+08
     80000   1.6292607e-11  109423.98      103510.6       701457.5       3.478816e-06   1.1900332e-06  2.2887827e-06  1.3471205e+08
     81000   1.6496265e-11  109410.52      103533.96      697758.5       3.4788158e-06  1.1903146e-06  2.2885013e-06  1.3470929e+08
     82000   1.6699922e-11  109371.06      103532.13      693952.33      3.4788513e-06  1.1911754e-06  2.2876759e-06  1.3469899e+08
     83000   1.690358e-11   109357.16      103559.11      689846.24      3.4789423e-06  1.1915573e-06  2.2873851e-06  1.3470099e+08
     84000   1.7107237e-11  109391.22      103638.6       685332.25      3.4788746e-06  1.1907772e-06  2.2880975e-06  1.3470872e+08
     85000   1.7310895e-11  109402.85      103684.41      681923.23      3.478829e-06   1.1904882e-06  2.2883408e-06  1.3470734e+08
     86000   1.7514553e-11  109398.26      103714.64      678432.8       3.4787925e-06  1.1905478e-06  2.2882447e-06  1.3470267e+08
     87000   1.771821e-11   109399.63      103753.47      674684.49      3.4787662e-06  1.1904928e-06  2.2882734e-06  1.3470234e+08
     88000   1.7921868e-11  109387.76      103781.41      670687.96      3.478798e-06   1.1907729e-06  2.2880251e-06  1.3470044e+08
     89000   1.8125525e-11  109379.33      103817.82      666190.74      3.4788058e-06  1.1909571e-06  2.2878487e-06  1.3469908e+08
     90000   1.8329183e-11  109395.94      103866.86      662961.63      3.4788085e-06  1.1906123e-06  2.2881962e-06  1.3470486e+08
     91000   1.853284e-11   109403.06      103903         660063.48      3.4788164e-06  1.1904713e-06  2.2883451e-06  1.3470835e+08
     92000   1.8736498e-11  109375.92      103916.59      655959.75      3.4788844e-06  1.191107e-06   2.2877774e-06  1.3470228e+08
     93000   1.8940156e-11  109396.04      103961.22      653526.08      3.4788568e-06  1.1906586e-06  2.2881982e-06  1.3470763e+08
     94000   1.9143813e-11  109375.2       103979         649639.34      3.4788116e-06  1.1910491e-06  2.2877625e-06  1.3469828e+08
     95000   1.9347471e-11  109405.97      104040.83      646561.29      3.4788503e-06  1.1904443e-06  2.288406e-06   1.3471035e+08
     96000   1.9551128e-11  109416.16      104075.79      644091.56      3.478804e-06   1.1901849e-06  2.2886191e-06  1.3471041e+08
     97000   1.9754786e-11  109401.77      104092.75      640939.05      3.4787917e-06  1.1904737e-06  2.2883181e-06  1.3470467e+08
     98000   1.9958444e-11  109404.3       104122.72      638195.75      3.478843e-06   1.1904719e-06  2.2883711e-06  1.3470674e+08
     99000   2.0162101e-11  109394.69      104142.01      635292.75      3.4788012e-06  1.1906311e-06  2.2881701e-06  1.3470266e+08
    100000   2.0365759e-11  109387.64      104177.35      631041.93      3.4788058e-06  1.1907833e-06  2.2880225e-06  1.3470059e+08
    101000   2.0569416e-11  109399.94      104215.5       628466.72      3.4787537e-06  1.1904739e-06  2.2882799e-06  1.3470091e+08
    102000   2.0773074e-11  109392.81      104235.76      625718.96      3.4788197e-06  1.1906889e-06  2.2881308e-06  1.347024e+08 
    103000   2.0976732e-11  109389.19      104255.55      623371.33      3.4788684e-06  1.1908134e-06  2.288055e-06   1.34708e+08  
    104000   2.1180389e-11  109386.42      104290.28      619615.22      3.4789204e-06  1.1909233e-06  2.2879971e-06  1.3470969e+08
    105000   2.1384047e-11  109395.37      104325.45      617000         3.478873e-06   1.1906887e-06  2.2881844e-06  1.3470812e+08
    106000   2.1587704e-11  109409.23      104369.88      613953.92      3.4788661e-06  1.1903918e-06  2.2884743e-06  1.3471164e+08
    107000   2.1791362e-11  109387.92      104378.11      610975.18      3.4788872e-06  1.1908586e-06  2.2880285e-06  1.3470749e+08
    108000   2.1995019e-11  109384.27      104405.86      607827.99      3.4788478e-06  1.1908957e-06  2.2879521e-06  1.3470505e+08
    109000   2.2198677e-11  109383.41      104436.85      604638.52      3.4788407e-06  1.1909067e-06  2.2879341e-06  1.3470218e+08
    110000   2.2402335e-11  109388.98      104472.42      601640.9       3.4788541e-06  1.1908036e-06  2.2880505e-06  1.3470296e+08
    111000   2.2605992e-11  109402.16      104513.11      598901.22      3.4788242e-06  1.1904978e-06  2.2883264e-06  1.3470615e+08
    112000   2.280965e-11   109411.58      104560.52      595106.91      3.4788117e-06  1.1902885e-06  2.2885232e-06  1.347092e+08 
    113000   2.3013307e-11  109372.34      104560.16      591177.1       3.478856e-06   1.1911533e-06  2.2877026e-06  1.3469868e+08
    114000   2.3216965e-11  109388.74      104597.66      589081.23      3.4788532e-06  1.1908076e-06  2.2880457e-06  1.3470537e+08
    115000   2.3420623e-11  109384.21      104629.84      585401.03      3.4788328e-06  1.190882e-06   2.2879508e-06  1.3470192e+08
    116000   2.362428e-11   109411.25      104685.46      582568.13      3.4789108e-06  1.1903944e-06  2.2885165e-06  1.3471498e+08
    117000   2.3827938e-11  109401.33      104706.53      579456.27      3.4788541e-06  1.1905451e-06  2.288309e-06   1.3470762e+08
    118000   2.4031595e-11  109383.11      104721.58      576107.34      3.4788329e-06  1.190905e-06   2.2879279e-06  1.3470152e+08
    119000   2.4235253e-11  109393.34      104754.85      573811.99      3.4787566e-06  1.1906147e-06  2.2881419e-06  1.3470114e+08
    120000   2.4438911e-11  109409.44      104803.46      570573.64      3.4787754e-06  1.1902969e-06  2.2884785e-06  1.347051e+08 
    121000   2.4642568e-11  109417.15      104831.54      568542.02      3.4787788e-06  1.1901389e-06  2.2886399e-06  1.3470808e+08
    122000   2.4846226e-11  109397.74      104827.97      566937.11      3.4788858e-06  1.190652e-06   2.2882338e-06  1.3471046e+08
    123000   2.5049883e-11  109382.62      104830.45      565160.37      3.4788667e-06  1.190949e-06   2.2879177e-06  1.3470389e+08
    124000   2.5253541e-11  109393.13      104862.59      563005.51      3.4788355e-06  1.1906981e-06  2.2881374e-06  1.347034e+08 
    125000   2.5457198e-11  109390.42      104877.67      561222.43      3.478834e-06   1.1907532e-06  2.2880808e-06  1.3470294e+08
    126000   2.5660856e-11  109380.78      104893.04      558708.84      3.4788483e-06  1.1909692e-06  2.2878791e-06  1.3470155e+08
    127000   2.5864514e-11  109385.23      104926.1       555849.42      3.4788842e-06  1.190912e-06   2.2879722e-06  1.3470409e+08
    128000   2.6068171e-11  109373.3       104940.46      553206.53      3.4788038e-06  1.1910812e-06  2.2877226e-06  1.346947e+08 
    129000   2.6271829e-11  109394.95      104987.13      550723.58      3.4787865e-06  1.190611e-06   2.2881756e-06  1.3470202e+08
    130000   2.6475486e-11  109384.5       105004.61      547917.31      3.4788173e-06  1.1908604e-06  2.2879569e-06  1.347004e+08 
    131000   2.6679144e-11  109371.15      105018.97      545130.57      3.4787975e-06  1.1911197e-06  2.2876778e-06  1.3469352e+08
    132000   2.6882802e-11  109408.03      105083.59      542390.35      3.4787764e-06  1.1903272e-06  2.2884492e-06  1.3470469e+08
    133000   2.7086459e-11  109415.24      105121.29      539345.7       3.4788058e-06  1.1902059e-06  2.2885999e-06  1.3470958e+08
    134000   2.7290117e-11  109417.51      105146.45      537056.98      3.4788234e-06  1.190176e-06   2.2886474e-06  1.3471194e+08
    135000   2.7493774e-11  109395.41      105150.04      534462.51      3.4788241e-06  1.190639e-06   2.2881852e-06  1.3470366e+08
    136000   2.7697432e-11  109371.81      105136.73      533408.94      3.4788568e-06  1.1911653e-06  2.2876915e-06  1.3469795e+08
    137000   2.790109e-11   109388.07      105187.1       530011.04      3.4788474e-06  1.1908158e-06  2.2880316e-06  1.347034e+08 
    138000   2.8104747e-11  109400.69      105220.49      527944.97      3.4788289e-06  1.1905333e-06  2.2882956e-06  1.3470664e+08
    139000   2.8308405e-11  109415.63      105255.69      525930.96      3.4788239e-06  1.1902159e-06  2.2886081e-06  1.3471104e+08
    140000   2.8512062e-11  109435.75      105296.48      523882.3       3.4788474e-06  1.1898185e-06  2.2890288e-06  1.3471842e+08
    141000   2.871572e-11   109405.39      105292.83      521178.03      3.4788065e-06  1.1904127e-06  2.2883938e-06  1.3470477e+08
    142000   2.8919377e-11  109397.38      105308.94      518755.6       3.4787763e-06  1.19055e-06    2.2882263e-06  1.3470179e+08
    143000   2.9123035e-11  109393.04      105325.17      516692.91      3.4788154e-06  1.1906798e-06  2.2881355e-06  1.3470255e+08
    144000   2.9326693e-11  109396.71      105355.78      513999.93      3.4788406e-06  1.1906281e-06  2.2882124e-06  1.3470656e+08
    145000   2.953035e-11   109379.29      105358.37      511979.11      3.4788429e-06  1.1909949e-06  2.287848e-06   1.3470064e+08
    146000   2.9734008e-11  109388.13      105389.81      509726.06      3.4788792e-06  1.1908464e-06  2.2880328e-06  1.3470571e+08
    147000   2.9937665e-11  109405.9       105426.58      507841.95      3.4788563e-06  1.1904518e-06  2.2884045e-06  1.3470968e+08
    148000   3.0141323e-11  109398.43      105447.02      505040.94      3.4788184e-06  1.19057e-06    2.2882484e-06  1.3470464e+08
    149000   3.0344981e-11  109389.92      105465.33      502347.35      3.4787988e-06  1.1907286e-06  2.2880702e-06  1.3469982e+08
    150000   3.0548638e-11  109416.79      105509.5       500642.59      3.478862e-06   1.1902296e-06  2.2886324e-06  1.3471279e+08
    151000   3.0752296e-11  109399.03      105510.99      498697.58      3.478887e-06   1.1906262e-06  2.2882609e-06  1.3470942e+08
    152000   3.0955953e-11  109393.31      105525.86      496630.9       3.4788498e-06  1.1907085e-06  2.2881412e-06  1.3470434e+08
    153000   3.1159611e-11  109394.54      105543.34      495004.95      3.47883e-06    1.1906631e-06  2.2881668e-06  1.3470368e+08
    154000   3.1363269e-11  109408.42      105582.93      492445.69      3.478871e-06   1.1904138e-06  2.2884573e-06  1.3471171e+08
    155000   3.1566926e-11  109402.56      105599.86      490159.4       3.478844e-06   1.1905093e-06  2.2883347e-06  1.3470828e+08
    156000   3.1770584e-11  109405.62      105624.19      488032.85      3.4788142e-06  1.1904155e-06  2.2883987e-06  1.3470663e+08
    157000   3.1974241e-11  109387.51      105631.77      485443.19      3.4788195e-06  1.1907995e-06  2.28802e-06    1.3470131e+08
    158000   3.2177899e-11  109390.99      105659.87      482982.43      3.4788261e-06  1.1907334e-06  2.2880927e-06  1.347032e+08 
    159000   3.2381556e-11  109393.83      105688.34      480420.17      3.4787982e-06  1.1906461e-06  2.2881521e-06  1.3470215e+08
    160000   3.2585214e-11  109391.15      105716.27      477353.06      3.4787938e-06  1.1906978e-06  2.288096e-06   1.3470022e+08
    161000   3.2788872e-11  109401.33      105756.7       474335.85      3.4788195e-06  1.1905105e-06  2.288309e-06   1.3470537e+08
    162000   3.2992529e-11  109409.13      105787.29      472061.77      3.4788466e-06  1.1903745e-06  2.2884721e-06  1.3471075e+08
    163000   3.3196187e-11  109385.67      105774.35      470984.9       3.4788745e-06  1.1908931e-06  2.2879815e-06  1.3470366e+08
    164000   3.3399844e-11  109399.84      105806.88      469160.78      3.4788494e-06  1.1905717e-06  2.2882777e-06  1.347089e+08 
    165000   3.3603502e-11  109401.35      105828.21      467178.74      3.4788848e-06  1.1905754e-06  2.2883094e-06  1.3471036e+08
    166000   3.380716e-11   109396.56      105839.09      465605.57      3.4789028e-06  1.1906936e-06  2.2882091e-06  1.347091e+08 
    167000   3.4010817e-11  109402.02      105861.57      463906.61      3.4787981e-06  1.1904748e-06  2.2883233e-06  1.3470415e+08
    168000   3.4214475e-11  109397.43      105867.94      462805.32      3.478767e-06   1.1905397e-06  2.2882273e-06  1.3470089e+08
    169000   3.4418132e-11  109398.28      105880.84      461600.21      3.4787147e-06  1.1904695e-06  2.2882452e-06  1.3469825e+08
    170000   3.462179e-11   109405.21      105907.55      459627.3       3.4787629e-06  1.1903728e-06  2.2883901e-06  1.3470281e+08
    171000   3.4825448e-11  109405.08      105927.66      457600.72      3.4788123e-06  1.190425e-06   2.2883873e-06  1.3470671e+08
    172000   3.5029105e-11  109385.05      105926.71      455671.33      3.4788629e-06  1.1908946e-06  2.2879683e-06  1.3470542e+08
    173000   3.5232763e-11  109373.84      105936.44      453563.96      3.4788649e-06  1.1911309e-06  2.287734e-06   1.3470262e+08
    174000   3.543642e-11   109378.98      105958.07      451918.41      3.4788729e-06  1.1910314e-06  2.2878415e-06  1.3470322e+08
    175000   3.5640078e-11  109372.1       105970.57      449971.27      3.4788378e-06  1.1911403e-06  2.2876975e-06  1.346984e+08 
    176000   3.5843735e-11  109404.58      106014.95      448813.49      3.4788048e-06  1.1904278e-06  2.288377e-06   1.3470681e+08
    177000   3.6047393e-11  109392.9       106022.72      446854.83      3.4788452e-06  1.1907126e-06  2.2881326e-06  1.3470417e+08
    178000   3.6251051e-11  109387.2       106031.83      445366.44      3.4788544e-06  1.190841e-06   2.2880134e-06  1.3470455e+08
    179000   3.6454708e-11  109398.34      106062.77      443395.68      3.4788296e-06  1.1905833e-06  2.2882464e-06  1.3470712e+08
    180000   3.6658366e-11  109390.45      106072.86      441587.87      3.4787901e-06  1.1907086e-06  2.2880815e-06  1.3470099e+08
    181000   3.6862023e-11  109395.14      106092.08      440137.36      3.4788005e-06  1.1906211e-06  2.2881794e-06  1.3470249e+08
    182000   3.7065681e-11  109408.98      106124.08      438333.29      3.4787821e-06  1.1903132e-06  2.2884689e-06  1.3470556e+08
    183000   3.7269339e-11  109397.98      106128.76      436752.66      3.4787686e-06  1.1905298e-06  2.2882388e-06  1.3470175e+08
    184000   3.7472996e-11  109393.38      106143.03      434860.73      3.4787901e-06  1.1906473e-06  2.2881427e-06  1.3470368e+08
    185000   3.7676654e-11  109401.16      106167.45      433202.02      3.4788488e-06  1.1905434e-06  2.2883054e-06  1.3471014e+08
    186000   3.7880311e-11  109379.4       106162.11      431537.29      3.4788478e-06  1.1909976e-06  2.2878503e-06  1.3470284e+08
    187000   3.8083969e-11  109397.55      106198.02      429776.77      3.4788555e-06  1.1906257e-06  2.2882298e-06  1.3470995e+08
    188000   3.8287626e-11  109397.99      106217.49      427872.35      3.4788122e-06  1.1905732e-06  2.288239e-06   1.347057e+08 
    189000   3.8491284e-11  109390.67      106233.42      425537.99      3.4788274e-06  1.1907414e-06  2.288086e-06   1.3470478e+08
    190000   3.8694942e-11  109390.14      106256.85      423139.18      3.4788259e-06  1.1907509e-06  2.2880749e-06  1.3470378e+08
    191000   3.8898599e-11  109411.53      106300.17      420965.5       3.4788496e-06  1.1903273e-06  2.2885223e-06  1.3471159e+08
    192000   3.9102257e-11  109388.49      106291.06      419548.68      3.4788447e-06  1.1908043e-06  2.2880405e-06  1.3470428e+08
    193000   3.9305914e-11  109402.42      106322.58      417801.14      3.4788566e-06  1.1905248e-06  2.2883318e-06  1.3471085e+08
    194000   3.9509572e-11  109403.18      106340.77      416056.66      3.4788306e-06  1.1904831e-06  2.2883476e-06  1.3470752e+08
    195000   3.971323e-11   109397.37      106351.03      414442.68      3.4787648e-06  1.1905387e-06  2.288226e-06   1.347022e+08 
    196000   3.9916887e-11  109377.35      106338.09      413714.24      3.4787792e-06  1.1909718e-06  2.2878074e-06  1.3469608e+08
    197000   4.0120545e-11  109388.38      106373.31      411303.62      3.4787759e-06  1.190738e-06   2.288038e-06   1.3469842e+08
    198000   4.0324202e-11  109407.38      106408.06      409746.96      3.4787995e-06  1.1903639e-06  2.2884356e-06  1.3470553e+08
    199000   4.052786e-11   109400.04      106423.98      407410.4       3.4787948e-06  1.1905128e-06  2.288282e-06   1.3470375e+08
    200000   4.0731518e-11  109404.73      106452.56      405024.02      3.4788337e-06  1.1904536e-06  2.2883801e-06  1.3470771e+08
    201000   4.0935175e-11  109413.66      106469.31      404249.33      3.4788049e-06  1.1902382e-06  2.2885668e-06  1.3470901e+08
    202000   4.1138833e-11  109395.05      106465.11      402789.32      3.4788596e-06  1.190682e-06   2.2881777e-06  1.3470649e+08
    203000   4.134249e-11   109385.11      106459.69      402327.07      3.4788326e-06  1.1908628e-06  2.2879697e-06  1.3470182e+08
    204000   4.1546148e-11  109388.47      106474.98      401136.16      3.4788714e-06  1.1908314e-06  2.28804e-06    1.3470578e+08
    205000   4.1749805e-11  109399.99      106492.72      400524.14      3.4788074e-06  1.1905265e-06  2.2882809e-06  1.3470548e+08
    206000   4.1953463e-11  109396.13      106499.65      399440.47      3.4788143e-06  1.1906142e-06  2.2882001e-06  1.3470453e+08
    207000   4.2157121e-11  109398.48      106509.24      398717.73      3.4788193e-06  1.19057e-06    2.2882493e-06  1.3470576e+08
    208000   4.2360778e-11  109393.17      106518.37      397268.02      3.4788463e-06  1.190708e-06   2.2881383e-06  1.3470555e+08
    209000   4.2564436e-11  109395.7       106537.8       395578.32      3.4788373e-06  1.1906462e-06  2.2881911e-06  1.3470478e+08
    210000   4.2768093e-11  109403.41      106554.43      394693.38      3.4788137e-06  1.1904612e-06  2.2883525e-06  1.3470718e+08
    211000   4.2971751e-11  109395.99      106550.33      394354.16      3.4788347e-06  1.1906374e-06  2.2881973e-06  1.3470786e+08
    212000   4.3175409e-11  109375.44      106547.2       392588.97      3.4788709e-06  1.1911035e-06  2.2877674e-06  1.3470095e+08
    213000   4.3379066e-11  109386.25      106573.25      391075.07      3.4788623e-06  1.1908687e-06  2.2879935e-06  1.3470333e+08
    214000   4.3582724e-11  109409.05      106613.9       389310.87      3.478843e-06   1.1903726e-06  2.2884704e-06  1.3471147e+08
    215000   4.3786381e-11  109398.11      106612.92      388302.67      3.4788772e-06  1.1906355e-06  2.2882416e-06  1.3470879e+08
    216000   4.3990039e-11  109391.48      106621.54      386768.81      3.4788637e-06  1.1907609e-06  2.2881029e-06  1.347076e+08 
    217000   4.4193697e-11  109384.44      106632.59      384951.73      3.4789054e-06  1.1909497e-06  2.2879557e-06  1.3470877e+08
    218000   4.4397354e-11  109379.46      106648.02      382903.43      3.4788578e-06  1.1910062e-06  2.2878515e-06  1.3470152e+08
    219000   4.4601012e-11  109405.33      106685.9       381727.77      3.478883e-06   1.1904903e-06  2.2883927e-06  1.3471171e+08
    220000   4.4804669e-11  109391.47      106687.14      380202.13      3.4788532e-06  1.1907505e-06  2.2881027e-06  1.3470519e+08
    221000   4.5008327e-11  109392.82      106696.28      379424.13      3.4788349e-06  1.1907038e-06  2.288131e-06   1.3470467e+08
    222000   4.5211984e-11  109396.6       106710.36      378396.6       3.4788244e-06  1.1906145e-06  2.28821e-06    1.3470491e+08
    223000   4.5415642e-11  109408.32      106735.08      377107.26      3.4788621e-06  1.1904069e-06  2.2884552e-06  1.3471152e+08
    224000   4.56193e-11    109388.76      106728.39      375798.51      3.4788694e-06  1.1908234e-06  2.288046e-06   1.3470521e+08
    225000   4.5822957e-11  109379.63      106727.42      374973.77      3.4788398e-06  1.1909847e-06  2.2878551e-06  1.3470156e+08
    226000   4.6026615e-11  109411.75      106771.86      373772.21      3.4788021e-06  1.1902752e-06  2.2885269e-06  1.3470923e+08
    227000   4.6230272e-11  109413.14      106785.24      372572.97      3.4787991e-06  1.1902431e-06  2.288556e-06   1.3470838e+08
    228000   4.643393e-11   109403.35      106786.55      371452.55      3.4788521e-06  1.1905009e-06  2.2883513e-06  1.347083e+08 
    229000   4.6637588e-11  109392.52      106800.93      368917.5       3.4787936e-06  1.190669e-06   2.2881246e-06  1.3470254e+08
    230000   4.6841245e-11  109380.7       106800.94      367721.95      3.4787461e-06  1.1908686e-06  2.2878775e-06  1.3469589e+08
    231000   4.7044903e-11  109396.34      106837.34      365660.2       3.478857e-06   1.1906524e-06  2.2882046e-06  1.3470799e+08
    232000   4.724856e-11   109376.96      106837.16      363717.53      3.4788851e-06  1.191086e-06   2.2877991e-06  1.3470288e+08
    233000   4.7452218e-11  109364.25      106845.58      361591.01      3.4788867e-06  1.1913533e-06  2.2875334e-06  1.346993e+08 
    234000   4.7655876e-11  109386.38      106884.7       359911.86      3.4788242e-06  1.1908279e-06  2.2879963e-06  1.3470317e+08
    235000   4.7859533e-11  109409.38      106925.14      358189.01      3.478807e-06   1.1903296e-06  2.2884773e-06  1.3470774e+08
    236000   4.8063191e-11  109410.49      106931.89      357625.24      3.4788156e-06  1.1903151e-06  2.2885005e-06  1.3470721e+08
    237000   4.8266848e-11  109378.38      106914.97      356073.83      3.4788199e-06  1.1909909e-06  2.287829e-06   1.3469778e+08
    238000   4.8470506e-11  109404.95      106950.95      355158.04      3.4788413e-06  1.1904566e-06  2.2883847e-06  1.3471073e+08
    239000   4.8674163e-11  109350.15      106911.77      353538.58      3.478832e-06   1.1915936e-06  2.2872384e-06  1.3469155e+08
    240000   4.8877821e-11  109380.81      106950.04      352807.96      3.4788229e-06  1.1909431e-06  2.2878798e-06  1.3470193e+08
    241000   4.9081479e-11  109383.39      106971.84      350887.63      3.4788173e-06  1.1908835e-06  2.2879338e-06  1.3469867e+08
    242000   4.9285136e-11  109403.86      106998.82      350255.39      3.478741e-06   1.1903791e-06  2.2883618e-06  1.347008e+08 
    243000   4.9488794e-11  109397.72      106994.04      350114.17      3.4787918e-06  1.1905583e-06  2.2882335e-06  1.3470264e+08
    244000   4.9692451e-11  109377.03      106990.03      348422.24      3.4787792e-06  1.1909786e-06  2.2878006e-06  1.346951e+08 
    245000   4.9896109e-11  109383.41      107001.78      347891.5       3.4788216e-06  1.1908875e-06  2.2879341e-06  1.3470108e+08
    246000   5.0099767e-11  109407.2       107035.04      346967.65      3.4787943e-06  1.1903626e-06  2.2884318e-06  1.3470776e+08
    247000   5.0303424e-11  109389.52      107030         345685.2       3.4788454e-06  1.1907835e-06  2.288062e-06   1.3470387e+08
    248000   5.0507082e-11  109396.76      107041.23      345292.82      3.4788046e-06  1.1905912e-06  2.2882134e-06  1.347053e+08 
    249000   5.0710739e-11  109391.42      107042.6       344615.34      3.4788169e-06  1.1907153e-06  2.2881016e-06  1.347054e+08 
    250000   5.0914397e-11  109394.92      107058.68      343359.66      3.4788451e-06  1.1906703e-06  2.2881749e-06  1.3470778e+08
    251000   5.1118055e-11  109396.43      107079.84      341395.02      3.4788748e-06  1.1906683e-06  2.2882065e-06  1.3470848e+08
    252000   5.1321712e-11  109398.23      107083.14      341246.08      3.4788658e-06  1.1906218e-06  2.288244e-06   1.347079e+08 
    253000   5.152537e-11   109395.74      107093.6       339948         3.4788268e-06  1.1906347e-06  2.2881921e-06  1.3470434e+08
    254000   5.1729027e-11  109401.05      107113.4       338502.22      3.4788044e-06  1.1905014e-06  2.288303e-06   1.3470395e+08
    255000   5.1932685e-11  109420.16      107137.83      337989.24      3.4788202e-06  1.1901173e-06  2.2887029e-06  1.3470999e+08
    256000   5.2136342e-11  109416.75      107143.01      337125.41      3.4788014e-06  1.1901699e-06  2.2886315e-06  1.347098e+08 
    257000   5.234e-11      109395.71      107124.9       336811.3       3.4787944e-06  1.1906031e-06  2.2881913e-06  1.3470313e+08
    258000   5.2543658e-11  109395.03      107123.18      336914.89      3.4787948e-06  1.1906176e-06  2.2881773e-06  1.347043e+08 
    259000   5.2747315e-11  109393.47      107133.18      335755.81      3.4787592e-06  1.1906146e-06  2.2881446e-06  1.3469986e+08
    260000   5.2950973e-11  109404.51      107154.81      334707.7       3.4787888e-06  1.1904133e-06  2.2883755e-06  1.3470582e+08
    261000   5.315463e-11   109377.55      107133.33      334131.3       3.4787694e-06  1.1909578e-06  2.2878116e-06  1.3469501e+08
    262000   5.3358288e-11  109400.62      107170.41      332751.85      3.4787805e-06  1.1904865e-06  2.2882941e-06  1.3470402e+08
    263000   5.3561946e-11  109372.67      107156.25      331343.58      3.4787366e-06  1.1910271e-06  2.2877094e-06  1.3469173e+08
    264000   5.3765603e-11  109395.27      107185.72      330678.75      3.4788165e-06  1.1906342e-06  2.2881823e-06  1.3470413e+08
    265000   5.3969261e-11  109384.93      107177.91      330415.39      3.4788766e-06  1.1909107e-06  2.2879659e-06  1.3470334e+08
    266000   5.4172918e-11  109413.22      107214.71      329591.6       3.4787646e-06  1.190207e-06   2.2885576e-06  1.3470778e+08
    267000   5.4376576e-11  109392.04      107200.76      328846.47      3.4788613e-06  1.1907466e-06  2.2881147e-06  1.3470567e+08
    268000   5.4580234e-11  109389.31      107209.4       327705.57      3.4788146e-06  1.190757e-06   2.2880575e-06  1.3470168e+08
    269000   5.4783891e-11  109388.3       107213.03      327240.79      3.4787777e-06  1.1907412e-06  2.2880364e-06  1.3469852e+08
    270000   5.4987549e-11  109390.18      107226.29      326102.74      3.4787823e-06  1.1907066e-06  2.2880757e-06  1.347004e+08 
    271000   5.5191206e-11  109397.66      107240.16      325471.25      3.4788183e-06  1.190586e-06   2.2882323e-06  1.3470541e+08
    272000   5.5394864e-11  109389.03      107243.29      324284.62      3.478753e-06   1.1907013e-06  2.2880516e-06  1.346989e+08 
    273000   5.5598521e-11  109389.1       107251.58      323462.19      3.4787971e-06  1.190744e-06   2.2880532e-06  1.3470217e+08
    274000   5.5802179e-11  109385.76      107263.33      321948.4       3.4788077e-06  1.1908245e-06  2.2879832e-06  1.3469964e+08
    275000   5.6005837e-11  109395.71      107278.93      321392.72      3.4787417e-06  1.1905504e-06  2.2881913e-06  1.3469937e+08
    276000   5.6209494e-11  109393.39      107284.59      320591.58      3.4788197e-06  1.1906768e-06  2.2881428e-06  1.3470381e+08
    277000   5.6413152e-11  109378.84      107278.27      319752.58      3.4787837e-06  1.1909453e-06  2.2878384e-06  1.3469689e+08
    278000   5.6616809e-11  109416.23      107329.04      318451.19      3.4787532e-06  1.1901327e-06  2.2886205e-06  1.3470615e+08
    279000   5.6820467e-11  109412.36      107329.97      317967.74      3.4787716e-06  1.1902319e-06  2.2885397e-06  1.347073e+08 
    280000   5.7024125e-11  109398.02      107319.57      317557.73      3.4787821e-06  1.1905425e-06  2.2882396e-06  1.3470287e+08
    281000   5.7227782e-11  109429.2       107360.49      316615.07      3.4787458e-06  1.1898539e-06  2.2888919e-06  1.3471061e+08
    282000   5.743144e-11   109406.42      107346.84      315678.34      3.4787819e-06  1.1903665e-06  2.2884154e-06  1.3470478e+08
    283000   5.7635097e-11  109382.74      107338.56      314112.42      3.4787654e-06  1.1908453e-06  2.2879201e-06  1.3469648e+08
    284000   5.7838755e-11  109390.65      107350.98      313668.71      3.4788299e-06  1.1907444e-06  2.2880855e-06  1.3470452e+08
    285000   5.8042413e-11  109373.97      107339.13      313169.73      3.4788049e-06  1.1910681e-06  2.2877368e-06  1.3469803e+08
    286000   5.824607e-11   109395.69      107378.34      311439.62      3.478785e-06   1.1905941e-06  2.2881909e-06  1.3470333e+08
    287000   5.8449728e-11  109379.01      107372.25      310363.63      3.4787952e-06  1.190953e-06   2.2878422e-06  1.3469622e+08
    288000   5.8653385e-11  109377.85      107381.44      309326.97      3.478767e-06   1.1909491e-06  2.2878179e-06  1.3469556e+08
    289000   5.8857043e-11  109416.05      107422.02      309125.67      3.4788419e-06  1.1902252e-06  2.2886167e-06  1.3471272e+08
    290000   5.90607e-11    109387.8       107399.6       308514.62      3.4788483e-06  1.1908223e-06  2.288026e-06   1.3470408e+08
    291000   5.9264358e-11  109399.62      107427.5       306916.05      3.4788112e-06  1.1905381e-06  2.2882731e-06  1.3470574e+08
    292000   5.9468016e-11  109376.54      107413.1       306024.75      3.4788651e-06  1.1910746e-06  2.2877905e-06  1.3470027e+08
    293000   5.9671673e-11  109399.14      107445.63      305052.72      3.47884e-06    1.190577e-06   2.2882631e-06  1.3470768e+08
    294000   5.9875331e-11  109405.73      107457.15      304566.61      3.4788312e-06  1.1904302e-06  2.288401e-06   1.3470862e+08
    295000   6.0078988e-11  109399.07      107460.47      303560.33      3.4787881e-06  1.1905264e-06  2.2882617e-06  1.3470544e+08
    296000   6.0282646e-11  109379.4       107454.89      302130.49      3.4787902e-06  1.19094e-06    2.2878502e-06  1.3469729e+08
    297000   6.0486304e-11  109388.44      107478.78      300653.1       3.4788278e-06  1.1907884e-06  2.2880394e-06  1.3470299e+08
    298000   6.0689961e-11  109384.56      107473.62      300777.87      3.4788486e-06  1.1908903e-06  2.2879583e-06  1.3470468e+08
    299000   6.0893619e-11  109349.69      107447.61      299856.08      3.4788676e-06  1.1916387e-06  2.2872288e-06  1.3469382e+08
    300000   6.1097276e-11  109367.9       107475.6       298894.31      3.4788368e-06  1.1912272e-06  2.2876097e-06  1.3469941e+08
    301000   6.1300934e-11  109392.1       107506.83      298215.58      3.4788359e-06  1.19072e-06    2.2881159e-06  1.3470652e+08
    302000   6.1504592e-11  109403.57      107535.32      296523.49      3.47882e-06    1.1904642e-06  2.2883558e-06  1.3470895e+08
    303000   6.1708249e-11  109408.68      107549.59      295611.41      3.4788315e-06  1.1903688e-06  2.2884627e-06  1.3471135e+08
    304000   6.1911907e-11  109383.81      107530.33      295025.55      3.4788327e-06  1.1908902e-06  2.2879426e-06  1.3470373e+08
    305000   6.2115564e-11  109388.84      107543.84      294181.52      3.4788578e-06  1.19081e-06    2.2880478e-06  1.3470685e+08
    306000   6.2319222e-11  109380.69      107539.81      293760.28      3.4787477e-06  1.1908705e-06  2.2878772e-06  1.346957e+08 
    307000   6.2522879e-11  109389.67      107559.79      292668.22      3.4787569e-06  1.1906918e-06  2.2880651e-06  1.3469947e+08
    308000   6.2726537e-11  109395.03      107566.91      292497.5       3.4787926e-06  1.1906154e-06  2.2881772e-06  1.3470323e+08
    309000   6.2930195e-11  109405.81      107583.06      291970.87      3.4788429e-06  1.1904402e-06  2.2884027e-06  1.3470985e+08
    310000   6.3133852e-11  109401.06      107581.47      291649.88      3.4788142e-06  1.1905108e-06  2.2883033e-06  1.3470652e+08
    311000   6.333751e-11   109408.5       107593.55      291192.68      3.4787808e-06  1.190322e-06   2.2884589e-06  1.3470614e+08
    312000   6.3541167e-11  109434.01      107627.27      290396.81      3.4787664e-06  1.1897738e-06  2.2889926e-06  1.3471461e+08
    313000   6.3744825e-11  109397.1       107596.27      289767.4       3.4787908e-06  1.1905704e-06  2.2882204e-06  1.3470205e+08
    314000   6.3948483e-11  109402.47      107606.93      289243.88      3.4788737e-06  1.190541e-06   2.2883327e-06  1.3471139e+08
    315000   6.415214e-11   109393.57      107603.52      288685.27      3.4788589e-06  1.1907124e-06  2.2881465e-06  1.3470752e+08
    316000   6.4355798e-11  109389.16      107606.61      287930.49      3.4788399e-06  1.1907854e-06  2.2880545e-06  1.3470436e+08
    317000   6.4559455e-11  109376.77      107603.96      286942.97      3.478821e-06   1.1910258e-06  2.2877952e-06  1.3469967e+08
    318000   6.4763113e-11  109405.97      107643.2       285966.67      3.4788322e-06  1.1904263e-06  2.2884059e-06  1.3471063e+08
    319000   6.496677e-11   109404         107649.27      285160.58      3.4788255e-06  1.1904607e-06  2.2883649e-06  1.3470641e+08
    320000   6.5170428e-11  109413.45      107661.23      284917.94      3.4787632e-06  1.1902008e-06  2.2885624e-06  1.3470746e+08
    321000   6.5374086e-11  109398.59      107653.65      284174.47      3.4788513e-06  1.1905997e-06  2.2882516e-06  1.3470844e+08
    322000   6.5577743e-11  109392.7       107665.18      282426.27      3.4788328e-06  1.1907043e-06  2.2881285e-06  1.3470599e+08
    323000   6.5781401e-11  109379.47      107660.74      281532.23      3.4788271e-06  1.1909754e-06  2.2878517e-06  1.3470208e+08
    324000   6.5985058e-11  109391.58      107686.03      280225.49      3.4788528e-06  1.1907479e-06  2.288105e-06   1.3470677e+08
    325000   6.6188716e-11  109369.43      107672.72      279317.39      3.4788072e-06  1.1911655e-06  2.2876416e-06  1.3469632e+08
    326000   6.6392374e-11  109382.63      107692.67      278655.18      3.4788042e-06  1.1908865e-06  2.2879177e-06  1.3469948e+08
    327000   6.6596031e-11  109398.85      107712.21      278338.82      3.4788207e-06  1.1905637e-06  2.288257e-06   1.3470604e+08
    328000   6.6799689e-11  109390.42      107711.98      277510.24      3.478848e-06   1.1907673e-06  2.2880807e-06  1.3470419e+08
    329000   6.7003346e-11  109422.23      107750.59      276860.82      3.4787708e-06  1.1900247e-06  2.2887461e-06  1.3471134e+08
    330000   6.7207004e-11  109380.87      107713.92      276351.1       3.4788007e-06  1.1909197e-06  2.287881e-06   1.3469746e+08
    331000   6.7410662e-11  109373.83      107710.82      275949.49      3.478778e-06   1.1910442e-06  2.2877338e-06  1.3469598e+08
    332000   6.7614319e-11  109375.83      107718.5       275382.51      3.4788039e-06  1.1910284e-06  2.2877755e-06  1.3469832e+08
    333000   6.7817977e-11  109402.04      107753.05      274573.68      3.4788358e-06  1.1905119e-06  2.2883238e-06  1.3470778e+08
    334000   6.8021634e-11  109425.38      107783.4       273895.46      3.4787585e-06  1.1899465e-06  2.288812e-06   1.3471094e+08
    335000   6.8225292e-11  109421.38      107786.92      273139.13      3.4787807e-06  1.1900524e-06  2.2887284e-06  1.3471021e+08
    336000   6.8428949e-11  109404.12      107773.7       272716.97      3.4787961e-06  1.1904288e-06  2.2883673e-06  1.3470499e+08
    337000   6.8632607e-11  109420.61      107798.36      271916.12      3.4788446e-06  1.1901325e-06  2.2887122e-06  1.3471513e+08
    338000   6.8836265e-11  109391.01      107770.29      271733.31      3.4788474e-06  1.1907543e-06  2.2880931e-06  1.3470321e+08
    339000   6.9039922e-11  109412.84      107796.92      271274.5       3.4788418e-06  1.1902921e-06  2.2885496e-06  1.3471133e+08
    340000   6.924358e-11   109364.5       107747.43      271341.43      3.4787666e-06  1.1912281e-06  2.2875385e-06  1.3469155e+08
    341000   6.9447237e-11  109403.23      107789.48      271047.92      3.4788006e-06  1.1904519e-06  2.2883487e-06  1.3470635e+08
    342000   6.9650895e-11  109403.97      107795.8       270489.76      3.478823e-06   1.1904588e-06  2.2883642e-06  1.3470807e+08
    343000   6.9854553e-11  109407.95      107807.41      269729.18      3.4787962e-06  1.1903489e-06  2.2884473e-06  1.3470706e+08
    344000   7.005821e-11   109412.2       107814.29      269471         3.4787436e-06  1.1902074e-06  2.2885362e-06  1.3470416e+08
    345000   7.0261868e-11  109398.19      107804.67      269017.28      3.4787696e-06  1.1905263e-06  2.2882433e-06  1.3470282e+08
    346000   7.0465525e-11  109388.88      107797.38      268806.38      3.4788429e-06  1.1907944e-06  2.2880486e-06  1.347039e+08 
    347000   7.0669183e-11  109388.74      107808.44      267684.36      3.4787759e-06  1.1907304e-06  2.2880455e-06  1.3470073e+08
    348000   7.0872841e-11  109387.21      107815.83      266790.37      3.4788424e-06  1.1908288e-06  2.2880136e-06  1.3470209e+08
    349000   7.1076498e-11  109415.6       107853.4       265900.21      3.4788365e-06  1.1902291e-06  2.2886074e-06  1.3471059e+08
    350000   7.1280156e-11  109397.95      107839.48      265509.51      3.4787614e-06  1.1905231e-06  2.2882383e-06  1.3470029e+08
    351000   7.1483813e-11  109383.8       107831.05      264922.57      3.4787802e-06  1.1908379e-06  2.2879423e-06  1.3469768e+08
    352000   7.1687471e-11  109394.91      107850.58      264090.95      3.4787664e-06  1.1905917e-06  2.2881747e-06  1.3470112e+08
    353000   7.1891128e-11  109401.37      107860.56      263744.56      3.4787345e-06  1.1904248e-06  2.2883098e-06  1.3470132e+08
    354000   7.2094786e-11  109387.41      107856.1       262779.78      3.4788086e-06  1.1907908e-06  2.2880178e-06  1.3469967e+08
    355000   7.2298444e-11  109404.38      107881.75      261927.77      3.4788069e-06  1.1904342e-06  2.2883727e-06  1.3470699e+08
    356000   7.2502101e-11  109406.83      107882.12      262137.52      3.4788308e-06  1.1904069e-06  2.2884239e-06  1.3470946e+08
    357000   7.2705759e-11  109379.84      107852.43      262381.59      3.4787828e-06  1.1909235e-06  2.2878594e-06  1.3469757e+08
    358000   7.2909416e-11  109409.95      107891.37      261527.64      3.478818e-06   1.1903288e-06  2.2884892e-06  1.3470845e+08
    359000   7.3113074e-11  109387.45      107877.32      260659.65      3.4787736e-06  1.1907551e-06  2.2880185e-06  1.3469837e+08
    360000   7.3316732e-11  109386.72      107889.93      259323.2       3.4788272e-06  1.1908239e-06  2.2880033e-06  1.3470182e+08
    361000   7.3520389e-11  109399.26      107908.26      258755.86      3.4788242e-06  1.1905586e-06  2.2882656e-06  1.3470743e+08
    362000   7.3724047e-11  109386.81      107901.7       258153.67      3.4789112e-06  1.190906e-06   2.2880052e-06  1.3470756e+08
    363000   7.3927704e-11  109391.03      107916.75      257074.13      3.4788441e-06  1.1907507e-06  2.2880935e-06  1.3470585e+08
    364000   7.4131362e-11  109391.49      107928.61      255933.59      3.4788568e-06  1.1907537e-06  2.2881031e-06  1.3470603e+08
    365000   7.433502e-11   109389.59      107939.76      254625.97      3.4787985e-06  1.190735e-06   2.2880635e-06  1.347014e+08 
    366000   7.4538677e-11  109398.54      107951.49      254355.82      3.4787723e-06  1.1905218e-06  2.2882505e-06  1.3470198e+08
    367000   7.4742335e-11  109420.94      107975.91      254177.53      3.4787737e-06  1.1900545e-06  2.2887192e-06  1.3471126e+08
    368000   7.4945992e-11  109409.18      107968.97      253682.65      3.4788261e-06  1.1903528e-06  2.2884732e-06  1.3471076e+08
    369000   7.514965e-11   109394.51      107965.53      252543.02      3.4787801e-06  1.1906138e-06  2.2881663e-06  1.3469988e+08
    370000   7.5353307e-11  109406.31      107986.75      251612.65      3.4787803e-06  1.1903672e-06  2.2884131e-06  1.3470589e+08
    371000   7.5556965e-11  109390.11      107973.6       251291.43      3.4788588e-06  1.1907845e-06  2.2880743e-06  1.347069e+08 
    372000   7.5760623e-11  109393.63      107984.19      250586.66      3.4788525e-06  1.1907047e-06  2.2881478e-06  1.3470773e+08
    373000   7.596428e-11   109393.77      107986.49      250370.02      3.4788214e-06  1.1906707e-06  2.2881508e-06  1.3470437e+08
    374000   7.6167938e-11  109399.25      107998.39      249734.02      3.4787381e-06  1.1904727e-06  2.2882654e-06  1.3470075e+08
    375000   7.6371595e-11  109405.15      108005.41      249628.15      3.478785e-06   1.1903961e-06  2.2883889e-06  1.3470539e+08
    376000   7.6575253e-11  109424.3       108034.67      248634.54      3.4788166e-06  1.1900272e-06  2.2887894e-06  1.3471238e+08
    377000   7.6778911e-11  109423.12      108040.57      247924.66      3.4787972e-06  1.1900324e-06  2.2887648e-06  1.3471206e+08
    378000   7.6982568e-11  109402.18      108023.47      247519.7       3.4788228e-06  1.190496e-06   2.2883268e-06  1.3470576e+08
    379000   7.7186226e-11  109399.04      108027.19      246829.93      3.4788217e-06  1.1905606e-06  2.2882611e-06  1.3470677e+08
    380000   7.7389883e-11  109378.21      108014.35      246008.28      3.4788116e-06  1.1909864e-06  2.2878253e-06  1.3469766e+08
    381000   7.7593541e-11  109381.23      108021.16      245633.08      3.4788462e-06  1.1909577e-06  2.2878885e-06  1.347021e+08 
    382000   7.7797199e-11  109367.94      108013.05      245100.41      3.478824e-06   1.1912136e-06  2.2876104e-06  1.3469584e+08
    383000   7.8000856e-11  109412.19      108071.69      243704.17      3.4788393e-06  1.1903033e-06  2.288536e-06   1.3471122e+08
    384000   7.8204514e-11  109410.32      108074.38      243246.7       3.4788247e-06  1.1903276e-06  2.2884971e-06  1.3470956e+08
    385000   7.8408171e-11  109382.98      108049.45      242977.84      3.4788035e-06  1.1908784e-06  2.2879251e-06  1.3469871e+08
    386000   7.8611829e-11  109404.01      108070.24      243022.8       3.4788025e-06  1.1904375e-06  2.288365e-06   1.347062e+08 
    387000   7.8815486e-11  109399.18      108075.59      241998.57      3.4787868e-06  1.1905228e-06  2.288264e-06   1.3470368e+08
    388000   7.9019144e-11  109393.23      108078.93      241062.72      3.4788343e-06  1.1906948e-06  2.2881395e-06  1.3470495e+08
    389000   7.9222802e-11  109374.47      108056.74      241387.42      3.478831e-06   1.1910839e-06  2.2877471e-06  1.3469921e+08
    390000   7.9426459e-11  109378.74      108063.95      241097.96      3.4787936e-06  1.1909571e-06  2.2878365e-06  1.3469926e+08
    391000   7.9630117e-11  109380.37      108066.53      241003.43      3.4788426e-06  1.1909721e-06  2.2878705e-06  1.3470214e+08
    392000   7.9833774e-11  109391.63      108077.95      240999.17      3.4788214e-06  1.1907153e-06  2.2881061e-06  1.3470501e+08
    393000   8.0037432e-11  109394.35      108084.1       240658.23      3.4788011e-06  1.1906382e-06  2.2881629e-06  1.3470376e+08
    394000   8.024109e-11   109412.57      108104.97      240411.4       3.4788349e-06  1.1902909e-06  2.288544e-06   1.3471094e+08
    395000   8.0444747e-11  109402.49      108101.67      239723.01      3.4788135e-06  1.1904802e-06  2.2883333e-06  1.3470721e+08
    396000   8.0648405e-11  109391.23      108095.66      239186.16      3.4788401e-06  1.1907424e-06  2.2880977e-06  1.3470448e+08
    397000   8.0852062e-11  109379.96      108092.48      238364.98      3.4788172e-06  1.1909551e-06  2.287862e-06   1.3469912e+08
    398000   8.105572e-11   109386.35      108104.05      237853.07      3.4787735e-06  1.1907779e-06  2.2879956e-06  1.3469895e+08
    399000   8.1259378e-11  109411.04      108129.31      237819.83      3.4788383e-06  1.1903263e-06  2.288512e-06   1.347106e+08 
    400000   8.1463035e-11  109398.29      108124.18      237045.91      3.4787805e-06  1.190535e-06   2.2882455e-06  1.3470159e+08
    401000   8.1666693e-11  109389.23      108125.25      236021.38      3.4788814e-06  1.1908256e-06  2.2880558e-06  1.3470519e+08
    402000   8.187035e-11   109414.94      108148.54      236289.85      3.4787704e-06  1.1901768e-06  2.2885936e-06  1.3470794e+08
    403000   8.2074008e-11  109412.15      108151.12      235749.56      3.4787493e-06  1.1902139e-06  2.2885353e-06  1.347052e+08 
    404000   8.2277665e-11  109411.3       108153.54      235421.42      3.4788038e-06  1.1902864e-06  2.2885174e-06  1.3470693e+08
    405000   8.2481323e-11  109399.66      108152.91      234307.94      3.478822e-06   1.1905479e-06  2.2882741e-06  1.347034e+08 
    406000   8.2684981e-11  109377.25      108130.37      234298.52      3.4787547e-06  1.1909494e-06  2.2878052e-06  1.3469285e+08
    407000   8.2888638e-11  109397.68      108149.13      234486.29      3.4787745e-06  1.1905419e-06  2.2882327e-06  1.3470053e+08
    408000   8.3092296e-11  109398.03      108146.87      234747.87      3.4787347e-06  1.1904947e-06  2.28824e-06    1.3469801e+08
    409000   8.3295953e-11  109400.24      108155.08      234149.76      3.4787808e-06  1.1904946e-06  2.2882862e-06  1.3470326e+08
    410000   8.3499611e-11  109387.86      108136.24      234782.81      3.478844e-06   1.1908168e-06  2.2880272e-06  1.3470431e+08
    411000   8.3703269e-11  109390.64      108137.4       234949.2       3.4788879e-06  1.1908025e-06  2.2880854e-06  1.3470798e+08
    412000   8.3906926e-11  109383.6       108136.26      234349.89      3.4788498e-06  1.1909118e-06  2.287938e-06   1.3470303e+08
    413000   8.4110584e-11  109380.67      108137.21      233959.58      3.4788834e-06  1.1910067e-06  2.2878768e-06  1.3470394e+08
    414000   8.4314241e-11  109396.75      108153.61      233943.06      3.4789256e-06  1.1907125e-06  2.2882131e-06  1.3471229e+08
    415000   8.4517899e-11  109381.37      108142.59      233491.02      3.4788736e-06  1.1909822e-06  2.2878914e-06  1.3470399e+08
    416000   8.4721557e-11  109390.99      108152.54      233467.43      3.4788483e-06  1.1907557e-06  2.2880926e-06  1.3470489e+08
    417000   8.4925214e-11  109396.92      108158.53      233467.89      3.4788353e-06  1.1906186e-06  2.2882167e-06  1.3470621e+08
    418000   8.5128872e-11  109409.45      108171.43      233444.21      3.478868e-06   1.1903891e-06  2.2884789e-06  1.347124e+08 
    419000   8.5332529e-11  109385.45      108148.14      233348.2       3.4788692e-06  1.1908925e-06  2.2879767e-06  1.3470327e+08
    420000   8.5536187e-11  109404.46      108167.02      233380.21      3.4788459e-06  1.1904716e-06  2.2883743e-06  1.3470992e+08
    421000   8.5739844e-11  109404.34      108177.6       232309.47      3.4788772e-06  1.1905053e-06  2.2883719e-06  1.3471118e+08
    422000   8.5943502e-11  109406.54      108187.99      231492.6       3.4788856e-06  1.1904676e-06  2.288418e-06   1.3471315e+08
    423000   8.614716e-11   109382.59      108164.61      231410.94      3.478836e-06   1.1909191e-06  2.287917e-06   1.3470192e+08
    424000   8.6350817e-11  109380.48      108161.72      231486.98      3.4789078e-06  1.1910349e-06  2.2878729e-06  1.347048e+08 
    425000   8.6554475e-11  109380.36      108163.34      231312.48      3.4788087e-06  1.1909384e-06  2.2878703e-06  1.3469868e+08
    426000   8.6758132e-11  109422.88      108216.72      230267.15      3.4787716e-06  1.190012e-06   2.2887596e-06  1.3471111e+08
    427000   8.696179e-11   109410.15      108214.42      229211.68      3.4788173e-06  1.1903238e-06  2.2884935e-06  1.3470811e+08
    428000   8.7165448e-11  109414.43      108228.36      228248.47      3.4787989e-06  1.190216e-06   2.2885829e-06  1.3471133e+08
    429000   8.7369105e-11  109394.07      108215.1       227517.58      3.4787823e-06  1.1906253e-06  2.2881571e-06  1.3470131e+08
    430000   8.7572763e-11  109405.51      108231.35      227048.09      3.4787545e-06  1.1903581e-06  2.2883964e-06  1.3470437e+08
    431000   8.777642e-11   109394.82      108222.77      226825.36      3.4788677e-06  1.190695e-06   2.2881727e-06  1.347062e+08 
    432000   8.7980078e-11  109367.53      108198.57      226488.4       3.4788654e-06  1.1912634e-06  2.2876019e-06  1.346985e+08 
    433000   8.8183735e-11  109402.62      108239.2       225969.41      3.4788693e-06  1.1905334e-06  2.2883359e-06  1.3471062e+08
    434000   8.8387393e-11  109408.92      108245.12      226013.48      3.4788063e-06  1.1903386e-06  2.2884677e-06  1.3470729e+08
    435000   8.8591051e-11  109412.49      108247.59      226127.91      3.4788269e-06  1.1902844e-06  2.2885425e-06  1.3471057e+08
    436000   8.8794708e-11  109386.12      108223.19      225903.08      3.4788847e-06  1.190894e-06   2.2879907e-06  1.347049e+08 
    437000   8.8998366e-11  109394.05      108241.69      224854.49      3.4788569e-06  1.1907002e-06  2.2881568e-06  1.3470542e+08
    438000   8.9202023e-11  109392.29      108246.01      224242.97      3.4788447e-06  1.1907249e-06  2.2881198e-06  1.3470559e+08
    439000   8.9405681e-11  109380.89      108238.53      223839.4       3.478856e-06   1.1909747e-06  2.2878813e-06  1.3470263e+08
    440000   8.9609339e-11  109397.98      108264.25      222992.32      3.4788264e-06  1.1905876e-06  2.2882388e-06  1.3470567e+08
    441000   8.9812996e-11  109394.64      108258.41      223240.3       3.4788186e-06  1.1906495e-06  2.288169e-06   1.3470413e+08
    442000   9.0016654e-11  109412.35      108274.78      223391.14      3.4788531e-06  1.1903137e-06  2.2885394e-06  1.3471144e+08
    443000   9.0220311e-11  109419.22      108283.36      223227.67      3.4788118e-06  1.1901287e-06  2.2886831e-06  1.3471113e+08
    444000   9.0423969e-11  109401.77      108270.21      222779.74      3.4788429e-06  1.1905247e-06  2.2883182e-06  1.347075e+08 
    445000   9.0627627e-11  109407.9       108283.19      222100.09      3.4788064e-06  1.1903601e-06  2.2884463e-06  1.3470635e+08
    446000   9.0831284e-11  109398.27      108279.15      221530.11      3.4788068e-06  1.190562e-06   2.2882448e-06  1.3470367e+08
    447000   9.1034942e-11  109379.11      108263.21      221188.64      3.4787844e-06  1.1909403e-06  2.2878441e-06  1.346968e+08 
    448000   9.1238599e-11  109375.71      108268.76      220289.7       3.4787916e-06  1.1910186e-06  2.287773e-06   1.3469491e+08
    449000   9.1442257e-11  109400.83      108301.28      219574.36      3.4788226e-06  1.1905242e-06  2.2882984e-06  1.3470644e+08
    450000   9.1645914e-11  109402.05      108305.35      219290.33      3.4787984e-06  1.1904744e-06  2.288324e-06   1.3470427e+08
    451000   9.1849572e-11  109399.64      108307.5       218831.92      3.4788081e-06  1.1905344e-06  2.2882737e-06  1.3470495e+08
    452000   9.205323e-11   109407.35      108318.89      218470.77      3.4788136e-06  1.1903788e-06  2.2884348e-06  1.347075e+08 
    453000   9.2256887e-11  109419.02      108335.36      218002.7       3.4788452e-06  1.1901662e-06  2.2886791e-06  1.34715e+08  
    454000   9.2460545e-11  109387.82      108303.43      218043.21      3.4788061e-06  1.1907798e-06  2.2880263e-06  1.3469951e+08
    455000   9.2664202e-11  109396.83      108318.49      217447.52      3.4788281e-06  1.1906132e-06  2.2882149e-06  1.3470647e+08
    456000   9.286786e-11   109381.61      108304.28      217330.83      3.4788517e-06  1.1909554e-06  2.2878964e-06  1.3470408e+08
    457000   9.3071518e-11  109383.5       108305.74      217375.72      3.4788335e-06  1.1908975e-06  2.287936e-06   1.3470219e+08
    458000   9.3275175e-11  109398.2       108322.42      217192.36      3.4788224e-06  1.1905788e-06  2.2882435e-06  1.3470582e+08
    459000   9.3478833e-11  109417.83      108345.23      216893.48      3.4788156e-06  1.1901614e-06  2.2886541e-06  1.347116e+08 
    460000   9.368249e-11   109403.79      108334.7       216528.51      3.4788399e-06  1.1904795e-06  2.2883604e-06  1.3470786e+08
    461000   9.3886148e-11  109375.78      108303.93      216776.98      3.4788062e-06  1.1910315e-06  2.2877746e-06  1.3469778e+08
    462000   9.4089806e-11  109396.9       108327.5       216552.5       3.4787815e-06  1.1905652e-06  2.2882163e-06  1.3470314e+08
    463000   9.4293463e-11  109419.89      108356.04      216019.92      3.4787634e-06  1.1900662e-06  2.2886972e-06  1.3470863e+08
    464000   9.4497121e-11  109390.11      108329.88      215628.4       3.478818e-06   1.1907436e-06  2.2880744e-06  1.3470205e+08
    465000   9.4700778e-11  109398.46      108347.69      214688.95      3.4788588e-06  1.19061e-06    2.2882488e-06  1.3470798e+08
    466000   9.4904436e-11  109400.75      108350.99      214589.64      3.4787899e-06  1.1904932e-06  2.2882968e-06  1.3470518e+08
    467000   9.5108093e-11  109388.69      108336.52      214820.11      3.4788092e-06  1.1907647e-06  2.2880446e-06  1.3469962e+08
    468000   9.5311751e-11  109384.22      108332.2       214799.15      3.4788556e-06  1.1909046e-06  2.287951e-06   1.3470232e+08
    469000   9.5515409e-11  109391.35      108346.14      214125.97      3.4788571e-06  1.1907569e-06  2.2881003e-06  1.3470623e+08
    470000   9.5719066e-11  109399.93      108360.46      213559.61      3.4788304e-06  1.1905507e-06  2.2882796e-06  1.3470848e+08
    471000   9.5922724e-11  109392.35      108355.26      213313.49      3.4788922e-06  1.1907711e-06  2.2881211e-06  1.3470825e+08
    472000   9.6126381e-11  109389.86      108358.91      212696.62      3.4788858e-06  1.1908168e-06  2.288069e-06   1.3470547e+08
    473000   9.6330039e-11  109398.89      108369.49      212549.98      3.4787739e-06  1.190516e-06   2.2882579e-06  1.3470243e+08
    474000   9.6533697e-11  109398.05      108380.82      211330.58      3.4787708e-06  1.1905306e-06  2.2882402e-06  1.3470097e+08
    475000   9.6737354e-11  109400.82      108391.3       210562.17      3.4788155e-06  1.1905172e-06  2.2882982e-06  1.3470301e+08
    476000   9.6941012e-11  109420.46      108411.17      210559.39      3.4787891e-06  1.19008e-06    2.2887091e-06  1.3470978e+08
    477000   9.7144669e-11  109400.03      108400.12      209599.92      3.4787668e-06  1.1904849e-06  2.2882818e-06  1.3470262e+08
    478000   9.7348327e-11  109408.27      108415.17      208925.95      3.47878e-06    1.1903259e-06  2.2884541e-06  1.3470479e+08
    479000   9.7551985e-11  109396.42      108407.56      208489.72      3.4788294e-06  1.1906231e-06  2.2882062e-06  1.3470432e+08
    480000   9.7755642e-11  109397.81      108412.83      208103.07      3.4787876e-06  1.1905522e-06  2.2882354e-06  1.3470411e+08
    481000   9.79593e-11    109390.66      108415.15      207147.54      3.4788065e-06  1.1907208e-06  2.2880857e-06  1.3470188e+08
    482000   9.8162957e-11  109387.72      108418.77      206488.19      3.4788049e-06  1.1907807e-06  2.2880243e-06  1.3470211e+08
    483000   9.8366615e-11  109374.29      108406.5       206357.96      3.4788271e-06  1.1910838e-06  2.2877433e-06  1.3469894e+08
    484000   9.8570272e-11  109394.69      108435.36      205531.81      3.478856e-06   1.190686e-06   2.28817e-06    1.3470647e+08
    485000   9.877393e-11   109391.08      108437.29      204974.48      3.4788692e-06  1.1907747e-06  2.2880945e-06  1.3470579e+08
    486000   9.8977588e-11  109389.38      108443.07      204223.69      3.4788741e-06  1.190815e-06   2.2880591e-06  1.3470717e+08
    487000   9.9181245e-11  109390.2       108450.53      203559.23      3.4788944e-06  1.1908183e-06  2.288076e-06   1.3470866e+08
    488000   9.9384903e-11  109396.79      108462.46      203031.92      3.4788218e-06  1.1906079e-06  2.2882139e-06  1.3470538e+08
    489000   9.958856e-11   109402.61      108477.41      202123.71      3.4788174e-06  1.1904817e-06  2.2883357e-06  1.3470572e+08
    490000   9.9792218e-11  109413.89      108491.04      201899.6       3.4789011e-06  1.1903294e-06  2.2885717e-06  1.3471348e+08
    491000   9.9995876e-11  109384.99      108465.14      201570.62      3.4787998e-06  1.1908326e-06  2.2879672e-06  1.3470003e+08
    492000   1.0019953e-10  109384.14      108465.02      201496.77      3.4788457e-06  1.1908962e-06  2.2879495e-06  1.3470156e+08
    493000   1.0040319e-10  109389.56      108470.6       201486.76      3.4788427e-06  1.1907799e-06  2.2880628e-06  1.3470243e+08
    494000   1.0060685e-10  109414.37      108499.15      201137.01      3.478818e-06   1.1902363e-06  2.2885817e-06  1.3471134e+08
    495000   1.0081051e-10  109405.23      108499.53      200174.88      3.4788325e-06  1.1904419e-06  2.2883906e-06  1.3470877e+08
    496000   1.0101416e-10  109397.26      108496.5       199672         3.4788612e-06  1.1906373e-06  2.2882238e-06  1.3470668e+08
    497000   1.0121782e-10  109379.79      108483.97      199160.09      3.4788469e-06  1.1909885e-06  2.2878584e-06  1.3469936e+08
    498000   1.0142148e-10  109396.12      108496.82      199524.8       3.478871e-06   1.1906712e-06  2.2881999e-06  1.3470539e+08
    499000   1.0162514e-10  109401.6       108501.52      199608.06      3.478794e-06   1.1904795e-06  2.2883146e-06  1.3470515e+08
    500000   1.0182879e-10  109387.84      108485.94      199777.55      3.478884e-06   1.1908571e-06  2.2880269e-06  1.3470828e+08
    501000   1.0203245e-10  109398.67      108499.56      199508.13      3.4789156e-06  1.1906622e-06  2.2882533e-06  1.3471362e+08
    502000   1.0223611e-10  109395.72      108490.72      200095.17      3.4788503e-06  1.1906587e-06  2.2881916e-06  1.3470635e+08
    503000   1.0243977e-10  109421.6       108520.33      199747.61      3.4788526e-06  1.1901197e-06  2.2887329e-06  1.3471447e+08
    504000   1.0264342e-10  109391.95      108498.06      198978.67      3.4788758e-06  1.190763e-06   2.2881128e-06  1.3470768e+08
    505000   1.0284708e-10  109388.71      108496.09      198849.08      3.4788711e-06  1.1908261e-06  2.288045e-06   1.3470887e+08
    506000   1.0305074e-10  109371.46      108482.7       198445.25      3.4788928e-06  1.1912086e-06  2.2876842e-06  1.3470183e+08
    507000   1.032544e-10   109402.24      108521.75      197647.75      3.4788311e-06  1.1905032e-06  2.288328e-06   1.3470765e+08
    508000   1.0345805e-10  109382.38      108510.31      196785.4       3.4788078e-06  1.1908952e-06  2.2879126e-06  1.3469983e+08
    509000   1.0366171e-10  109414.2       108546.83      196347.33      3.4787894e-06  1.1902112e-06  2.2885782e-06  1.3470851e+08
    510000   1.0386537e-10  109406.16      108537.77      196441.2       3.4788309e-06  1.1904209e-06  2.28841e-06    1.3470778e+08
    511000   1.0406903e-10  109420.75      108550.34      196657.81      3.4787887e-06  1.1900736e-06  2.2887152e-06  1.3471069e+08
    512000   1.0427268e-10  109406.52      108545.24      195730.12      3.4787844e-06  1.1903668e-06  2.2884176e-06  1.3470589e+08
    513000   1.0447634e-10  109383.74      108525.51      195400.9       3.4788496e-06  1.1909086e-06  2.287941e-06   1.3470234e+08
    514000   1.0468e-10     109389.68      108535.76      194974.97      3.4788071e-06  1.190742e-06   2.2880652e-06  1.3470189e+08
    515000   1.0488366e-10  109393.06      108547.67      194125.98      3.4788079e-06  1.1906719e-06  2.2881361e-06  1.3470343e+08
    516000   1.0508732e-10  109375.75      108531.3       194014.27      3.4788407e-06  1.1910668e-06  2.2877739e-06  1.3469964e+08
    517000   1.0529097e-10  109383.12      108536.93      194195.57      3.4788701e-06  1.1909422e-06  2.287928e-06   1.3470519e+08
    518000   1.0549463e-10  109380.06      108532.31      194348.57      3.4788434e-06  1.1909794e-06  2.2878641e-06  1.3470121e+08
    519000   1.0569829e-10  109396.65      108550.27      194228.83      3.4788122e-06  1.190601e-06   2.2882112e-06  1.3470368e+08
    520000   1.0590195e-10  109398.01      108552.48      194143.71      3.4788134e-06  1.1905739e-06  2.2882394e-06  1.3470393e+08
    521000   1.061056e-10   109391.24      108545.01      194207.43      3.4787762e-06  1.1906784e-06  2.2880978e-06  1.3470069e+08
    522000   1.0630926e-10  109396.94      108559.66      193317.73      3.4787313e-06  1.1905142e-06  2.2882172e-06  1.3469885e+08
    523000   1.0651292e-10  109401.06      108571.9       192508.53      3.4787755e-06  1.1904722e-06  2.2883033e-06  1.3470321e+08
    524000   1.0671658e-10  109422.55      108603.92      191476.44      3.478777e-06   1.1900243e-06  2.2887528e-06  1.3471071e+08
    525000   1.0692023e-10  109413.19      108601.57      190765.01      3.4788075e-06  1.1902505e-06  2.288557e-06   1.3470829e+08
    526000   1.0712389e-10  109408.12      108593.72      191038.03      3.4788039e-06  1.1903529e-06  2.2884509e-06  1.3470649e+08
    527000   1.0732755e-10  109398.37      108585.97      190828.68      3.4788439e-06  1.1905968e-06  2.2882471e-06  1.3470688e+08
    528000   1.0753121e-10  109379.81      108576.53      189897.36      3.4788763e-06  1.1910174e-06  2.2878589e-06  1.347021e+08 
    529000   1.0773486e-10  109398.98      108598.09      189676.65      3.4788742e-06  1.1906144e-06  2.2882598e-06  1.3471037e+08
    530000   1.0793852e-10  109391.46      108590.41      189685.36      3.4788727e-06  1.1907702e-06  2.2881025e-06  1.3470584e+08
    531000   1.0814218e-10  109421.03      108620.81      189631.45      3.4788433e-06  1.1901224e-06  2.2887209e-06  1.3471513e+08
    532000   1.0834584e-10  109392.83      108590.17      189848.24      3.4788181e-06  1.1906869e-06  2.2881312e-06  1.3470389e+08
    533000   1.0854949e-10  109378.76      108579.05      189538.94      3.4788494e-06  1.1910125e-06  2.2878369e-06  1.3470081e+08
    534000   1.0875315e-10  109379.19      108583.47      189140.27      3.4788537e-06  1.1910078e-06  2.2878459e-06  1.347021e+08 
    535000   1.0895681e-10  109399.95      108611.1       188472.71      3.4788668e-06  1.1905867e-06  2.2882801e-06  1.3470829e+08
    536000   1.0916047e-10  109422.58      108640.96      187770.91      3.4788296e-06  1.1900762e-06  2.2887534e-06  1.3471373e+08
    537000   1.0936412e-10  109394.2       108617.86      187214.69      3.4788184e-06  1.1906585e-06  2.2881599e-06  1.3470263e+08
    538000   1.0956778e-10  109401.56      108626.06      187137.67      3.4788207e-06  1.190507e-06   2.2883138e-06  1.3470529e+08
    539000   1.0977144e-10  109386.02      108612.78      186896.99      3.4787975e-06  1.1908087e-06  2.2879888e-06  1.3469866e+08
    540000   1.099751e-10   109407.5       108637.57      186586.15      3.4787669e-06  1.1903289e-06  2.288438e-06   1.3470532e+08
    541000   1.1017875e-10  109402.34      108631.18      186704.21      3.4788286e-06  1.1904986e-06  2.28833e-06    1.3470768e+08
    542000   1.1038241e-10  109389.36      108615.56      186955.39      3.4788869e-06  1.1908283e-06  2.2880586e-06  1.3470769e+08
    543000   1.1058607e-10  109405.7       108629.62      187200.39      3.4788573e-06  1.1904569e-06  2.2884004e-06  1.3471119e+08
    544000   1.1078973e-10  109399.39      108620.49      187475.81      3.4788476e-06  1.1905793e-06  2.2882683e-06  1.3470761e+08
    545000   1.1099339e-10  109415.13      108637.51      187362.86      3.4788151e-06  1.1902176e-06  2.2885975e-06  1.3471153e+08
    546000   1.1119704e-10  109396.06      108621.2       187068.45      3.4788485e-06  1.1906497e-06  2.2881988e-06  1.347073e+08 
    547000   1.114007e-10   109392.73      108624.27      186425.15      3.4788544e-06  1.1907253e-06  2.2881291e-06  1.3470708e+08
    548000   1.1160436e-10  109416.39      108652.35      186006.2       3.478758e-06   1.190134e-06   2.288624e-06   1.3470767e+08
    549000   1.1180802e-10  109405.61      108645.18      185634.21      3.4788169e-06  1.1904184e-06  2.2883986e-06  1.3470715e+08
    550000   1.1201167e-10  109404.21      108636.33      186377.59      3.4787919e-06  1.1904227e-06  2.2883692e-06  1.3470567e+08
    551000   1.1221533e-10  109405.49      108630.77      187063.35      3.4788039e-06  1.190408e-06   2.2883959e-06  1.3470643e+08
    552000   1.1241899e-10  109393.79      108624.07      186551.28      3.4787871e-06  1.1906359e-06  2.2881513e-06  1.3470155e+08
    553000   1.1262265e-10  109397.32      108634.23      185891.75      3.4788278e-06  1.1906028e-06  2.288225e-06   1.3470614e+08
    554000   1.128263e-10   109400.8       108639.88      185677.93      3.4788954e-06  1.1905975e-06  2.2882979e-06  1.3471263e+08
    555000   1.1302996e-10  109399.09      108638.86      185607.09      3.4788837e-06  1.1906215e-06  2.2882622e-06  1.3471245e+08
    556000   1.1323362e-10  109389.51      108629.36      185589.77      3.4789067e-06  1.1908449e-06  2.2880617e-06  1.3471023e+08
    557000   1.1343728e-10  109378.82      108621.92      185253.6       3.4788783e-06  1.1910401e-06  2.2878382e-06  1.3470426e+08
    558000   1.1364093e-10  109401.15      108646.71      185030.1       3.4788944e-06  1.1905891e-06  2.2883052e-06  1.3471158e+08
    559000   1.1384459e-10  109391.93      108635.07      185262.51      3.4788563e-06  1.190744e-06   2.2881123e-06  1.3470519e+08
    560000   1.1404825e-10  109404.57      108651.65      184881.11      3.478829e-06   1.1904522e-06  2.2883767e-06  1.3470882e+08
    561000   1.1425191e-10  109415.65      108662.99      184866.34      3.4788411e-06  1.1902326e-06  2.2886085e-06  1.3471333e+08
    562000   1.1445556e-10  109396.91      108652.94      183977.15      3.4788406e-06  1.190624e-06   2.2882166e-06  1.3470627e+08
    563000   1.1465922e-10  109387.27      108648.01      183496.35      3.4787992e-06  1.1907843e-06  2.2880149e-06  1.3470101e+08
    564000   1.1486288e-10  109402.46      108667.29      183101.57      3.4788083e-06  1.1904757e-06  2.2883326e-06  1.3470734e+08
    565000   1.1506654e-10  109395.49      108666.42      182483.81      3.4787846e-06  1.1905978e-06  2.2881868e-06  1.3470184e+08
    566000   1.1527019e-10  109416.96      108697.24      181569.65      3.478823e-06   1.1901872e-06  2.2886358e-06  1.3471267e+08
    567000   1.1547385e-10  109382.1       108669.38      180833.98      3.4788943e-06  1.1909876e-06  2.2879067e-06  1.3470555e+08
    568000   1.1567751e-10  109394.03      108676.88      181289.68      3.4787901e-06  1.190634e-06   2.2881562e-06  1.3470159e+08
    569000   1.1588117e-10  109396.29      108680.35      181170.84      3.4787847e-06  1.1905811e-06  2.2882035e-06  1.3470171e+08
    570000   1.1608483e-10  109424.1       108706.61      181353.96      3.47873e-06    1.1899447e-06  2.2887853e-06  1.3470936e+08
    571000   1.1628848e-10  109391.76      108677.03      181045.11      3.4787626e-06  1.1906538e-06  2.2881089e-06  1.3469993e+08
    572000   1.1649214e-10  109418.54      108700.46      181406.92      3.478802e-06   1.1901332e-06  2.2886688e-06  1.3471095e+08
    573000   1.166958e-10   109392.97      108675.8       181290.45      3.4788643e-06  1.1907301e-06  2.2881342e-06  1.3470731e+08
    574000   1.1689946e-10  109404.05      108685.29      181460.47      3.4788914e-06  1.1905255e-06  2.2883658e-06  1.3471297e+08
    575000   1.1710311e-10  109402.65      108685.61      181287.4       3.4788404e-06  1.1905038e-06  2.2883365e-06  1.3470916e+08
    576000   1.1730677e-10  109388.54      108669.96      181427.56      3.4788292e-06  1.1907877e-06  2.2880415e-06  1.3470297e+08
    577000   1.1751043e-10  109400.67      108678.58      181790.4       3.4787859e-06  1.1904908e-06  2.2882951e-06  1.3470417e+08
    578000   1.1771409e-10  109404.58      108684.78      181565.49      3.478773e-06   1.190396e-06   2.288377e-06   1.347061e+08 
    579000   1.1791774e-10  109380.92      108667.34      180918.56      3.478817e-06   1.1909351e-06  2.2878819e-06  1.3469932e+08
    580000   1.181214e-10   109421.41      108706.88      181054.44      3.4788203e-06  1.1900914e-06  2.2887289e-06  1.3471232e+08
    581000   1.1832506e-10  109415.04      108704.09      180689.3       3.4788003e-06  1.1902047e-06  2.2885956e-06  1.3470946e+08
    582000   1.1852872e-10  109381.23      108673.65      180319.01      3.478786e-06   1.1908975e-06  2.2878885e-06  1.3469815e+08
    583000   1.1873237e-10  109383.72      108676.38      180296.91      3.4787917e-06  1.1908511e-06  2.2879406e-06  1.3470228e+08
    584000   1.1893603e-10  109396.23      108693.29      179869.92      3.4788127e-06  1.1906103e-06  2.2882024e-06  1.3470523e+08
    585000   1.1913969e-10  109383.49      108678.94      180018.34      3.4788197e-06  1.1908838e-06  2.2879359e-06  1.3469903e+08
    586000   1.1934335e-10  109388.26      108686.84      179709.44      3.4787868e-06  1.1907513e-06  2.2880355e-06  1.3470005e+08
    587000   1.19547e-10    109408.43      108709.19      179510.86      3.4788429e-06  1.1903855e-06  2.2884574e-06  1.3471041e+08
    588000   1.1975066e-10  109377.84      108680.43      179296.53      3.4788261e-06  1.1910086e-06  2.2878175e-06  1.3469896e+08
    589000   1.1995432e-10  109384.78      108686.31      179409.82      3.478825e-06   1.1908623e-06  2.2879627e-06  1.3470286e+08
    590000   1.2015798e-10  109399.59      108701.08      179429.38      3.4788272e-06  1.1905547e-06  2.2882725e-06  1.3470458e+08
    591000   1.2036163e-10  109410.26      108709.35      179679.57      3.4787719e-06  1.1902762e-06  2.2884957e-06  1.3470439e+08
    592000   1.2056529e-10  109396.02      108694.02      179774.94      3.4788152e-06  1.1906173e-06  2.2881979e-06  1.3470366e+08
    593000   1.2076895e-10  109407.54      108710.5       179289.98      3.4788118e-06  1.1903729e-06  2.2884388e-06  1.3470735e+08
    594000   1.2097261e-10  109393.96      108697.47      179221.29      3.4788516e-06  1.1906968e-06  2.2881548e-06  1.3470524e+08
    595000   1.2117626e-10  109409.1       108716.86      178811.5       3.4787701e-06  1.1902987e-06  2.2884715e-06  1.347065e+08 
    596000   1.2137992e-10  109399.36      108708.37      178675.54      3.4788336e-06  1.190566e-06   2.2882677e-06  1.3470702e+08
    597000   1.2158358e-10  109376.21      108686.82      178492.26      3.4788385e-06  1.191055e-06   2.2877835e-06  1.3469982e+08
    598000   1.2178724e-10  109389.73      108695.58      178982.7       3.478822e-06   1.1907557e-06  2.2880663e-06  1.3470373e+08
    599000   1.219909e-10   109390.71      108697.75      178865.17      3.4788486e-06  1.1907618e-06  2.2880868e-06  1.3470416e+08
    600000   1.2219455e-10  109391.06      108703.34      178340.24      3.4788495e-06  1.1907555e-06  2.2880941e-06  1.3470608e+08
    601000   1.2239821e-10  109405.02      108720.09      178075.23      3.4788274e-06  1.1904413e-06  2.2883861e-06  1.3470895e+08
    602000   1.2260187e-10  109391.92      108706.22      178139.43      3.4788034e-06  1.1906914e-06  2.2881121e-06  1.3470157e+08
    603000   1.2280553e-10  109385.38      108700.39      178062.09      3.4787863e-06  1.190811e-06   2.2879753e-06  1.3469793e+08
    604000   1.2300918e-10  109395.61      108711.76      177958.15      3.4787936e-06  1.1906042e-06  2.2881893e-06  1.3470386e+08
    605000   1.2321284e-10  109403.09      108718.83      178006.95      3.4788244e-06  1.1904785e-06  2.2883458e-06  1.3470867e+08
    606000   1.234165e-10   109374.02      108687.8       178173.33      3.4788504e-06  1.1911126e-06  2.2877377e-06  1.347008e+08 
    607000   1.2362016e-10  109371.23      108679.88      178683.76      3.4788422e-06  1.1911629e-06  2.2876793e-06  1.346992e+08 
    608000   1.2382381e-10  109378.05      108689.25      178436.16      3.4788639e-06  1.1910418e-06  2.2878221e-06  1.3470252e+08
    609000   1.2402747e-10  109383.87      108695.09      178439.61      3.47884e-06    1.1908964e-06  2.2879437e-06  1.3470411e+08
    610000   1.2423113e-10  109401.11      108718.08      177880.39      3.4788946e-06  1.1905903e-06  2.2883042e-06  1.3471195e+08
    611000   1.2443479e-10  109385.04      108709.25      177140.63      3.4788844e-06  1.1909161e-06  2.2879682e-06  1.3470598e+08
    612000   1.2463844e-10  109404.71      108725.35      177518.02      3.478803e-06   1.1904233e-06  2.2883797e-06  1.3470788e+08
    613000   1.248421e-10   109407.69      108730.73      177280.82      3.4788429e-06  1.1904009e-06  2.288442e-06   1.3471075e+08
    614000   1.2504576e-10  109384.61      108710.19      177003.34      3.4788537e-06  1.1908944e-06  2.2879593e-06  1.3470394e+08
    615000   1.2524942e-10  109387.41      108714.25      176879.05      3.4788591e-06  1.1908414e-06  2.2880178e-06  1.3470673e+08
    616000   1.2545307e-10  109398.15      108730.95      176293.2       3.478844e-06   1.1906016e-06  2.2882424e-06  1.3470873e+08
    617000   1.2565673e-10  109395.19      108729.26      176162.99      3.4788549e-06  1.1906744e-06  2.2881805e-06  1.3470729e+08
    618000   1.2586039e-10  109419.84      108752.23      176356.1       3.4788541e-06  1.190158e-06   2.288696e-06   1.3471405e+08
    619000   1.2606405e-10  109387.2       108722.65      176017.19      3.4788136e-06  1.1908002e-06  2.2880133e-06  1.347022e+08 
    620000   1.262677e-10   109392.6       108732.05      175622.7       3.4788517e-06  1.1907253e-06  2.2881264e-06  1.3470734e+08
    621000   1.2647136e-10  109371.06      108713.07      175345.18      3.4788996e-06  1.1912237e-06  2.2876759e-06  1.3470143e+08
    622000   1.2667502e-10  109397.39      108737.16      175595.62      3.4788702e-06  1.1906437e-06  2.2882265e-06  1.3470857e+08
    623000   1.2687868e-10  109388.42      108731.91      175213.62      3.4788601e-06  1.1908212e-06  2.2880389e-06  1.3470563e+08
    624000   1.2708233e-10  109381.21      108730.89      174587.24      3.4788949e-06  1.1910069e-06  2.2878881e-06  1.3470627e+08
    625000   1.2728599e-10  109404.49      108750.15      175012.65      3.4788818e-06  1.1905068e-06  2.2883751e-06  1.3471286e+08
    626000   1.2748965e-10  109387.51      108736.71      174641.16      3.478814e-06   1.1907942e-06  2.2880198e-06  1.3470151e+08
    627000   1.2769331e-10  109410.64      108760.44      174603.67      3.4787555e-06  1.1902519e-06  2.2885036e-06  1.3470553e+08
    628000   1.2789697e-10  109394.14      108744.33      174548.26      3.4787785e-06  1.1906201e-06  2.2881585e-06  1.3470023e+08
    629000   1.2810062e-10  109383.3       108730.34      174852.93      3.4788103e-06  1.1908786e-06  2.2879317e-06  1.3470092e+08
    630000   1.2830428e-10  109372.82      108721.59      174669.9       3.4788432e-06  1.1911305e-06  2.2877127e-06  1.3469879e+08
    631000   1.2850794e-10  109395.06      108742.75      174799.62      3.4788305e-06  1.1906527e-06  2.2881777e-06  1.3470575e+08
    632000   1.287116e-10   109390.67      108736.31      175000.44      3.4788277e-06  1.1907418e-06  2.2880859e-06  1.3470371e+08
    633000   1.2891525e-10  109396.9       108744.44      174817.73      3.4788318e-06  1.1906154e-06  2.2882164e-06  1.3470514e+08
    634000   1.2911891e-10  109388.18      108738.62      174518.01      3.4788214e-06  1.1907876e-06  2.2880339e-06  1.3470181e+08
    635000   1.2932257e-10  109401.88      108747.78      174986.83      3.4788615e-06  1.190541e-06   2.2883205e-06  1.3471233e+08
    636000   1.2952623e-10  109376.23      108716.88      175486.79      3.4788748e-06  1.1910908e-06  2.287784e-06   1.3470336e+08
    637000   1.2972988e-10  109395.81      108729.99      176152.78      3.478832e-06   1.1906386e-06  2.2881934e-06  1.3470689e+08
    638000   1.2993354e-10  109382.46      108717.25      176079.05      3.4787943e-06  1.1908801e-06  2.2879142e-06  1.346983e+08 
    639000   1.301372e-10   109389.56      108725.78      175943.59      3.4788148e-06  1.190752e-06   2.2880628e-06  1.3470191e+08
    640000   1.3034086e-10  109392.35      108729.33      175869.29      3.4788406e-06  1.1907195e-06  2.288121e-06   1.3470411e+08
    641000   1.3054451e-10  109379.8       108711.76      176359.74      3.4787517e-06  1.1908931e-06  2.2878586e-06  1.3469395e+08
    642000   1.3074817e-10  109407.82      108739.91      176373.71      3.4788088e-06  1.1903642e-06  2.2884446e-06  1.3470743e+08
    643000   1.3095183e-10  109400.91      108730.54      176613.19      3.4788106e-06  1.1905106e-06  2.2883001e-06  1.3470575e+08
    644000   1.3115549e-10  109396.92      108728.01      176464.49      3.4788032e-06  1.1905864e-06  2.2882168e-06  1.347021e+08 
    645000   1.3135914e-10  109409.71      108739.61      176595.83      3.4788592e-06  1.190375e-06   2.2884842e-06  1.3471189e+08
    646000   1.315628e-10   109380.83      108716.51      175988.68      3.4788651e-06  1.1909849e-06  2.2878802e-06  1.3470237e+08
    647000   1.3176646e-10  109393.76      108729.1       176035.2       3.4788848e-06  1.1907341e-06  2.2881507e-06  1.3470974e+08
    648000   1.3197012e-10  109393.71      108731.89      175750.96      3.478881e-06   1.1907314e-06  2.2881496e-06  1.3470858e+08
    649000   1.3217377e-10  109390.59      108729.06      175718.74      3.4788586e-06  1.1907743e-06  2.2880843e-06  1.3470517e+08
