Job ID:        404026
Host:          daisg116
Start time:    Wed Aug  5 03:24:08 PM CEST 2026
Working dir:   /dais/fs/scratch/kshao/wd/White-Dwarf-Codes/unforced/dais
MPI tasks:     1
CPUs/task:     12
Visible GPU:   0
LAMMPS:        /u/kshao/software/lammps-gpu-cuda12-install/bin/lmp
Input:         unforcedvel_v1.7e+06_c2.in
Currently Loaded Modulefiles:
 1) gcc/14   2) cuda/12.8   3) openmpi/5.0  
name, uuid, driver_version, memory.total [MiB]
NVIDIA H200, GPU-107da807-a37f-e8d1-0aba-7936de89b94b, 580.173.02, 143771 MiB
LAMMPS (22 Jul 2025 - Update 4)
  using 1 OpenMP thread(s) per MPI task
Created orthogonal box = (0 0 0) to (2.5958006e-05 2.5958006e-05 2.5958006e-05)
  1 by 1 by 1 MPI processor grid
Created 100000 atoms
  using lattice units in orthogonal box = (0 0 0) to (2.5958006e-05 2.5958006e-05 2.5958006e-05)
  create_atoms CPU = 113.353 seconds
Created 1000 atoms
  using lattice units in orthogonal box = (0 0 0) to (2.5958006e-05 2.5958006e-05 2.5958006e-05)
  create_atoms CPU = 2.229 seconds
1000 atoms in group Si
100000 atoms in group H

CITE-CITE-CITE-CITE-CITE-CITE-CITE-CITE-CITE-CITE-CITE-CITE-CITE

Your simulation uses code contributions which should be cited:
- GPU package (short-range, long-range and three-body potentials): doi:10.1016/j.cpc.2010.12.021, doi:10.1016/j.cpc.2011.10.012, doi:10.1016/j.cpc.2013.08.002, doi:10.1016/j.commatsci.2014.10.068, doi:10.1016/j.cpc.2016.10.020, doi:10.3233/APC200086
The log file lists these citations in BibTeX format.

CITE-CITE-CITE-CITE-CITE-CITE-CITE-CITE-CITE-CITE-CITE-CITE-CITE


--------------------------------------------------------------------------
- Using acceleration for yukawa:
-  with 1 proc(s) per device.
-  with 1 thread(s) per proc.
-  Horizontal vector operations: ENABLED
-  Shared memory system: No
--------------------------------------------------------------------------
Device 0: NVIDIA H200, 132 CUs, 1.4e+02/1.4e+02 GB, 2 GHZ (Mixed Precision)
--------------------------------------------------------------------------

Initializing Device and compiling on process 0...Done.
Initializing Device 0 on core 0...Done.

Generated 0 of 1 mixed pair_coeff terms from geometric mixing rule
Neighbor list info ...
  update: every = 1 steps, delay = 0 steps, check = yes
  max neighbors/atom: 10000, page size: 100000
  master list distance cutoff = 6.4137883e-06
  ghost atom cutoff = 6.4137883e-06
  binsize = 3.2068942e-06, bins = 9 9 9
  1 neighbor lists, perpetual/occasional/extra = 1 0 0
  (1) pair yukawa/gpu, perpetual
      attributes: full, newton on
      pair build: full/bin/atomonly
      stencil: full/bin/3d
      bin: standard
Setting up Verlet run ...
  Unit style    : cgs
  Current step  : 0
  Time step     : 2.40279789832812e-16
Per MPI rank memory allocation (min/avg/max) = 2678 | 2678 | 2678 Mbytes
   Step          Time           Temp         c_tempH        c_tempSi        TotEng         PotEng         KinEng         Press           v_k0           v_dt        v_collfreq       v_ccs     
         0   0              100000         99997.834      100316.89      3.2893843e-06  1.1977196e-06  2.0916646e-06  1.2739277e+08  623656.38      2.4027979e-16  5.1996514e+11  1.14289e-14  
      1000   2.4027979e-13  100115.8       100110.94      100701.91      3.2861539e-06  1.1920672e-06  2.0940867e-06  1.2735143e+08  623656.38      2.4027979e-16  5.1996514e+11  1.14289e-14  
      2000   4.8055958e-13  99900.835      99893.556      100729.48      3.2797356e-06  1.1901451e-06  2.0895904e-06  1.2712548e+08  623656.38      2.4027979e-16  5.1996514e+11  1.14289e-14  
Loop time of 48.8789 on 1 procs for 2000 steps with 101000 atoms

99.4% CPU use with 1 MPI tasks x 1 OpenMP threads

MPI task timing breakdown:
Section |  min time  |  avg time  |  max time  |%varavg| %total
---------------------------------------------------------------
Pair    | 8.0914     | 8.0914     | 8.0914     |   0.0 | 16.55
Neigh   | 36.462     | 36.462     | 36.462     |   0.0 | 74.60
Comm    | 1.7066     | 1.7066     | 1.7066     |   0.0 |  3.49
Output  | 0.016932   | 0.016932   | 0.016932   |   0.0 |  0.03
Modify  | 1.8045     | 1.8045     | 1.8045     |   0.0 |  3.69
Other   |            | 0.7974     |            |       |  1.63

Nlocal:         101000 ave      101000 max      101000 min
Histogram: 1 0 0 0 0 0 0 0 0 0
Nghost:         235975 ave      235975 max      235975 min
Histogram: 1 0 0 0 0 0 0 0 0 0
Neighs:              0 ave           0 max           0 min
Histogram: 1 0 0 0 0 0 0 0 0 0
FullNghs:  6.44535e+08 ave 6.44535e+08 max 6.44535e+08 min
Histogram: 1 0 0 0 0 0 0 0 0 0

Total # of neighbors = 6.4453495e+08
Ave neighs/atom = 6381.5341
Neighbor list builds = 4
Dangerous builds = 0


---------------------------------------------------------------------
      Device Time Info (average): 
---------------------------------------------------------------------
Data Transfer:   0.3246 s.
Neighbor copy:   2.2328 s.
Neighbor unpack: 0.0000 s.
Force calc:      5.7023 s.
Device Overhead: 0.0683 s.
CPU Cast/Pack:   1.0177 s.
CPU Driver_Time: 0.0260 s.
CPU Idle_Time:   5.1824 s.
Average split:   1.0000.
Max Mem / Proc:  3097.52 MB.
Prefetch mode:   None.
Vector width:    32.
Lanes / atom:    4.
Pair block:      256.
Neigh block:     128.
Neigh mode:      Host.
---------------------------------------------------------------------


--------------------------------------------------------------------------
- Using acceleration for yukawa:
-  with 1 proc(s) per device.
-  with 1 thread(s) per proc.
-  Horizontal vector operations: ENABLED
-  Shared memory system: No
--------------------------------------------------------------------------
Device 0: NVIDIA H200, 132 CUs, 1.4e+02/1.4e+02 GB, 2 GHZ (Mixed Precision)
--------------------------------------------------------------------------

Initializing Device and compiling on process 0...Done.
Initializing Device 0 on core 0...Done.

Generated 0 of 1 mixed pair_coeff terms from geometric mixing rule
Setting up Verlet run ...
  Unit style    : cgs
  Current step  : 2000
  Time step     : 2.40279789832812e-16
Per MPI rank memory allocation (min/avg/max) = 2686 | 2686 | 2686 Mbytes
   Step          Time           Temp         c_tempH        c_tempSi        TotEng         PotEng         KinEng         Press     
      2000   4.8055958e-13  103225.58      99893.556      436861.65      3.3492781e-06  1.1901451e-06  2.159133e-06   1.2977608e+08
      3000   7.2083937e-13  103204.96      99895.603      434572.39      3.3492424e-06  1.1905406e-06  2.1587018e-06  1.2976725e+08
      4000   9.6111916e-13  103222.44      99931.453      432750.82      3.34927e-06    1.1902027e-06  2.1590673e-06  1.2977462e+08
      5000   1.2013989e-12  103203.17      99934.006      430546.98      3.3492125e-06  1.1905483e-06  2.1586642e-06  1.2976521e+08
      6000   1.4416787e-12  103220.23      99971.931      428475.51      3.3491889e-06  1.1901679e-06  2.1590211e-06  1.2976785e+08
      7000   1.6819585e-12  103209.19      99972.762      427276.11      3.3492043e-06  1.1904141e-06  2.1587902e-06  1.2976642e+08
      8000   1.9222383e-12  103198.52      99990.69       424402.7       3.3492542e-06  1.1906873e-06  2.1585669e-06  1.2976677e+08
      9000   2.1625181e-12  103212.18      100030.07      421842.6       3.3492338e-06  1.190381e-06   2.1588528e-06  1.2977e+08   
     10000   2.4027979e-12  103202.6       100051.66      418712.33      3.3492288e-06  1.1905765e-06  2.1586523e-06  1.2976762e+08
     11000   2.6430777e-12  103198.68      100072.09      416270.06      3.349243e-06   1.1906728e-06  2.1585702e-06  1.297642e+08 
     12000   2.8833575e-12  103229.1       100140.01      412547.43      3.3492236e-06  1.1900171e-06  2.1592065e-06  1.297733e+08 
     13000   3.1236373e-12  103243.52      100179.71      410031.61      3.3492274e-06  1.1897191e-06  2.1595082e-06  1.2977529e+08
     14000   3.3639171e-12  103210.34      100175.06      407143         3.3492018e-06  1.1903875e-06  2.1588143e-06  1.2976498e+08
     15000   3.6041968e-12  103235.21      100240.21      403135.61      3.3492193e-06  1.1898849e-06  2.1593344e-06  1.2977447e+08
     16000   3.8444766e-12  103211.88      100247.84      400013.02      3.3492346e-06  1.1903881e-06  2.1588465e-06  1.2976691e+08
     17000   4.0847564e-12  103213.05      100266.65      398248.39      3.3491425e-06  1.1902716e-06  2.1588709e-06  1.2976389e+08
     18000   4.3250362e-12  103219.02      100301.68      395345.92      3.3492345e-06  1.1902387e-06  2.1589958e-06  1.297718e+08 
     19000   4.565316e-12   103228.21      100327.96      393644.07      3.3492823e-06  1.1900944e-06  2.1591879e-06  1.2977789e+08
     20000   4.8055958e-12  103215.91      100337.77      391418.29      3.3491933e-06  1.1902627e-06  2.1589307e-06  1.2976768e+08
     21000   5.0458756e-12  103230.12      100377.38      388890.23      3.3491903e-06  1.1899623e-06  2.159228e-06   1.297698e+08 
     22000   5.2861554e-12  103219.36      100394.66      386073.18      3.3491511e-06  1.1901482e-06  2.1590029e-06  1.2976453e+08
     23000   5.5264352e-12  103212.96      100415.02      383387.49      3.3491759e-06  1.1903069e-06  2.158869e-06   1.2976402e+08
     24000   5.766715e-12   103242.75      100468.79      381016.96      3.3492137e-06  1.1897215e-06  2.1594922e-06  1.2977726e+08
     25000   6.0069947e-12  103228.89      100473.21      379173.58      3.3492611e-06  1.1900589e-06  2.1592022e-06  1.2977606e+08
     26000   6.2472745e-12  103212.79      100479.03      376963.05      3.3492677e-06  1.1904021e-06  2.1588655e-06  1.2977187e+08
     27000   6.4875543e-12  103207.62      100504.61      373879.43      3.3492512e-06  1.1904939e-06  2.1587573e-06  1.2976789e+08
     28000   6.7278341e-12  103202.03      100524.84      371289.75      3.3492199e-06  1.1905796e-06  2.1586403e-06  1.2976369e+08
     29000   6.9681139e-12  103228.69      100569.25      369540.43      3.3492401e-06  1.190042e-06   2.1591981e-06  1.2977379e+08
     30000   7.2083937e-12  103206.19      100566.46      367543.76      3.3492285e-06  1.1905011e-06  2.1587273e-06  1.297663e+08 
     31000   7.4486735e-12  103209.46      100600.39      364479.22      3.34915e-06    1.1903541e-06  2.1587959e-06  1.2976002e+08
     32000   7.6889533e-12  103240.36      100661.56      361478.6       3.349134e-06   1.189692e-06   2.159442e-06   1.2977172e+08
     33000   7.9292331e-12  103228.75      100678.07      358652.2       3.349166e-06   1.1899669e-06  2.1591992e-06  1.2976956e+08
     34000   8.1695129e-12  103214.22      100679.23      357068.61      3.3491995e-06  1.1903041e-06  2.1588954e-06  1.2976851e+08
     35000   8.4097926e-12  103206.67      100692.32      354993.59      3.3492428e-06  1.1905054e-06  2.1587374e-06  1.2976835e+08
     36000   8.6500724e-12  103230.24      100740.83      352520.47      3.3492248e-06  1.1899945e-06  2.1592303e-06  1.2977385e+08
     37000   8.8903522e-12  103218.74      100753.51      350089.78      3.349191e-06   1.190201e-06   2.15899e-06    1.2976731e+08
     38000   9.130632e-12   103204.47      100752.62      348736.07      3.3492095e-06  1.190518e-06   2.1586915e-06  1.2976315e+08
     39000   9.3709118e-12  103222.52      100792.96      346522.78      3.3492494e-06  1.1901804e-06  2.1590689e-06  1.2977188e+08
     40000   9.6111916e-12  103213.31      100801.11      344775.93      3.3492097e-06  1.1903333e-06  2.1588764e-06  1.2976606e+08
     41000   9.8514714e-12  103195.78      100804.43      342671.11      3.3492561e-06  1.1907465e-06  2.1585096e-06  1.2976497e+08
     42000   1.0091751e-11  103191.27      100813.77      341280.22      3.3493294e-06  1.1909141e-06  2.1584154e-06  1.2976935e+08
     43000   1.0332031e-11  103211.39      100859.19      338768.14      3.3493415e-06  1.1905053e-06  2.1588361e-06  1.2977722e+08
     44000   1.0572311e-11  103185.48      100858.06      336261.31      3.349295e-06   1.1910008e-06  2.1582942e-06  1.2976412e+08
     45000   1.0812591e-11  103202.21      100893.39      334416.12      3.3493254e-06  1.1906813e-06  2.1586441e-06  1.2977075e+08
     46000   1.105287e-11   103231.62      100948.54      331869.64      3.3492018e-06  1.1899425e-06  2.1592593e-06  1.2977477e+08
     47000   1.129315e-11   103205.99      100946.48      329484.22      3.3492367e-06  1.1905134e-06  2.1587232e-06  1.2976786e+08
     48000   1.153343e-11   103219.59      100983.34      327170.02      3.3492288e-06  1.1902211e-06  2.1590077e-06  1.297712e+08 
     49000   1.177371e-11   103189.91      100977.67      324735.7       3.3492241e-06  1.1908374e-06  2.1583868e-06  1.2976105e+08
     50000   1.2013989e-11  103218.34      101021.97      323176.61      3.3492157e-06  1.1902341e-06  2.1589815e-06  1.297696e+08 
     51000   1.2254269e-11  103212.48      101033.87      321392.67      3.3492761e-06  1.1904171e-06  2.158859e-06   1.2977299e+08
     52000   1.2494549e-11  103225.96      101061.8       319959.72      3.349333e-06   1.1901921e-06  2.1591409e-06  1.2978185e+08
     53000   1.2734829e-11  103191.3       101050.88      317549.02      3.3492916e-06  1.1908757e-06  2.1584159e-06  1.2976745e+08
     54000   1.2975109e-11  103222.04      101087.99      316941.75      3.3492475e-06  1.1901885e-06  2.159059e-06   1.2977335e+08
     55000   1.3215388e-11  103232.58      101118.36      314968.2       3.3492656e-06  1.1899861e-06  2.1592794e-06  1.297771e+08 
     56000   1.3455668e-11  103206.85      101113.3       312872.68      3.3492713e-06  1.1905301e-06  2.1587412e-06  1.2976884e+08
     57000   1.3695948e-11  103204.01      101120.47      311867.55      3.3492585e-06  1.1905767e-06  2.1586818e-06  1.2976812e+08
     58000   1.3936228e-11  103221.57      101162.3       309456.58      3.3492463e-06  1.1901971e-06  2.1590492e-06  1.2977224e+08
     59000   1.4176508e-11  103206.48      101171.49      307010.09      3.3491924e-06  1.190459e-06   2.1587335e-06  1.2976564e+08
     60000   1.4416787e-11  103201.58      101195.73      304087.95      3.3492136e-06  1.1905827e-06  2.1586309e-06  1.2976532e+08
     61000   1.4657067e-11  103214.35      101222.32      302717.82      3.3492217e-06  1.1903237e-06  2.1588981e-06  1.2976928e+08
     62000   1.4897347e-11  103210.01      101231.32      301378.21      3.3492548e-06  1.1904476e-06  2.1588072e-06  1.2977083e+08
     63000   1.5137627e-11  103207.31      101240.36      300200.03      3.3492179e-06  1.1904671e-06  2.1587508e-06  1.297674e+08 
     64000   1.5377907e-11  103200.92      101246.33      298956.93      3.3492202e-06  1.190603e-06   2.1586172e-06  1.2976353e+08
     65000   1.5618186e-11  103227.26      101284.74      297775.17      3.3492433e-06  1.1900753e-06  2.1591681e-06  1.2977453e+08
     66000   1.5858466e-11  103211.59      101285.92      296073.43      3.3492453e-06  1.1904048e-06  2.1588404e-06  1.2976894e+08
     67000   1.6098746e-11  103231.7       101317.32      294962.42      3.3492081e-06  1.1899471e-06  2.159261e-06   1.2977376e+08
     68000   1.6339026e-11  103206.89      101303.37      293850.66      3.3493073e-06  1.1905654e-06  2.1587419e-06  1.2977118e+08
     69000   1.6579305e-11  103209.54      101330.3       291423.44      3.3493038e-06  1.1905063e-06  2.1587974e-06  1.2977279e+08
     70000   1.6819585e-11  103212.44      101349.82      289763.14      3.3492734e-06  1.1904152e-06  2.1588582e-06  1.2977142e+08
     71000   1.7059865e-11  103210.66      101364.75      288087.79      3.3493336e-06  1.1905128e-06  2.1588208e-06  1.2977522e+08
     72000   1.7300145e-11  103207.62      101384.19      285833.98      3.349284e-06   1.1905267e-06  2.1587572e-06  1.2977185e+08
     73000   1.7540425e-11  103213.4       101406.32      284204.28      3.3492399e-06  1.1903617e-06  2.1588783e-06  1.2976938e+08
     74000   1.7780704e-11  103195.47      101399.53      283071.18      3.3492974e-06  1.1907943e-06  2.1585032e-06  1.2976733e+08
     75000   1.8020984e-11  103211.65      101422.68      282389.59      3.3491847e-06  1.190343e-06   2.1588417e-06  1.2976534e+08
     76000   1.8261264e-11  103226.04      101442.26      281884.53      3.3491953e-06  1.1900527e-06  2.1591426e-06  1.2977175e+08
     77000   1.8501544e-11  103228.07      101458.02      280512.47      3.3492298e-06  1.1900447e-06  2.1591851e-06  1.2977327e+08
     78000   1.8741824e-11  103209.41      101460.07      278419.7       3.349235e-06   1.1904403e-06  2.1587947e-06  1.2976781e+08
     79000   1.8982103e-11  103236.59      101499.67      277204.05      3.3492419e-06  1.1898787e-06  2.1593632e-06  1.2977665e+08
     80000   1.9222383e-11  103234.44      101503.53      276600.98      3.3492341e-06  1.1899157e-06  2.1593184e-06  1.2977578e+08
     81000   1.9462663e-11  103213.62      101493.86      275463.93      3.3492634e-06  1.1903805e-06  2.1588829e-06  1.297702e+08 
     82000   1.9702943e-11  103216.73      101509.87      274175.3       3.3493105e-06  1.1903626e-06  2.1589479e-06  1.297748e+08 
     83000   1.9943223e-11  103197.26      101505.36      272657.29      3.3492352e-06  1.1906947e-06  2.1585405e-06  1.2976372e+08
     84000   2.0183502e-11  103208.17      101526.86      271609.11      3.349258e-06   1.1904891e-06  2.1587689e-06  1.2976971e+08
     85000   2.0423782e-11  103210.38      101538.52      270665.43      3.3492793e-06  1.1904644e-06  2.1588149e-06  1.297708e+08 
     86000   2.0664062e-11  103219.97      101556.45      269840.7       3.3493065e-06  1.1902908e-06  2.1590157e-06  1.2977564e+08
     87000   2.0904342e-11  103204.53      101554.55      268469.23      3.3492819e-06  1.1905893e-06  2.1586926e-06  1.2977024e+08
     88000   2.1144622e-11  103183.29      101541.78      267600.67      3.3492727e-06  1.1910243e-06  2.1582484e-06  1.2976099e+08
     89000   2.1384901e-11  103210.41      101587.55      265759.8       3.3492566e-06  1.190441e-06   2.1588156e-06  1.2977025e+08
     90000   2.1625181e-11  103206.23      101594.14      264678.51      3.3493106e-06  1.1905825e-06  2.1587282e-06  1.2977221e+08
     91000   2.1865461e-11  103207.9       101612.6       262999.04      3.3492088e-06  1.1904457e-06  2.1587631e-06  1.2976636e+08
     92000   2.2105741e-11  103214.5       101637.7       261154.28      3.3492269e-06  1.1903257e-06  2.1589012e-06  1.2976814e+08
     93000   2.234602e-11   103217.52      101653.69      259858.71      3.3492515e-06  1.1902872e-06  2.1589643e-06  1.2977323e+08
     94000   2.25863e-11    103197.04      101637.14      259445.07      3.3492393e-06  1.1907033e-06  2.158536e-06   1.2976443e+08
     95000   2.282658e-11   103205.36      101654.84      258514.42      3.349265e-06   1.190555e-06   2.15871e-06    1.2976683e+08
     96000   2.306686e-11   103212.47      101681.92      256521.75      3.3492025e-06  1.1903439e-06  2.1588586e-06  1.2976569e+08
     97000   2.330714e-11   103219.55      101709.11      254516.9       3.3491887e-06  1.1901818e-06  2.1590069e-06  1.2976713e+08
     98000   2.3547419e-11  103229.49      101728.78      253552.71      3.3492624e-06  1.1900477e-06  2.1592147e-06  1.2977704e+08
     99000   2.3787699e-11  103220.26      101739.37      251558.86      3.3492274e-06  1.1902058e-06  2.1590216e-06  1.2977126e+08
    100000   2.4027979e-11  103235.26      101763.83      250627.84      3.3492946e-06  1.1899591e-06  2.1593355e-06  1.2978001e+08
    101000   2.4268259e-11  103203.67      101747.81      249037.99      3.3492095e-06  1.1905347e-06  2.1586748e-06  1.2976355e+08
    102000   2.4508539e-11  103216.8       101781.06      247036.93      3.3491957e-06  1.1902463e-06  2.1589493e-06  1.2976797e+08
    103000   2.4748818e-11  103216.24      101797.49      245334.98      3.3492132e-06  1.1902756e-06  2.1589376e-06  1.2976759e+08
    104000   2.4989098e-11  103196.42      101787.09      244373.05      3.3493213e-06  1.1907981e-06  2.1585231e-06  1.2976819e+08
    105000   2.5229378e-11  103190.84      101784.22      244095.75      3.3492261e-06  1.1908198e-06  2.1584063e-06  1.297623e+08 
    106000   2.5469658e-11  103191.38      101789.76      243595.84      3.3492734e-06  1.1908558e-06  2.1584177e-06  1.2976455e+08
    107000   2.5709938e-11  103200.55      101805.62      242935.74      3.3492634e-06  1.1906539e-06  2.1586095e-06  1.2976708e+08
    108000   2.5950217e-11  103207.98      101819.93      242254.01      3.3492263e-06  1.1904615e-06  2.1587649e-06  1.2976702e+08
    109000   2.6190497e-11  103214.25      101837.58      241120.52      3.349185e-06   1.1902891e-06  2.1588959e-06  1.2976619e+08
    110000   2.6430777e-11  103210.92      101839.67      240574.83      3.3492064e-06  1.1903802e-06  2.1588262e-06  1.2976539e+08
    111000   2.6671057e-11  103237.46      101874.21      239800.32      3.3492216e-06  1.1898402e-06  2.1593814e-06  1.2977418e+08
    112000   2.6911336e-11  103234.32      101881.19      238784.64      3.3492369e-06  1.1899211e-06  2.1593158e-06  1.2977713e+08
    113000   2.7151616e-11  103203.72      101847.75      239038.51      3.3492564e-06  1.1905807e-06  2.1586757e-06  1.29766e+08  
    114000   2.7391896e-11  103215.87      101869.51      238089.01      3.3492088e-06  1.1902789e-06  2.1589299e-06  1.2976826e+08
    115000   2.7632176e-11  103210.44      101870.63      237426.84      3.3491723e-06  1.1903561e-06  2.1588162e-06  1.2976269e+08
    116000   2.7872456e-11  103215.98      101876.37      237412.29      3.3491706e-06  1.1902386e-06  2.1589321e-06  1.2976499e+08
    117000   2.8112735e-11  103215.93      101885.46      236497.74      3.3492051e-06  1.190274e-06   2.1589311e-06  1.2976752e+08
    118000   2.8353015e-11  103200.12      101883.9       235055.12      3.3492618e-06  1.1906614e-06  2.1586003e-06  1.2976572e+08
    119000   2.8593295e-11  103206.75      101896.66      234448.91      3.3492512e-06  1.1905121e-06  2.1587391e-06  1.2976921e+08
    120000   2.8833575e-11  103184.77      101888.06      233087.58      3.3492645e-06  1.1909851e-06  2.1582794e-06  1.297615e+08 
    121000   2.9073855e-11  103219.77      101930.38      232389.39      3.3492165e-06  1.1902052e-06  2.1590113e-06  1.297699e+08 
    122000   2.9314134e-11  103211.12      101924.82      232071.76      3.3492411e-06  1.1904107e-06  2.1588304e-06  1.2976786e+08
    123000   2.9554414e-11  103185.76      101903.21      231671.78      3.3492794e-06  1.1909792e-06  2.1583002e-06  1.2976339e+08
    124000   2.9794694e-11  103233.51      101959.38      230876.36      3.3492236e-06  1.1899247e-06  2.1592989e-06  1.2977698e+08
    125000   3.0034974e-11  103202.53      101942.1       229473.6       3.349276e-06   1.1906252e-06  2.1586508e-06  1.2976659e+08
    126000   3.0275254e-11  103211.31      101963.94      228175.07      3.3492219e-06  1.1903874e-06  2.1588345e-06  1.2976551e+08
    127000   3.0515533e-11  103209.96      101977.12      226719.83      3.3492126e-06  1.1904063e-06  2.1588063e-06  1.2976564e+08
    128000   3.0755813e-11  103228.32      102008.6       225425.16      3.3491994e-06  1.190009e-06   2.1591903e-06  1.297715e+08 
    129000   3.0996093e-11  103219.45      102010.5       224337.5       3.3491884e-06  1.1901836e-06  2.1590047e-06  1.2976679e+08
    130000   3.1236373e-11  103197.15      101998.54      223280.5       3.3492647e-06  1.1907263e-06  2.1585384e-06  1.297632e+08 
    131000   3.1476652e-11  103223.96      102028.39      223003.35      3.3492558e-06  1.1901566e-06  2.1590992e-06  1.2977334e+08
    132000   3.1716932e-11  103213.65      102029         221899.5       3.3492179e-06  1.1903344e-06  2.1588835e-06  1.2976865e+08
    133000   3.1957212e-11  103204.81      102033.92      220512.48      3.3492107e-06  1.1905123e-06  2.1586984e-06  1.2976303e+08
    134000   3.2197492e-11  103210.54      102044.77      220005.72      3.3492099e-06  1.1903916e-06  2.1588183e-06  1.2976478e+08
    135000   3.2437772e-11  103232.09      102074.21      219239.01      3.3492678e-06  1.1899985e-06  2.1592692e-06  1.2977702e+08
    136000   3.2678051e-11  103203.8       102047.3       219071.68      3.3493189e-06  1.1906415e-06  2.1586774e-06  1.2976992e+08
    137000   3.2918331e-11  103212.54      102064.57      218226.46      3.3493252e-06  1.190465e-06   2.1588602e-06  1.297749e+08 
    138000   3.3158611e-11  103223.05      102081.47      217597.87      3.3492429e-06  1.1901629e-06  2.1590801e-06  1.2977475e+08
    139000   3.3398891e-11  103191.08      102061.88      216326.35      3.3492876e-06  1.1908763e-06  2.1584114e-06  1.2976488e+08
    140000   3.3639171e-11  103201.01      102076.94      215822.46      3.3492736e-06  1.1906546e-06  2.1586191e-06  1.2976832e+08
    141000   3.387945e-11   103206.46      102086.7       215396.2       3.3492678e-06  1.1905348e-06  2.158733e-06   1.2976925e+08
    142000   3.411973e-11   103217.81      102106.96      214516.47      3.3491779e-06  1.1902074e-06  2.1589705e-06  1.2976446e+08
    143000   3.436001e-11   103218.23      102115.79      213675.03      3.3492147e-06  1.1902353e-06  2.1589793e-06  1.2976731e+08
    144000   3.460029e-11   103203.4       102106.33      213122.41      3.3492862e-06  1.1906172e-06  2.158669e-06   1.2976837e+08
    145000   3.484057e-11   103229.89      102141.24      212306.28      3.3492667e-06  1.1900436e-06  2.159223e-06   1.2977592e+08
    146000   3.5080849e-11  103205.46      102129.95      210966.14      3.3492409e-06  1.1905288e-06  2.1587121e-06  1.2976629e+08
    147000   3.5321129e-11  103215.84      102153.93      209615.42      3.3492591e-06  1.1903298e-06  2.1589292e-06  1.2977108e+08
    148000   3.5561409e-11  103204.13      102156.35      208189.9       3.3492922e-06  1.1906078e-06  2.1586844e-06  1.2976927e+08
    149000   3.5801689e-11  103213.78      102179.49      206847.79      3.3492778e-06  1.1903917e-06  2.1588861e-06  1.2977185e+08
    150000   3.6041968e-11  103206.85      102178.8       206217.57      3.3493066e-06  1.1905653e-06  2.1587412e-06  1.2976929e+08
    151000   3.6282248e-11  103210.35      102195.74      204875.68      3.349267e-06   1.1904526e-06  2.1588145e-06  1.2976989e+08
    152000   3.6522528e-11  103223.5       102228.11      202964.32      3.3493271e-06  1.1902377e-06  2.1590894e-06  1.297774e+08 
    153000   3.6762808e-11  103224.46      102238.98      201974.26      3.3492947e-06  1.190185e-06   2.1591096e-06  1.2977795e+08
    154000   3.7003088e-11  103210.43      102233.26      201127.31      3.3493181e-06  1.190502e-06   2.1588161e-06  1.297755e+08 
    155000   3.7243367e-11  103214.36      102233.23      201528.41      3.3493434e-06  1.1904451e-06  2.1588983e-06  1.2977686e+08
    156000   3.7483647e-11  103202.79      102230.34      200647.17      3.3492601e-06  1.1906038e-06  2.1586563e-06  1.2976603e+08
    157000   3.7723927e-11  103214.06      102249.71      199848.68      3.3492231e-06  1.190331e-06   2.1588921e-06  1.29768e+08  
    158000   3.7964207e-11  103219.29      102262.96      199050.88      3.3495359e-06  1.1905344e-06  2.1590015e-06  1.297766e+08 
    159000   3.8204487e-11  103209.63      102259.36      198433.74      3.3496037e-06  1.1908044e-06  2.1587993e-06  1.2977694e+08
    160000   3.8444766e-11  103236.42      102291.69      197906.33      3.3495679e-06  1.1902083e-06  2.1593596e-06  1.2978419e+08
    161000   3.8685046e-11  103215.79      102276.67      197324.04      3.349566e-06   1.1906378e-06  2.1589281e-06  1.297786e+08 
    162000   3.8925326e-11  103211.89      102286.58      195937.4       3.3495757e-06  1.1907291e-06  2.1588466e-06  1.2977678e+08
    163000   3.9165606e-11  103182.3       102258.6       195747.6       3.3496131e-06  1.1913854e-06  2.1582277e-06  1.2977012e+08
    164000   3.9405886e-11  103231.49      102309.42      195632.92      3.3495918e-06  1.1903354e-06  2.1592565e-06  1.2978561e+08
    165000   3.9646165e-11  103244.35      102323.53      195520.53      3.3495877e-06  1.1900622e-06  2.1595255e-06  1.2978685e+08
    166000   3.9886445e-11  103230.92      102312.93      195223.89      3.3495973e-06  1.1903527e-06  2.1592446e-06  1.2978538e+08
    167000   4.0126725e-11  103212.26      102293.8       195252.23      3.3495671e-06  1.1907128e-06  2.1588544e-06  1.2977742e+08
    168000   4.0367005e-11  103224.15      102300.75      195759.2       3.3496236e-06  1.1905205e-06  2.1591031e-06  1.2978445e+08
    169000   4.0607284e-11  103244.03      102324.36      195404.99      3.3495536e-06  1.1900348e-06  2.1595188e-06  1.2978525e+08
    170000   4.0847564e-11  103224.94      102308.5       195063.45      3.3494819e-06  1.1903623e-06  2.1591196e-06  1.2977363e+08
    171000   4.1087844e-11  103234.68      102323.08      194587.88      3.3495399e-06  1.1902166e-06  2.1593233e-06  1.2978129e+08
    172000   4.1328124e-11  103233.4       102325.56      194210.68      3.3495793e-06  1.1902827e-06  2.1592966e-06  1.2978424e+08
    173000   4.1568404e-11  103227.08      102334.44      192682.54      3.3495848e-06  1.1904204e-06  2.1591644e-06  1.2978122e+08
    174000   4.1808683e-11  103212.57      102326.48      192013.17      3.3495715e-06  1.1907106e-06  2.1588609e-06  1.2977874e+08
    175000   4.2048963e-11  103210.63      102326.11      191853.59      3.3496131e-06  1.1907929e-06  2.1588202e-06  1.2977973e+08
    176000   4.2289243e-11  103222.86      102342.47      191452.95      3.3496074e-06  1.1905312e-06  2.1590762e-06  1.2978252e+08
    177000   4.2529523e-11  103247.17      102369.05      191249.4       3.34952e-06    1.1899355e-06  2.1595845e-06  1.2978379e+08
    178000   4.2769803e-11  103238.49      102357.76      191502.51      3.3495998e-06  1.1901967e-06  2.159403e-06   1.2978661e+08
    179000   4.3010082e-11  103236.52      102358.75      191204.24      3.3494952e-06  1.1901334e-06  2.1593618e-06  1.2977805e+08
    180000   4.3250362e-11  103243.45      102373.21      190456.94      3.3495666e-06  1.1900599e-06  2.1595067e-06  1.2978497e+08
    181000   4.3490642e-11  103231.52      102363.63      190209.76      3.3496006e-06  1.1903433e-06  2.1592573e-06  1.2978507e+08
    182000   4.3730922e-11  103223.47      102358.46      189913.26      3.3496568e-06  1.1905681e-06  2.1590888e-06  1.2978593e+08
    183000   4.3971202e-11  103235.57      102370.58      189924.13      3.349672e-06   1.1903299e-06  2.159342e-06   1.2979112e+08
    184000   4.4211481e-11  103221.82      102357.85      189807.02      3.3495747e-06  1.1905205e-06  2.1590542e-06  1.297801e+08 
    185000   4.4451761e-11  103231.87      102376.77      188929.73      3.3495814e-06  1.1903169e-06  2.1592646e-06  1.297836e+08 
    186000   4.4692041e-11  103233.08      102390.38      187689.03      3.3495815e-06  1.1902917e-06  2.1592897e-06  1.2978194e+08
    187000   4.4932321e-11  103231.81      102403.27      186271.55      3.3495814e-06  1.1903181e-06  2.1592633e-06  1.2978171e+08
    188000   4.51726e-11    103226.33      102403.96      185647.36      3.3496035e-06  1.1904549e-06  2.1591486e-06  1.2978134e+08
    189000   4.541288e-11   103262.21      102448.78      184789.75      3.3496073e-06  1.1897081e-06  2.1598992e-06  1.2979412e+08
    190000   4.565316e-11   103236.43      102431.08      183955.21      3.3495764e-06  1.1902164e-06  2.15936e-06    1.2978326e+08
    191000   4.589344e-11   103212.48      102410.95      183548.74      3.3495843e-06  1.1907253e-06  2.158859e-06   1.2977813e+08
    192000   4.613372e-11   103215.79      102423.17      182659.96      3.3496192e-06  1.1906909e-06  2.1589282e-06  1.2978147e+08
    193000   4.6373999e-11  103190.43      102405.98      181817.02      3.3495596e-06  1.1911618e-06  2.1583978e-06  1.2976837e+08
    194000   4.6614279e-11  103225.47      102442.02      181751.95      3.349639e-06   1.1905082e-06  2.1591308e-06  1.2978488e+08
    195000   4.6854559e-11  103221.01      102441.86      181316.87      3.3496015e-06  1.1905641e-06  2.1590374e-06  1.2978128e+08
    196000   4.7094839e-11  103238.34      102460.56      181196.68      3.3495318e-06  1.1901319e-06  2.1593999e-06  1.2978424e+08
    197000   4.7335119e-11  103239.97      102466.52      180764.35      3.3495998e-06  1.1901659e-06  2.1594339e-06  1.297866e+08 
    198000   4.7575398e-11  103247.76      102472.42      180961.76      3.3495898e-06  1.1899929e-06  2.1595969e-06  1.297892e+08 
    199000   4.7815678e-11  103231.21      102468.12      179719.54      3.3495749e-06  1.1903241e-06  2.1592508e-06  1.29785e+08  
    200000   4.8055958e-11  103209.97      102450.04      179380.66      3.3496293e-06  1.190823e-06   2.1588064e-06  1.2978118e+08
    201000   4.8296238e-11  103205.2       102452.97      178605.57      3.3496469e-06  1.1909403e-06  2.1587066e-06  1.2977954e+08
    202000   4.8536518e-11  103219.55      102466.09      178743.34      3.3496331e-06  1.1906262e-06  2.1590069e-06  1.2978337e+08
    203000   4.8776797e-11  103222.78      102466.42      179036.57      3.3496183e-06  1.190544e-06   2.1590744e-06  1.297828e+08 
    204000   4.9017077e-11  103242.34      102484.26      179229.19      3.3496182e-06  1.1901346e-06  2.1594836e-06  1.2978917e+08
    205000   4.9257357e-11  103249.33      102499.68      178392.17      3.3495371e-06  1.1899074e-06  2.1596298e-06  1.297867e+08 
    206000   4.9497637e-11  103232.28      102491.3       177507.49      3.3496191e-06  1.190346e-06   2.1592731e-06  1.2978538e+08
    207000   4.9737916e-11  103223.17      102491.95      176521.23      3.3496661e-06  1.1905835e-06  2.1590826e-06  1.2978692e+08
    208000   4.9978196e-11  103216.61      102490.42      176010.97      3.3496775e-06  1.1907321e-06  2.1589454e-06  1.2978454e+08
    209000   5.0218476e-11  103238.94      102515.76      175731.41      3.3495768e-06  1.1901644e-06  2.1594124e-06  1.2978514e+08
    210000   5.0458756e-11  103220.97      102500.92      175401.38      3.349577e-06   1.1905404e-06  2.1590366e-06  1.2977869e+08
    211000   5.0699036e-11  103224.06      102516.27      174176.04      3.3496036e-06  1.1905024e-06  2.1591011e-06  1.2978269e+08
    212000   5.0939315e-11  103205.72      102498         174150.5       3.3495474e-06  1.1908299e-06  2.1587175e-06  1.2977164e+08
    213000   5.1179595e-11  103238.61      102534.44      173828.38      3.349613e-06   1.1902076e-06  2.1594054e-06  1.2978692e+08
    214000   5.1419875e-11  103225.12      102524.81      173428.61      3.3496014e-06  1.190478e-06   2.1591233e-06  1.2978086e+08
    215000   5.1660155e-11  103231.03      102533.94      173113.32      3.3496047e-06  1.1903577e-06  2.159247e-06   1.2978196e+08
    216000   5.1900435e-11  103233.04      102534.17      173292.8       3.349587e-06   1.1902981e-06  2.159289e-06   1.2978296e+08
    217000   5.2140714e-11  103231.7       102535.89      172985.26      3.3496127e-06  1.1903517e-06  2.159261e-06   1.2978453e+08
    218000   5.2380994e-11  103225.51      102538.53      172095.31      3.3495735e-06  1.190442e-06   2.1591315e-06  1.2977962e+08
    219000   5.2621274e-11  103229.2       102546.91      171629.67      3.349563e-06   1.1903542e-06  2.1592088e-06  1.2977922e+08
    220000   5.2861554e-11  103232.29      102548.73      171759.56      3.3495993e-06  1.190326e-06   2.1592733e-06  1.297843e+08 
    221000   5.3101834e-11  103221.04      102539.88      171508.16      3.3496481e-06  1.1906101e-06  2.159038e-06   1.2978387e+08
    222000   5.3342113e-11  103229.16      102553.7       170945.17      3.3496528e-06  1.1904449e-06  2.1592079e-06  1.2978889e+08
    223000   5.3582393e-11  103208.56      102539.03      170330.93      3.3496009e-06  1.190824e-06   2.1587769e-06  1.2977736e+08
    224000   5.3822673e-11  103223.72      102559.52      169812.87      3.3496083e-06  1.1905142e-06  2.1590941e-06  1.2978356e+08
    225000   5.4062953e-11  103211.69      102547.77      169772.52      3.3496868e-06  1.1908444e-06  2.1588424e-06  1.297849e+08 
    226000   5.4303233e-11  103222.55      102560.89      169558.02      3.3496135e-06  1.1905439e-06  2.1590696e-06  1.2978348e+08
    227000   5.4543512e-11  103215.47      102555.38      169393.56      3.3495456e-06  1.1906241e-06  2.1589215e-06  1.2977467e+08
    228000   5.4783792e-11  103240.19      102584.74      168953.99      3.3496014e-06  1.1901628e-06  2.1594386e-06  1.2978699e+08
    229000   5.5024072e-11  103229.43      102577.07      168633.09      3.3496134e-06  1.1904e-06     2.1592134e-06  1.2978444e+08
    230000   5.5264352e-11  103236.4       102588.24      168219.96      3.3496373e-06  1.190278e-06   2.1593594e-06  1.2978724e+08
    231000   5.5504631e-11  103215.77      102568.01      168158.92      3.349579e-06   1.1906513e-06  2.1589277e-06  1.2977906e+08
    232000   5.5744911e-11  103205.44      102559.2       167996.87      3.3496282e-06  1.1909165e-06  2.1587117e-06  1.297778e+08 
    233000   5.5985191e-11  103204.9       102568.85      166976.5       3.3496468e-06  1.1909465e-06  2.1587004e-06  1.2977902e+08
    234000   5.6225471e-11  103213.35      102573.17      167398.47      3.3495922e-06  1.1907151e-06  2.1588771e-06  1.2977932e+08
    235000   5.6465751e-11  103229         102587.68      167527.91      3.3496366e-06  1.190432e-06   2.1592046e-06  1.2978544e+08
    236000   5.670603e-11   103230.02      102590.15      167383.31      3.3496249e-06  1.1903991e-06  2.1592258e-06  1.297866e+08 
    237000   5.694631e-11   103231.35      102598.06      166725.94      3.349611e-06   1.1903575e-06  2.1592536e-06  1.2978637e+08
    238000   5.718659e-11   103219.29      102599.64      165348.78      3.3495924e-06  1.190591e-06   2.1590014e-06  1.2977959e+08
    239000   5.742687e-11   103236.74      102624.5       164625.02      3.3496226e-06  1.1902561e-06  2.1593665e-06  1.2978775e+08
    240000   5.766715e-11   103235.22      102619.88      164932.85      3.3496412e-06  1.1903067e-06  2.1593345e-06  1.2978754e+08
    241000   5.7907429e-11  103225.55      102611.03      164841.93      3.3495929e-06  1.1904605e-06  2.1591324e-06  1.2978263e+08
    242000   5.8147709e-11  103255.92      102642.18      164794.31      3.3495338e-06  1.1897662e-06  2.1597676e-06  1.2978805e+08
    243000   5.8387989e-11  103230.32      102616.83      164743.72      3.349577e-06   1.1903449e-06  2.1592322e-06  1.2978263e+08
    244000   5.8628269e-11  103222.05      102609.68      164622.75      3.3495747e-06  1.1905156e-06  2.1590591e-06  1.2978132e+08
    245000   5.8868549e-11  103223.97      102613.14      164470.44      3.3496266e-06  1.1905274e-06  2.1590992e-06  1.297835e+08 
    246000   5.9108828e-11  103228.49      102622.92      163948.69      3.3495969e-06  1.190403e-06   2.1591939e-06  1.2978367e+08
    247000   5.9349108e-11  103220.53      102614.59      163977.49      3.3495829e-06  1.1905556e-06  2.1590273e-06  1.2977984e+08
    248000   5.9589388e-11  103222.05      102617.04      163885.79      3.3495401e-06  1.190481e-06   2.159059e-06   1.2977635e+08
    249000   5.9829668e-11  103264.35      102671.26      162735.38      3.3495702e-06  1.1896262e-06  2.159944e-06   1.2979329e+08
    250000   6.0069947e-11  103241.44      102648.6       162687.8       3.349589e-06   1.1901243e-06  2.1594647e-06  1.2978765e+08
    251000   6.0310227e-11  103247.58      102664.47      161718.78      3.3496362e-06  1.1900432e-06  2.159593e-06   1.2979206e+08
    252000   6.0550507e-11  103223.78      102638.62      161900.76      3.3495757e-06  1.1904804e-06  2.1590953e-06  1.2978093e+08
    253000   6.0790787e-11  103230.39      102654.27      161003.2       3.3495811e-06  1.1903475e-06  2.1592337e-06  1.297823e+08 
    254000   6.1031067e-11  103219.72      102652.53      160097.45      3.3495427e-06  1.1905324e-06  2.1590103e-06  1.2977707e+08
    255000   6.1271346e-11  103219.31      102661.82      159126.5       3.349547e-06   1.1905452e-06  2.1590018e-06  1.2977801e+08
    256000   6.1511626e-11  103224.32      102674.23      158391.14      3.3495804e-06  1.1904738e-06  2.1591066e-06  1.2978043e+08
    257000   6.1751906e-11  103232.46      102688.35      157800.93      3.3496161e-06  1.1903392e-06  2.1592768e-06  1.2978579e+08
    258000   6.1992186e-11  103229.89      102690.58      157317.11      3.3495549e-06  1.1903318e-06  2.1592231e-06  1.2977996e+08
    259000   6.2232466e-11  103240.06      102701.33      157269.93      3.349577e-06   1.1901412e-06  2.1594358e-06  1.2978399e+08
    260000   6.2472745e-11  103241.21      102703.34      157184.8       3.3495452e-06  1.1900854e-06  2.1594598e-06  1.2978266e+08
    261000   6.2713025e-11  103230.87      102699.78      156496.63      3.3496118e-06  1.1903681e-06  2.1592437e-06  1.2978434e+08
    262000   6.2953305e-11  103221.14      102695.24      155966.71      3.3495975e-06  1.1905574e-06  2.1590401e-06  1.297803e+08 
    263000   6.3193585e-11  103242.43      102720.82      155558.73      3.3496512e-06  1.1901658e-06  2.1594854e-06  1.2979042e+08
    264000   6.3433865e-11  103229.43      102710.22      155305.06      3.3496195e-06  1.190406e-06   2.1592134e-06  1.2978593e+08
    265000   6.3674144e-11  103202.99      102679.86      155671.1       3.349579e-06   1.1909186e-06  2.1586604e-06  1.2977392e+08
    266000   6.3914424e-11  103218.15      102694.24      155764.18      3.3496527e-06  1.1906751e-06  2.1589775e-06  1.2978332e+08
    267000   6.4154704e-11  103220.89      102693.28      156137.53      3.3496618e-06  1.190627e-06   2.1590349e-06  1.2978584e+08
    268000   6.4394984e-11  103226.66      102699.77      156071.26      3.3496505e-06  1.1904949e-06  2.1591556e-06  1.2978633e+08
    269000   6.4635263e-11  103209.12      102686.77      155599.12      3.349634e-06   1.1908454e-06  2.1587886e-06  1.2977997e+08
    270000   6.4875543e-11  103241.66      102728.93      154669.5       3.3496023e-06  1.1901329e-06  2.1594694e-06  1.2978814e+08
    271000   6.5115823e-11  103232.16      102721.98      154404.21      3.3496159e-06  1.1903452e-06  2.1592706e-06  1.2978455e+08
    272000   6.5356103e-11  103237.01      102727.63      154328.6       3.3495946e-06  1.1902226e-06  2.159372e-06   1.2978544e+08
    273000   6.5596383e-11  103246.71      102736.97      154374.35      3.3496253e-06  1.1900503e-06  2.159575e-06   1.2979119e+08
    274000   6.5836662e-11  103215.04      102704.37      154436.04      3.3495452e-06  1.1906326e-06  2.1589126e-06  1.2977459e+08
    275000   6.6076942e-11  103230.52      102721.42      154294.42      3.3495631e-06  1.1903268e-06  2.1592363e-06  1.2978065e+08
    276000   6.6317222e-11  103238.01      102728.03      154390.09      3.3495613e-06  1.1901683e-06  2.159393e-06   1.2978211e+08
    277000   6.6557502e-11  103231.37      102725.13      154009.08      3.3495259e-06  1.1902719e-06  2.159254e-06   1.2977803e+08
    278000   6.6797782e-11  103220.63      102707.3       154707.81      3.3495063e-06  1.1904769e-06  2.1590294e-06  1.2977406e+08
    279000   6.7038061e-11  103249.85      102732.52      155137.8       3.3495367e-06  1.189896e-06   2.1596407e-06  1.297866e+08 
    280000   6.7278341e-11  103255.94      102737.05      155299.85      3.3495581e-06  1.1897901e-06  2.159768e-06   1.2979085e+08
    281000   6.7518621e-11  103240         102720.86      155308.33      3.349542e-06   1.1901075e-06  2.1594345e-06  1.2978384e+08
    282000   6.7758901e-11  103227.5       102714.25      154706.22      3.349588e-06   1.190415e-06   2.159173e-06   1.2978244e+08
    283000   6.7999181e-11  103202.65      102688         154822.17      3.3496699e-06  1.1910165e-06  2.1586534e-06  1.2977915e+08
    284000   6.823946e-11   103212.41      102705.51      154055.82      3.3496136e-06  1.1907561e-06  2.1588575e-06  1.2977969e+08
    285000   6.847974e-11   103203.09      102691.99      154467.26      3.3496352e-06  1.1909726e-06  2.1586626e-06  1.2977802e+08
    286000   6.872002e-11   103226.34      102720.73      153940.64      3.349655e-06   1.1905063e-06  2.1591488e-06  1.2978599e+08
    287000   6.89603e-11    103233.08      102733.9       153303.95      3.34963e-06    1.1903402e-06  2.1592898e-06  1.2978736e+08
    288000   6.9200579e-11  103243.22      102745.91      153126.38      3.3495771e-06  1.1900752e-06  2.1595019e-06  1.2978536e+08
    289000   6.9440859e-11  103241.07      102746.11      152889.42      3.3495299e-06  1.1900729e-06  2.159457e-06   1.2978085e+08
    290000   6.9681139e-11  103231.15      102736.41      152856.84      3.3495934e-06  1.190344e-06   2.1592494e-06  1.2978205e+08
    291000   6.9921419e-11  103228.58      102731.99      153040.35      3.3495673e-06  1.1903715e-06  2.1591958e-06  1.2977992e+08
    292000   7.0161699e-11  103227.35      102730.08      153106.62      3.3496662e-06  1.1904963e-06  2.15917e-06    1.2978775e+08
    293000   7.0401978e-11  103231.84      102734.08      153160.99      3.3495959e-06  1.1903319e-06  2.159264e-06   1.2978496e+08
    294000   7.0642258e-11  103234.92      102745.15      152363.97      3.3495964e-06  1.1902681e-06  2.1593283e-06  1.2978532e+08
    295000   7.0882538e-11  103228.03      102742.94      151888.53      3.349631e-06   1.1904468e-06  2.1591842e-06  1.2978629e+08
    296000   7.1122818e-11  103214.16      102735.75      151205.52      3.3495817e-06  1.1906876e-06  2.158894e-06   1.2977975e+08
    297000   7.1363098e-11  103236.71      102764.92      150565.34      3.3495713e-06  1.1902056e-06  2.1593657e-06  1.2978478e+08
    298000   7.1603377e-11  103225.87      102755.25      150437.2       3.3495076e-06  1.1903686e-06  2.159139e-06   1.2977602e+08
    299000   7.1843657e-11  103222.32      102749.95      150608.63      3.3495829e-06  1.1905182e-06  2.1590647e-06  1.2978047e+08
    300000   7.2083937e-11  103223.56      102755.62      150166.82      3.3496389e-06  1.1905482e-06  2.1590907e-06  1.2978637e+08
    301000   7.2324217e-11  103219.36      102749.63      150342.72      3.3496146e-06  1.1906116e-06  2.1590029e-06  1.2978155e+08
    302000   7.2564497e-11  103234.56      102772.1       149629.66      3.3495635e-06  1.1902427e-06  2.1593208e-06  1.2978241e+08
    303000   7.2804776e-11  103245.84      102788.76      149102.78      3.3495762e-06  1.1900194e-06  2.1595567e-06  1.2978622e+08
    304000   7.3045056e-11  103234.73      102786.56      148199.05      3.3495564e-06  1.1902321e-06  2.1593243e-06  1.2978055e+08
    305000   7.3285336e-11  103228.73      102782.57      147992.23      3.349575e-06   1.1903761e-06  2.1591989e-06  1.2978065e+08
    306000   7.3525616e-11  103226.41      102784.67      147547.09      3.3495068e-06  1.1903565e-06  2.1591502e-06  1.2977576e+08
    307000   7.3765895e-11  103231.96      102791.46      147428.54      3.3495361e-06  1.1902697e-06  2.1592664e-06  1.2978031e+08
    308000   7.4006175e-11  103220.81      102782.38      147210.61      3.34957e-06    1.1905367e-06  2.1590332e-06  1.2977928e+08
    309000   7.4246455e-11  103229.23      102797.28      146570.23      3.3496122e-06  1.1904029e-06  2.1592093e-06  1.2978621e+08
    310000   7.4486735e-11  103231.7       102809.83      145563.02      3.3495893e-06  1.1903285e-06  2.1592609e-06  1.297841e+08 
    311000   7.4727015e-11  103213.37      102791.47      145548.48      3.3495865e-06  1.190709e-06   2.1588775e-06  1.2977627e+08
    312000   7.4967294e-11  103239.44      102820.21      145306.98      3.3495518e-06  1.190129e-06   2.1594228e-06  1.2978431e+08
    313000   7.5207574e-11  103228.87      102809.34      145326.08      3.3496009e-06  1.1903992e-06  2.1592017e-06  1.2978338e+08
    314000   7.5447854e-11  103235.83      102816.76      145288.08      3.349622e-06   1.1902747e-06  2.1593474e-06  1.2978681e+08
    315000   7.5688134e-11  103221.9       102803.13      145244.07      3.3495627e-06  1.1905068e-06  2.159056e-06   1.2978016e+08
    316000   7.5928414e-11  103252.28      102837.73      144851.49      3.3496101e-06  1.1899187e-06  2.1596914e-06  1.2979273e+08
    317000   7.6168693e-11  103222.75      102810.82      144560.2       3.3496581e-06  1.1905843e-06  2.1590738e-06  1.2978546e+08
    318000   7.6408973e-11  103228.6       102822         144032.21      3.349675e-06   1.1904789e-06  2.159196e-06   1.2978753e+08
    319000   7.6649253e-11  103205.66      102806.32      143282.25      3.3496564e-06  1.1909402e-06  2.1587162e-06  1.2978128e+08
    320000   7.6889533e-11  103217.19      102816.51      143427.48      3.3496708e-06  1.1907133e-06  2.1589574e-06  1.2978456e+08
    321000   7.7129813e-11  103231.76      102832.42      143309.48      3.349626e-06   1.1903637e-06  2.1592623e-06  1.2978701e+08
    322000   7.7370092e-11  103218.27      102820.66      143121.8       3.3495863e-06  1.1906062e-06  2.15898e-06    1.297785e+08 
    323000   7.7610372e-11  103236.63      102835.56      143485.91      3.3495871e-06  1.1902231e-06  2.159364e-06   1.2978395e+08
    324000   7.7850652e-11  103210.89      102806.66      143777.83      3.3495759e-06  1.1907501e-06  2.1588258e-06  1.2977447e+08
    325000   7.8090932e-11  103242.88      102843.52      143321.86      3.3495731e-06  1.1900782e-06  2.1594949e-06  1.2978554e+08
    326000   7.8331211e-11  103220.2       102834.84      141898.61      3.3495329e-06  1.1905124e-06  2.1590205e-06  1.2977706e+08
    327000   7.8571491e-11  103217.7       102833.48      141780.83      3.3495946e-06  1.1906265e-06  2.1589681e-06  1.2977841e+08
    328000   7.8811771e-11  103232.32      102841.73      142432.7       3.3496384e-06  1.1903646e-06  2.1592739e-06  1.2978522e+08
    329000   7.9052051e-11  103235.98      102844.14      142562.29      3.3496324e-06  1.190282e-06   2.1593505e-06  1.2978722e+08
    330000   7.9292331e-11  103236.96      102838.85      143191         3.3496453e-06  1.1902742e-06  2.1593711e-06  1.2978932e+08
    331000   7.953261e-11   103235.08      102836.31      143254.81      3.3496219e-06  1.1902902e-06  2.1593316e-06  1.2978733e+08
    332000   7.977289e-11   103220.87      102815.45      143905.81      3.3495821e-06  1.1905477e-06  2.1590343e-06  1.2977879e+08
    333000   8.001317e-11   103217.91      102809.99      144154.14      3.3495855e-06  1.1906129e-06  2.1589726e-06  1.2977949e+08
    334000   8.025345e-11   103222.87      102815.13      144141.33      3.349632e-06   1.1905557e-06  2.1590764e-06  1.2978385e+08
    335000   8.049373e-11   103239.38      102833.6       143960.37      3.3495855e-06  1.1901639e-06  2.1594215e-06  1.2978583e+08
    336000   8.0734009e-11  103232.54      102826.94      143936.15      3.349548e-06   1.1902695e-06  2.1592785e-06  1.2977964e+08
    337000   8.0974289e-11  103241.24      102837.14      143794.6       3.349548e-06   1.1900876e-06  2.1594605e-06  1.2978328e+08
    338000   8.1214569e-11  103214.3       102812.06      143581.21      3.3495989e-06  1.1907019e-06  2.158897e-06   1.2977731e+08
    339000   8.1454849e-11  103230.43      102831.07      143309.35      3.3496011e-06  1.1903666e-06  2.1592345e-06  1.2978347e+08
    340000   8.1695129e-11  103220.68      102821.99      143232.43      3.3495512e-06  1.1905208e-06  2.1590304e-06  1.2977664e+08
    341000   8.1935408e-11  103235.33      102836.44      143267.93      3.3495942e-06  1.1902572e-06  2.159337e-06   1.2978543e+08
    342000   8.2175688e-11  103235.86      102838.1       143153.84      3.3495949e-06  1.190247e-06   2.1593479e-06  1.2978566e+08
    343000   8.2415968e-11  103229.11      102833.69      142913.86      3.3495931e-06  1.1903863e-06  2.1592068e-06  1.2978435e+08
    344000   8.2656248e-11  103245.75      102854.9       142473.21      3.3495851e-06  1.1900301e-06  2.1595549e-06  1.2978931e+08
    345000   8.2896527e-11  103235.48      102844.27      142498.33      3.3495688e-06  1.1902289e-06  2.1593399e-06  1.2978555e+08
    346000   8.3136807e-11  103226.76      102838.53      142191.58      3.3495788e-06  1.1904212e-06  2.1591576e-06  1.2978303e+08
    347000   8.3377087e-11  103228.1       102843.27      141852.61      3.3495699e-06  1.1903842e-06  2.1591856e-06  1.2978155e+08
    348000   8.3617367e-11  103240.76      102856.12      141846.3       3.3495304e-06  1.19008e-06    2.1594504e-06  1.2978196e+08
    349000   8.3857647e-11  103245.27      102863.48      141565.72      3.3495595e-06  1.1900146e-06  2.1595449e-06  1.2978524e+08
    350000   8.4097926e-11  103237.02      102853.86      141693.95      3.349579e-06   1.1902068e-06  2.1593722e-06  1.2978411e+08
    351000   8.4338206e-11  103238.45      102857.64      141460.28      3.3495185e-06  1.1901164e-06  2.1594021e-06  1.2978159e+08
    352000   8.4578486e-11  103230.3       102851.96      141205.19      3.3496135e-06  1.1903819e-06  2.1592316e-06  1.2978458e+08
    353000   8.4818766e-11  103218.81      102840.51      141189.55      3.3496409e-06  1.1906496e-06  2.1589913e-06  1.2978406e+08
    354000   8.5059046e-11  103229.99      102850.75      141294.82      3.3495441e-06  1.1903188e-06  2.1592253e-06  1.2978064e+08
    355000   8.5299325e-11  103215.3       102839.97      140889.26      3.349619e-06   1.1907011e-06  2.158918e-06   1.2977952e+08
    356000   8.5539605e-11  103225.71      102852.77      140659.33      3.3495328e-06  1.1903972e-06  2.1591356e-06  1.2977713e+08
    357000   8.5779885e-11  103237.23      102862.98      140802.68      3.3495608e-06  1.1901842e-06  2.1593766e-06  1.297826e+08 
    358000   8.6020165e-11  103226.75      102852.85      140757.21      3.349529e-06   1.1903716e-06  2.1591574e-06  1.2977902e+08
    359000   8.6260445e-11  103243.68      102872.64      140487.56      3.3495445e-06  1.190033e-06   2.1595115e-06  1.2978367e+08
    360000   8.6500724e-11  103237.79      102867.35      140421.9       3.3495907e-06  1.1902023e-06  2.1593884e-06  1.2978331e+08
    361000   8.6741004e-11  103236.23      102859.86      141014.13      3.3495903e-06  1.1902346e-06  2.1593557e-06  1.2978466e+08
    362000   8.6981284e-11  103209.65      102834.17      140897.84      3.3495714e-06  1.1907717e-06  2.1587997e-06  1.2977511e+08
    363000   8.7221564e-11  103232.81      102859.31      140722.93      3.3495802e-06  1.190296e-06   2.1592842e-06  1.2978267e+08
    364000   8.7461843e-11  103247.34      102882.54      139866.34      3.3496565e-06  1.1900685e-06  2.159588e-06   1.2979105e+08
    365000   8.7702123e-11  103225.28      102864.46      139446.67      3.3496027e-06  1.190476e-06   2.1591267e-06  1.2978125e+08
    366000   8.7942403e-11  103218.21      102863.06      138871.31      3.3496001e-06  1.1906213e-06  2.1589788e-06  1.2978043e+08
    367000   8.8182683e-11  103207.8       102853.48      138778.67      3.349633e-06   1.1908719e-06  2.1587611e-06  1.2978066e+08
    368000   8.8422963e-11  103217.3       102867.26      138359.92      3.3496719e-06  1.190712e-06   2.1589598e-06  1.2978495e+08
    369000   8.8663242e-11  103220.87      102884.34      137010.93      3.3496164e-06  1.1905819e-06  2.1590345e-06  1.2978145e+08
    370000   8.8903522e-11  103231.32      102904.96      136003.41      3.349646e-06   1.1903929e-06  2.1592531e-06  1.2978711e+08
    371000   8.9143802e-11  103221.84      102892.01      136341         3.3496328e-06  1.190578e-06   2.1590548e-06  1.2978189e+08
    372000   8.9384082e-11  103237.9       102909.21      136243.18      3.3495761e-06  1.1901853e-06  2.1593907e-06  1.2978442e+08
    373000   8.9624362e-11  103199.83      102873.5       135968.4       3.3495843e-06  1.19099e-06    2.1585943e-06  1.2977304e+08
    374000   8.9864641e-11  103203.24      102882.04      135458.57      3.3495778e-06  1.1909121e-06  2.1586658e-06  1.2977472e+08
    375000   9.0104921e-11  103210.06      102894.24      134926.75      3.3496373e-06  1.1908291e-06  2.1588083e-06  1.2978037e+08
    376000   9.0345201e-11  103235.74      102923.6       134584.13      3.3495982e-06  1.1902527e-06  2.1593455e-06  1.2978765e+08
    377000   9.0585481e-11  103243.23      102933.38      134362.31      3.3495974e-06  1.1900952e-06  2.1595021e-06  1.2978875e+08
    378000   9.0825761e-11  103233.75      102927.38      134004.65      3.3496827e-06  1.1903788e-06  2.1593038e-06  1.2978961e+08
    379000   9.106604e-11   103218.63      102916.76      133539.54      3.3496481e-06  1.1906604e-06  2.1589877e-06  1.2978395e+08
    380000   9.130632e-11   103221.98      102918.43      133710.35      3.3496437e-06  1.1905861e-06  2.1590576e-06  1.297843e+08 
    381000   9.15466e-11    103222         102920.57      133498.69      3.3496272e-06  1.190569e-06   2.1590581e-06  1.2978188e+08
    382000   9.178688e-11   103232.29      102931.5       133444.49      3.34955e-06    1.1902766e-06  2.1592734e-06  1.2978105e+08
    383000   9.202716e-11   103238.29      102935.98      133602.89      3.3495785e-06  1.1901796e-06  2.1593989e-06  1.2978298e+08
    384000   9.2267439e-11  103232.04      102928.45      133724.66      3.3496602e-06  1.190392e-06   2.1592681e-06  1.2978895e+08
    385000   9.2507719e-11  103210.34      102908.54      133524.1       3.3496757e-06  1.1908615e-06  2.1588142e-06  1.2978186e+08
    386000   9.2747999e-11  103209.45      102906.13      133674.3       3.3496311e-06  1.1908356e-06  2.1587955e-06  1.297783e+08 
    387000   9.2988279e-11  103228.76      102929.28      133309.6       3.3496536e-06  1.1904542e-06  2.1591994e-06  1.2978693e+08
    388000   9.3228558e-11  103235.88      102932.87      133669.79      3.3496934e-06  1.190345e-06   2.1593484e-06  1.2979198e+08
    389000   9.3468838e-11  103212.17      102913.07      133255.66      3.3496043e-06  1.1907517e-06  2.1588526e-06  1.2977855e+08
    390000   9.3709118e-11  103241.12      102948.81      132605.1       3.3495781e-06  1.19012e-06    2.1594581e-06  1.2978544e+08
    391000   9.3949398e-11  103247.46      102952.97      132828.65      3.3495682e-06  1.1899777e-06  2.1595905e-06  1.2978522e+08
    392000   9.4189678e-11  103231.53      102937.15      132802.17      3.349592e-06   1.1903345e-06  2.1592575e-06  1.2978239e+08
    393000   9.4429957e-11  103219.03      102924.5       132804.42      3.349543e-06   1.1905472e-06  2.1589959e-06  1.2977595e+08
    394000   9.4670237e-11  103215.07      102923.21      132533.24      3.349596e-06   1.190683e-06   2.1589131e-06  1.297776e+08 
    395000   9.4910517e-11  103207.29      102917.26      132342.23      3.3495831e-06  1.1908327e-06  2.1587503e-06  1.2977259e+08
    396000   9.5150797e-11  103236.34      102951.53      131848.25      3.3495662e-06  1.1902082e-06  2.1593579e-06  1.2978329e+08
    397000   9.5391077e-11  103225.13      102937.86      132083.55      3.349659e-06   1.1905355e-06  2.1591236e-06  1.2978366e+08
    398000   9.5631356e-11  103202.95      102919.89      131639.91      3.3497139e-06  1.1910543e-06  2.1586596e-06  1.2978027e+08
    399000   9.5871636e-11  103232.34      102952.59      131338.05      3.3496909e-06  1.1904166e-06  2.1592743e-06  1.2978937e+08
    400000   9.6111916e-11  103233.1       102950.78      131596.28      3.3496937e-06  1.1904035e-06  2.1592903e-06  1.2979065e+08
    401000   9.6352196e-11  103242.16      102962.49      131339.86      3.3496634e-06  1.1901837e-06  2.1594797e-06  1.2979023e+08
    402000   9.6592476e-11  103242.25      102963.02      131295.63      3.3496562e-06  1.1901746e-06  2.1594816e-06  1.2978978e+08
    403000   9.6832755e-11  103231.7       102948.55      131678.02      3.3496449e-06  1.1903841e-06  2.1592609e-06  1.2978635e+08
    404000   9.7073035e-11  103223.97      102940.57      131695.47      3.3496381e-06  1.1905388e-06  2.1590993e-06  1.2978294e+08
    405000   9.7313315e-11  103235.81      102951.74      131773.97      3.3495561e-06  1.1902092e-06  2.1593469e-06  1.2978079e+08
    406000   9.7553595e-11  103219.53      102938.35      131469.52      3.3495328e-06  1.1905263e-06  2.1590065e-06  1.2977255e+08
    407000   9.7793874e-11  103216.96      102937.95      131248.36      3.349563e-06   1.1906104e-06  2.1589526e-06  1.297771e+08 
    408000   9.8034154e-11  103229.58      102951.99      131118.98      3.3495856e-06  1.190369e-06   2.1592166e-06  1.2978021e+08
    409000   9.8274434e-11  103258.24      102979.22      131290.83      3.3496067e-06  1.1897907e-06  2.159816e-06   1.2979139e+08
    410000   9.8514714e-11  103215.36      102929.96      131886.97      3.3496044e-06  1.1906852e-06  2.1589193e-06  1.2977577e+08
    411000   9.8754994e-11  103248.12      102961.92      132000.28      3.3496027e-06  1.1899983e-06  2.1596044e-06  1.2978846e+08
    412000   9.8995273e-11  103260.61      102980.13      131440.42      3.3496291e-06  1.1897633e-06  2.1598657e-06  1.2979388e+08
    413000   9.9235553e-11  103241.75      102967.57      130790.2       3.3495995e-06  1.1901282e-06  2.1594713e-06  1.2978626e+08
    414000   9.9475833e-11  103227.87      102957.03      130442.28      3.3496475e-06  1.1904667e-06  2.1591808e-06  1.2978564e+08
    415000   9.9716113e-11  103212.59      102937.53      130848.91      3.3495919e-06  1.1907307e-06  2.1588612e-06  1.2977653e+08
    416000   9.9956393e-11  103240.22      102960.33      131360.59      3.3496351e-06  1.1901959e-06  2.1594392e-06  1.2978795e+08
    417000   1.0019667e-10  103227.63      102940.65      132058.17      3.3496345e-06  1.1904585e-06  2.1591759e-06  1.2978342e+08
    418000   1.0043695e-10  103219.37      102934.94      131793.53      3.3496525e-06  1.1906494e-06  2.1590031e-06  1.297821e+08 
    419000   1.0067723e-10  103226.71      102939.59      132070.56      3.3496082e-06  1.1904516e-06  2.1591566e-06  1.297805e+08 
    420000   1.0091751e-10  103231.87      102948.83      131667.49      3.3496382e-06  1.1903736e-06  2.1592645e-06  1.2978407e+08
    421000   1.0115779e-10  103222.77      102941.27      131503.84      3.3496151e-06  1.1905409e-06  2.1590742e-06  1.2978026e+08
    422000   1.0139807e-10  103237.11      102954.08      131671.1       3.3496421e-06  1.190268e-06   2.1593741e-06  1.2978834e+08
    423000   1.0163835e-10  103226.51      102938.42      132167.64      3.3496686e-06  1.1905162e-06  2.1591524e-06  1.2978538e+08
    424000   1.0187863e-10  103233.46      102940.24      132688.07      3.3496429e-06  1.1903451e-06  2.1592979e-06  1.2978601e+08
    425000   1.0211891e-10  103227.31      102938.74      132215.45      3.3496176e-06  1.1904485e-06  2.1591691e-06  1.297826e+08 
    426000   1.0235919e-10  103248.5       102963.28      131902.56      3.3495645e-06  1.1899521e-06  2.1596124e-06  1.2978608e+08
    427000   1.0259947e-10  103231.86      102950.03      131546.57      3.3495566e-06  1.1902922e-06  2.1592644e-06  1.2978041e+08
    428000   1.0283975e-10  103200.26      102913.92      131966.54      3.3496256e-06  1.1910223e-06  2.1586034e-06  1.2977424e+08
    429000   1.0308003e-10  103245.3       102954.5       132456.78      3.3496534e-06  1.1901081e-06  2.1595453e-06  1.2979153e+08
    430000   1.0332031e-10  103254.61      102965.71      132276.09      3.3496325e-06  1.1898924e-06  2.1597401e-06  1.2979283e+08
    431000   1.0356059e-10  103235.18      102950.44      131841.2       3.3496107e-06  1.1902769e-06  2.1593338e-06  1.2978512e+08
    432000   1.0380087e-10  103222.06      102942.32      131326.98      3.349631e-06   1.1905716e-06  2.1590594e-06  1.297812e+08 
