Job ID:        404028
Host:          daisg112
Start time:    Wed Aug  5 03:48:40 PM CEST 2026
Working dir:   /dais/fs/scratch/kshao/wd/White-Dwarf-Codes/unforced/dais
MPI tasks:     1
CPUs/task:     12
Visible GPU:   0
LAMMPS:        /u/kshao/software/lammps-gpu-cuda12-install/bin/lmp
Input:         unforcedvel_v1.8e+05_c2.in
Currently Loaded Modulefiles:
 1) gcc/14   2) cuda/12.8   3) openmpi/5.0  
name, uuid, driver_version, memory.total [MiB]
NVIDIA H200, GPU-d9fdc236-3b3a-1d6d-2e51-395e081b3d7a, 580.173.02, 143771 MiB
LAMMPS (22 Jul 2025 - Update 4)
  using 1 OpenMP thread(s) per MPI task
Created orthogonal box = (0 0 0) to (2.5958006e-05 2.5958006e-05 2.5958006e-05)
  1 by 1 by 1 MPI processor grid
Created 100000 atoms
  using lattice units in orthogonal box = (0 0 0) to (2.5958006e-05 2.5958006e-05 2.5958006e-05)
  create_atoms CPU = 110.055 seconds
Created 1000 atoms
  using lattice units in orthogonal box = (0 0 0) to (2.5958006e-05 2.5958006e-05 2.5958006e-05)
  create_atoms CPU = 2.207 seconds
1000 atoms in group Si
100000 atoms in group H

CITE-CITE-CITE-CITE-CITE-CITE-CITE-CITE-CITE-CITE-CITE-CITE-CITE

Your simulation uses code contributions which should be cited:
- GPU package (short-range, long-range and three-body potentials): doi:10.1016/j.cpc.2010.12.021, doi:10.1016/j.cpc.2011.10.012, doi:10.1016/j.cpc.2013.08.002, doi:10.1016/j.commatsci.2014.10.068, doi:10.1016/j.cpc.2016.10.020, doi:10.3233/APC200086
The log file lists these citations in BibTeX format.

CITE-CITE-CITE-CITE-CITE-CITE-CITE-CITE-CITE-CITE-CITE-CITE-CITE


--------------------------------------------------------------------------
- Using acceleration for yukawa:
-  with 1 proc(s) per device.
-  with 1 thread(s) per proc.
-  Horizontal vector operations: ENABLED
-  Shared memory system: No
--------------------------------------------------------------------------
Device 0: NVIDIA H200, 132 CUs, 1.4e+02/1.4e+02 GB, 2 GHZ (Mixed Precision)
--------------------------------------------------------------------------

Initializing Device and compiling on process 0...Done.
Initializing Device 0 on core 0...Done.

Generated 0 of 1 mixed pair_coeff terms from geometric mixing rule
Neighbor list info ...
  update: every = 1 steps, delay = 0 steps, check = yes
  max neighbors/atom: 10000, page size: 100000
  master list distance cutoff = 6.4137883e-06
  ghost atom cutoff = 6.4137883e-06
  binsize = 3.2068942e-06, bins = 9 9 9
  1 neighbor lists, perpetual/occasional/extra = 1 0 0
  (1) pair yukawa/gpu, perpetual
      attributes: full, newton on
      pair build: full/bin/atomonly
      stencil: full/bin/3d
      bin: standard
Setting up Verlet run ...
  Unit style    : cgs
  Current step  : 0
  Time step     : 3.11152596244976e-16
Per MPI rank memory allocation (min/avg/max) = 2678 | 2678 | 2678 Mbytes
   Step          Time           Temp         c_tempH        c_tempSi        TotEng         PotEng         KinEng         Press           v_k0           v_dt        v_collfreq       v_ccs     
         0   0              100000         99997.834      100316.89      3.2893843e-06  1.1977196e-06  2.0916646e-06  1.2739277e+08  623656.38      3.111526e-16   1.2912086e+11  3.54583e-15  
      1000   3.111526e-13   100064.68      100059.07      100726.23      3.2842552e-06  1.1912377e-06  2.0930175e-06  1.2728723e+08  623656.38      3.111526e-16   1.2912086e+11  3.54583e-15  
      2000   6.2230519e-13  99877.846      99871.926      100570.42      3.2795715e-06  1.1904619e-06  2.0891096e-06  1.2711244e+08  623656.38      3.111526e-16   1.2912086e+11  3.54583e-15  
Loop time of 59.4476 on 1 procs for 2000 steps with 101000 atoms

99.5% CPU use with 1 MPI tasks x 1 OpenMP threads

MPI task timing breakdown:
Section |  min time  |  avg time  |  max time  |%varavg| %total
---------------------------------------------------------------
Pair    | 8.3992     | 8.3992     | 8.3992     |   0.0 | 14.13
Neigh   | 46.698     | 46.698     | 46.698     |   0.0 | 78.55
Comm    | 1.7305     | 1.7305     | 1.7305     |   0.0 |  2.91
Output  | 0.016797   | 0.016797   | 0.016797   |   0.0 |  0.03
Modify  | 1.8083     | 1.8083     | 1.8083     |   0.0 |  3.04
Other   |            | 0.795      |            |       |  1.34

Nlocal:         101000 ave      101000 max      101000 min
Histogram: 1 0 0 0 0 0 0 0 0 0
Nghost:         235885 ave      235885 max      235885 min
Histogram: 1 0 0 0 0 0 0 0 0 0
Neighs:              0 ave           0 max           0 min
Histogram: 1 0 0 0 0 0 0 0 0 0
FullNghs:   6.4454e+08 ave  6.4454e+08 max  6.4454e+08 min
Histogram: 1 0 0 0 0 0 0 0 0 0

Total # of neighbors = 6.4454043e+08
Ave neighs/atom = 6381.5885
Neighbor list builds = 5
Dangerous builds = 0


---------------------------------------------------------------------
      Device Time Info (average): 
---------------------------------------------------------------------
Data Transfer:   0.3259 s.
Neighbor copy:   2.4754 s.
Neighbor unpack: 0.0000 s.
Force calc:      5.8123 s.
Device Overhead: 0.0758 s.
CPU Cast/Pack:   1.0158 s.
CPU Driver_Time: 0.0261 s.
CPU Idle_Time:   5.2843 s.
Average split:   1.0000.
Max Mem / Proc:  3097.52 MB.
Prefetch mode:   None.
Vector width:    32.
Lanes / atom:    4.
Pair block:      256.
Neigh block:     128.
Neigh mode:      Host.
---------------------------------------------------------------------


--------------------------------------------------------------------------
- Using acceleration for yukawa:
-  with 1 proc(s) per device.
-  with 1 thread(s) per proc.
-  Horizontal vector operations: ENABLED
-  Shared memory system: No
--------------------------------------------------------------------------
Device 0: NVIDIA H200, 132 CUs, 1.4e+02/1.4e+02 GB, 2 GHZ (Mixed Precision)
--------------------------------------------------------------------------

Initializing Device and compiling on process 0...Done.
Initializing Device 0 on core 0...Done.

Generated 0 of 1 mixed pair_coeff terms from geometric mixing rule
Setting up Verlet run ...
  Unit style    : cgs
  Current step  : 2000
  Time step     : 3.11152596244976e-16
Per MPI rank memory allocation (min/avg/max) = 2685 | 2685 | 2685 Mbytes
   Step          Time           Temp         c_tempH        c_tempSi        TotEng         PotEng         KinEng         Press     
      2000   6.2230519e-13  99924.029      99871.926      105239.5       3.2805375e-06  1.1904619e-06  2.0900756e-06  1.2714926e+08
      3000   9.3345779e-13  99926.851      99871.019      105615.6       3.2805587e-06  1.1904241e-06  2.0901346e-06  1.2715012e+08
      4000   1.2446104e-12  99926.756      99870.271      105680.95      3.2805426e-06  1.19041e-06    2.0901326e-06  1.271511e+08 
      5000   1.555763e-12   99929.238      99875.47       105411.44      3.2805471e-06  1.1903626e-06  2.0901845e-06  1.2715047e+08
      6000   1.8669156e-12  99929.895      99869.226      106102.85      3.2805943e-06  1.190396e-06   2.0901983e-06  1.2715657e+08
      7000   2.1780682e-12  99945.684      99885.122      106107.94      3.2805488e-06  1.1900203e-06  2.0905285e-06  1.2715766e+08
      8000   2.4892208e-12  99923.594      99863.299      106059.11      3.2805593e-06  1.1904928e-06  2.0900665e-06  1.2714913e+08
      9000   2.8003734e-12  99947.141      99889.696      105797.41      3.2805103e-06  1.1899513e-06  2.090559e-06   1.2715469e+08
     10000   3.111526e-12   99917.103      99858.862      105846.95      3.280628e-06   1.1906973e-06  2.0899307e-06  1.2715231e+08
     11000   3.4226786e-12  99954.488      99893.673      106142.06      3.2805644e-06  1.1898517e-06  2.0907127e-06  1.2716137e+08
     12000   3.7338312e-12  99945.748      99880.022      106624.92      3.2805165e-06  1.1899866e-06  2.0905299e-06  1.2715411e+08
     13000   4.0449838e-12  99961.187      99894.294      106757.17      3.2804974e-06  1.1896446e-06  2.0908528e-06  1.2715567e+08
     14000   4.3561363e-12  99937.193      99870.622      106700.91      3.2804679e-06  1.1901169e-06  2.0903509e-06  1.2714775e+08
     15000   4.6672889e-12  99931.653      99864.214      106782.26      3.2805269e-06  1.1902918e-06  2.0902351e-06  1.2714942e+08
     16000   4.9784415e-12  99928.023      99861.739      106663.08      3.2805498e-06  1.1903906e-06  2.0901591e-06  1.2715157e+08
     17000   5.2895941e-12  99923.821      99857.859      106626.61      3.2804916e-06  1.1904203e-06  2.0900712e-06  1.2714552e+08
     18000   5.6007467e-12  99935.717      99873.762      106237.42      3.2805702e-06  1.1902502e-06  2.0903201e-06  1.2715561e+08
     19000   5.9118993e-12  99941.503      99875.132      106685.15      3.280508e-06   1.1900669e-06  2.0904411e-06  1.2715315e+08
     20000   6.2230519e-12  99913.21       99846.081      106732.8       3.2805581e-06  1.1907088e-06  2.0898493e-06  1.271467e+08 
     21000   6.5342045e-12  99942.219      99875.683      106702.4       3.2805846e-06  1.1901286e-06  2.0904561e-06  1.2715938e+08
     22000   6.8453571e-12  99925.934      99860.976      106528.22      3.2805573e-06  1.1904418e-06  2.0901154e-06  1.2715051e+08
     23000   7.1565097e-12  99948.742      99883.127      106616.83      3.2805414e-06  1.1899489e-06  2.0905925e-06  1.2715955e+08
     24000   7.4676623e-12  99949.214      99890.302      105946.22      3.2804666e-06  1.1898642e-06  2.0906024e-06  1.2715292e+08
     25000   7.7788149e-12  99931.851      99876.396      105582.88      3.2805011e-06  1.1902619e-06  2.0902392e-06  1.2715021e+08
     26000   8.0899675e-12  99930.36       99876.413      105430.45      3.2805713e-06  1.1903633e-06  2.090208e-06   1.2715411e+08
     27000   8.4011201e-12  99937.031      99883.399      105405.58      3.2805721e-06  1.1902245e-06  2.0903475e-06  1.2715562e+08
     28000   8.7122727e-12  99925.257      99872.677      105288.41      3.2805483e-06  1.190447e-06   2.0901013e-06  1.2714992e+08
     29000   9.0234253e-12  99913.214      99855.469      105793.49      3.2805911e-06  1.1907417e-06  2.0898494e-06  1.2714885e+08
     30000   9.3345779e-12  99933.906      99880.374      105392.42      3.2805428e-06  1.1902606e-06  2.0902822e-06  1.2715254e+08
     31000   9.6457305e-12  99941.582      99887.124      105492.83      3.2805836e-06  1.1901409e-06  2.0904427e-06  1.2715808e+08
     32000   9.9568831e-12  99942.419      99892.933      104995.94      3.2805753e-06  1.1901151e-06  2.0904602e-06  1.2715937e+08
     33000   1.0268036e-11  99942.087      99889.942      105261.85      3.2805937e-06  1.1901404e-06  2.0904533e-06  1.271593e+08 
     34000   1.0579188e-11  99940.262      99887.782      105293.5       3.2805543e-06  1.1901392e-06  2.0904151e-06  1.2715798e+08
     35000   1.0890341e-11  99931.455      99879.072      105274.98      3.2805234e-06  1.1902925e-06  2.0902309e-06  1.2715176e+08
     36000   1.1201493e-11  99932.863      99878.738      105450.73      3.2805588e-06  1.1902985e-06  2.0902604e-06  1.2715473e+08
     37000   1.1512646e-11  99939.221      99890.761      104889.99      3.2805373e-06  1.190144e-06   2.0903933e-06  1.2715377e+08
     38000   1.1823799e-11  99937.292      99890.49       104722.14      3.2805341e-06  1.1901811e-06  2.090353e-06   1.2715299e+08
     39000   1.2134951e-11  99912.483      99864.314      104834.19      3.2805138e-06  1.1906797e-06  2.0898341e-06  1.2714556e+08
     40000   1.2446104e-11  99943.854      99894.18       105016.26      3.2805404e-06  1.1900502e-06  2.0904903e-06  1.2715839e+08
     41000   1.2757256e-11  99948.121      99894.201      105445.48      3.2805231e-06  1.1899436e-06  2.0905795e-06  1.2715562e+08
     42000   1.3068409e-11  99934.554      99882.902      105204.86      3.2805592e-06  1.1902634e-06  2.0902957e-06  1.2715252e+08
     43000   1.3379562e-11  99914.481      99865.826      104884.82      3.2805324e-06  1.1906566e-06  2.0898759e-06  1.2714608e+08
     44000   1.3690714e-11  99940.683      99889.306      105183.51      3.2805706e-06  1.1901466e-06  2.0904239e-06  1.2715765e+08
     45000   1.4001867e-11  99927.88       99881.917      104628.68      3.2806726e-06  1.1905165e-06  2.0901561e-06  1.2715772e+08
     46000   1.4313019e-11  99929.41       99880.239      104951.47      3.2805511e-06  1.1903629e-06  2.0901881e-06  1.271518e+08 
     47000   1.4624172e-11  99930.949      99888.104      104319.72      3.2805689e-06  1.1903486e-06  2.0902203e-06  1.2715221e+08
     48000   1.4935325e-11  99923.101      99886.903      103646.49      3.2805896e-06  1.1905334e-06  2.0900562e-06  1.2715309e+08
     49000   1.5246477e-11  99925.714      99889.633      103637.45      3.2805274e-06  1.1904166e-06  2.0901108e-06  1.2714816e+08
     50000   1.555763e-11   99911.989      99874.081      103806.49      3.2805956e-06  1.1907718e-06  2.0898237e-06  1.2714752e+08
     51000   1.5868782e-11  99930.182      99889.336      104118.89      3.2805461e-06  1.1903418e-06  2.0902043e-06  1.2715055e+08
     52000   1.6179935e-11  99930.897      99897.083      103415.76      3.2805316e-06  1.1903124e-06  2.0902193e-06  1.2715053e+08
     53000   1.6491088e-11  99913.136      99882.254      103104.47      3.2805744e-06  1.1907266e-06  2.0898477e-06  1.2714796e+08
     54000   1.680224e-11   99910.954      99873.755      103734.64      3.2805493e-06  1.1907471e-06  2.0898021e-06  1.2714443e+08
     55000   1.7113393e-11  99945.387      99906.157      103972.27      3.2804962e-06  1.1899738e-06  2.0905223e-06  1.271532e+08 
     56000   1.7424545e-11  99956.105      99918.334      103837.02      3.2805889e-06  1.1898424e-06  2.0907465e-06  1.2716187e+08
     57000   1.7735698e-11  99953.089      99917.076      103657.97      3.280564e-06   1.1898806e-06  2.0906834e-06  1.2716038e+08
     58000   1.8046851e-11  99929.786      99895.331      103478.72      3.2805388e-06  1.1903428e-06  2.090196e-06   1.2714977e+08
     59000   1.8358003e-11  99920.54       99879.992      104079.44      3.2805149e-06  1.1905123e-06  2.0900026e-06  1.2714586e+08
     60000   1.8669156e-11  99964.511      99922.797      104240.1       3.2805247e-06  1.1896024e-06  2.0909223e-06  1.2716017e+08
     61000   1.8980308e-11  99943.005      99896.467      104701.44      3.2805903e-06  1.1901178e-06  2.0904725e-06  1.2715667e+08
     62000   1.9291461e-11  99933.518      99891.121      104277.51      3.280605e-06   1.1903309e-06  2.0902741e-06  1.2715652e+08
     63000   1.9602614e-11  99916.718      99874.273      104265.46      3.280553e-06   1.1906303e-06  2.0899227e-06  1.2714754e+08
     64000   1.9913766e-11  99908.55       99866.362      104231.57      3.2806175e-06  1.1908657e-06  2.0897518e-06  1.2714935e+08
     65000   2.0224919e-11  99902.944      99861.162      104185.3       3.2805262e-06  1.1908916e-06  2.0896346e-06  1.2714105e+08
     66000   2.0536071e-11  99951.787      99909.452      104289.51      3.2805778e-06  1.1899216e-06  2.0906562e-06  1.2716153e+08
     67000   2.0847224e-11  99931.608      99892.341      103962.14      3.280526e-06   1.1902919e-06  2.0902341e-06  1.2715133e+08
     68000   2.1158377e-11  99947.171      99906.589      104109.38      3.2805078e-06  1.1899482e-06  2.0905596e-06  1.2715291e+08
     69000   2.1469529e-11  99928.315      99896.768      103186.14      3.2805335e-06  1.1903682e-06  2.0901652e-06  1.271484e+08 
     70000   2.1780682e-11  99938.226      99907.615      103102.41      3.2804942e-06  1.1901217e-06  2.0903726e-06  1.2714987e+08
     71000   2.2091834e-11  99924.587      99891.818      103304.8       3.2805252e-06  1.1904379e-06  2.0900873e-06  1.2714828e+08
     72000   2.2402987e-11  99926.168      99894.319      103214.24      3.280572e-06   1.1904517e-06  2.0901203e-06  1.2715028e+08
     73000   2.271414e-11   99942.812      99907.967      103530.83      3.280595e-06   1.1901265e-06  2.0904685e-06  1.2715807e+08
     74000   2.3025292e-11  99916.401      99884.556      103204.06      3.2806121e-06  1.190696e-06   2.089916e-06   1.2715199e+08
     75000   2.3336445e-11  99916.242      99888.108      102832.52      3.2805804e-06  1.1906677e-06  2.0899127e-06  1.2715042e+08
     76000   2.3647597e-11  99923.131      99896.665      102672.37      3.2805894e-06  1.1905326e-06  2.0900568e-06  1.2715152e+08
     77000   2.395875e-11   99958.47       99928.288      103079.69      3.2805158e-06  1.1897198e-06  2.090796e-06   1.271567e+08 
     78000   2.4269903e-11  99945.588      99912.379      103369.86      3.28051e-06    1.1899835e-06  2.0905265e-06  1.271543e+08 
     79000   2.4581055e-11  99927.516      99895.284      103253.95      3.2805884e-06  1.1904398e-06  2.0901485e-06  1.2715229e+08
     80000   2.4892208e-11  99933.766      99904.765      102936.81      3.2805562e-06  1.190277e-06   2.0902793e-06  1.2715122e+08
     81000   2.520336e-11   99921.175      99897.545      102386.61      3.2805582e-06  1.1905423e-06  2.0900159e-06  1.2714831e+08
     82000   2.5514513e-11  99931.095      99906.905      102452.54      3.2805733e-06  1.1903499e-06  2.0902234e-06  1.271535e+08 
     83000   2.5825665e-11  99914.337      99892.773      102172.86      3.2806108e-06  1.1907379e-06  2.0898729e-06  1.2715028e+08
     84000   2.6136818e-11  99923.771      99909.924      101409.83      3.2805978e-06  1.1905276e-06  2.0900702e-06  1.2715381e+08
     85000   2.6447971e-11  99944.85       99934.158      101115.18      3.2805556e-06  1.1900445e-06  2.0905111e-06  1.2715725e+08
     86000   2.6759123e-11  99946.928      99938.849      100855.7       3.2805593e-06  1.1900047e-06  2.0905546e-06  1.2715748e+08
     87000   2.7070276e-11  99928.171      99920.564      100789.67      3.2805991e-06  1.1904368e-06  2.0901622e-06  1.2715212e+08
     88000   2.7381428e-11  99933.052      99926.634      100675.47      3.280552e-06   1.1902877e-06  2.0902643e-06  1.2715193e+08
     89000   2.7692581e-11  99945.036      99934.386      101111.09      3.2805984e-06  1.1900834e-06  2.090515e-06   1.2715922e+08
     90000   2.8003734e-11  99910.522      99899.046      101159.25      3.2805261e-06  1.190733e-06   2.0897931e-06  1.2714234e+08
     91000   2.8314886e-11  99927.866      99911.245      101691.66      3.2805668e-06  1.1904109e-06  2.0901558e-06  1.2714923e+08
     92000   2.8626039e-11  99951.888      99930.613      102181.51      3.2805483e-06  1.18989e-06    2.0906583e-06  1.2715883e+08
     93000   2.8937191e-11  99938.75       99923.418      101573.56      3.2805264e-06  1.1901428e-06  2.0903835e-06  1.2715354e+08
     94000   2.9248344e-11  99923.365      99914.802      100880.49      3.2806575e-06  1.1905958e-06  2.0900617e-06  1.2715606e+08
     95000   2.9559497e-11  99927.182      99919.155      100830.69      3.2806105e-06  1.190469e-06   2.0901415e-06  1.2715587e+08
     96000   2.9870649e-11  99925.879      99912.72       101343.19      3.2805527e-06  1.1904384e-06  2.0901143e-06  1.2715031e+08
     97000   3.0181802e-11  99938.777      99928.862      101031.38      3.2805776e-06  1.1901935e-06  2.0903841e-06  1.2715702e+08
     98000   3.0492954e-11  99923.951      99914.527      100967.26      3.2805707e-06  1.1904967e-06  2.0900739e-06  1.2715051e+08
     99000   3.0804107e-11  99963.733      99957.056      100732.16      3.2805397e-06  1.1896336e-06  2.0909061e-06  1.2716081e+08
    100000   3.111526e-11   99910.59       99903.985      100671.74      3.280553e-06   1.1907585e-06  2.0897945e-06  1.2714348e+08
    101000   3.1426412e-11  99942.009      99938.517      100391.65      3.280606e-06   1.1901544e-06  2.0904517e-06  1.2715672e+08
    102000   3.1737565e-11  99938.665      99928.246      101081.63      3.2805588e-06  1.1901771e-06  2.0903817e-06  1.2715497e+08
    103000   3.2048717e-11  99938.813      99922.141      101707.67      3.2805921e-06  1.1902073e-06  2.0903848e-06  1.2715656e+08
    104000   3.235987e-11   99936.307      99926.545      101013.53      3.2805216e-06  1.1901892e-06  2.0903324e-06  1.2714972e+08
    105000   3.2671023e-11  99942.857      99935.037      100825.69      3.2805901e-06  1.1901207e-06  2.0904694e-06  1.2715598e+08
    106000   3.2982175e-11  99942.991      99940.891      100253.21      3.2805548e-06  1.1900826e-06  2.0904722e-06  1.2715653e+08
    107000   3.3293328e-11  99931.224      99924.629      100691.41      3.2805213e-06  1.1902952e-06  2.0902261e-06  1.2714837e+08
    108000   3.360448e-11   99933.576      99926.652      100726.77      3.280553e-06   1.1902778e-06  2.0902753e-06  1.2715297e+08
    109000   3.3915633e-11  99937.401      99937.088      100068.78      3.2805624e-06  1.1902071e-06  2.0903553e-06  1.2715584e+08
    110000   3.4226786e-11  99946.66       99947.939      99918.68       3.2805853e-06  1.1900364e-06  2.0905489e-06  1.2715886e+08
    111000   3.4537938e-11  99932.399      99939.259      99345.812      3.2806246e-06  1.1903739e-06  2.0902507e-06  1.2715753e+08
    112000   3.4849091e-11  99921.706      99927.343      99457.482      3.2805475e-06  1.1905205e-06  2.090027e-06   1.2714936e+08
    113000   3.5160243e-11  99937.887      99941.324      99693.898      3.2805829e-06  1.1902174e-06  2.0903655e-06  1.2715658e+08
    114000   3.5471396e-11  99943.379      99944.341      99947.057      3.2805313e-06  1.190051e-06   2.0904803e-06  1.2715535e+08
    115000   3.5782549e-11  99934.41       99935.25       99950.424      3.280613e-06   1.1903203e-06  2.0902927e-06  1.271582e+08 
    116000   3.6093701e-11  99931.773      99924.718      100738.02      3.2805929e-06  1.1903553e-06  2.0902376e-06  1.2715409e+08
    117000   3.6404854e-11  99962.44       99952.399      101067.6       3.2805441e-06  1.189665e-06   2.090879e-06   1.2716042e+08
    118000   3.6716006e-11  99941.26       99934.55       100712.93      3.2805538e-06  1.1901178e-06  2.090436e-06   1.2715439e+08
    119000   3.7027159e-11  99928.804      99925.356      100374.06      3.2806237e-06  1.1904483e-06  2.0901755e-06  1.271561e+08 
    120000   3.7338312e-11  99949.243      99947.214      100252.47      3.2804974e-06  1.1898944e-06  2.090603e-06   1.2715333e+08
    121000   3.7649464e-11  99922.401      99917.654      100497.59      3.2805028e-06  1.1904613e-06  2.0900415e-06  1.2714554e+08
    122000   3.7960617e-11  99937.362      99929.723      100802.06      3.2806365e-06  1.190282e-06   2.0903545e-06  1.2715937e+08
    123000   3.8271769e-11  99950.811      99939.488      101184.23      3.2805726e-06  1.1899368e-06  2.0906358e-06  1.2715911e+08
    124000   3.8582922e-11  99927.18       99916.054      101140.89      3.2805749e-06  1.1904334e-06  2.0901415e-06  1.2715121e+08
    125000   3.8894075e-11  99916.48       99904.221      101243.6       3.2806077e-06  1.1906901e-06  2.0899177e-06  1.2714959e+08
    126000   3.9205227e-11  99932.794      99917.737      101540.07      3.280632e-06   1.1903731e-06  2.0902589e-06  1.2715697e+08
    127000   3.951638e-11   99932.683      99908.119      102491.54      3.2805456e-06  1.190289e-06   2.0902566e-06  1.271521e+08 
    128000   3.9827532e-11  99915.708      99888.775      102711.62      3.280584e-06   1.1906824e-06  2.0899015e-06  1.2714846e+08
    129000   4.0138685e-11  99940.529      99919.006      102195.02      3.2805706e-06  1.1901499e-06  2.0904207e-06  1.2715616e+08
    130000   4.0449838e-11  99931.497      99911.083      102074.98      3.2806741e-06  1.1904423e-06  2.0902318e-06  1.2715895e+08
    131000   4.076099e-11   99934.808      99914.446      102073.04      3.2806505e-06  1.1903494e-06  2.0903011e-06  1.2715977e+08
    132000   4.1072143e-11  99943.487      99921.322      102262.29      3.2805724e-06  1.1900898e-06  2.0904826e-06  1.2715589e+08
    133000   4.1383295e-11  99950.175      99928.391      102230.77      3.2806022e-06  1.1899797e-06  2.0906225e-06  1.2715896e+08
    134000   4.1694448e-11  99940.893      99918.115      102320.99      3.2805934e-06  1.1901651e-06  2.0904283e-06  1.2715581e+08
    135000   4.20056e-11    99931.392      99908.781      102294.78      3.2805876e-06  1.190358e-06   2.0902296e-06  1.2715237e+08
    136000   4.2316753e-11  99934.947      99917.176      101813.9       3.2805768e-06  1.1902728e-06  2.090304e-06   1.2715172e+08
    137000   4.2627906e-11  99923.437      99906.705      101698.36      3.2805309e-06  1.1904677e-06  2.0900632e-06  1.2714486e+08
    138000   4.2939058e-11  99932.101      99913.918      101852.28      3.2805238e-06  1.1902794e-06  2.0902444e-06  1.2714954e+08
    139000   4.3250211e-11  99922.24       99908.279      101419.77      3.2805314e-06  1.1904933e-06  2.0900382e-06  1.2714563e+08
    140000   4.3561363e-11  99947.632      99935.512      101260.92      3.2806197e-06  1.1900504e-06  2.0905693e-06  1.2715969e+08
    141000   4.3872516e-11  99936.205      99925.115      101146.33      3.2806666e-06  1.1903364e-06  2.0903303e-06  1.2715946e+08
    142000   4.4183669e-11  99935.147      99922.005      101350.73      3.2806465e-06  1.1903384e-06  2.0903081e-06  1.2715918e+08
    143000   4.4494821e-11  99905.967      99898.165      100786.93      3.2806586e-06  1.1909608e-06  2.0896978e-06  1.2714932e+08
    144000   4.4805974e-11  99945.595      99940.316      100574.07      3.2806398e-06  1.1901132e-06  2.0905267e-06  1.2716067e+08
    145000   4.5117126e-11  99956.959      99954.561      100297.06      3.2806258e-06  1.1898614e-06  2.0907644e-06  1.2716491e+08
    146000   4.5428279e-11  99937.533      99940.497      99740.899      3.2806343e-06  1.1902762e-06  2.090358e-06   1.2715938e+08
    147000   4.5739432e-11  99908.358      99913.086      99535.082      3.2806042e-06  1.1908564e-06  2.0897478e-06  1.271453e+08 
    148000   4.6050584e-11  99926.464      99928.359      99836.774      3.2805982e-06  1.1904717e-06  2.0901265e-06  1.2715287e+08
    149000   4.6361737e-11  99934.356      99933.113      100158.72      3.2806464e-06  1.1903549e-06  2.0902916e-06  1.2715967e+08
    150000   4.6672889e-11  99935.246      99930.923      100468.08      3.2805759e-06  1.1902657e-06  2.0903102e-06  1.2715525e+08
    151000   4.6984042e-11  99923.424      99923.352      100030.61      3.2805938e-06  1.1905309e-06  2.0900629e-06  1.2715065e+08
    152000   4.7295195e-11  99947.598      99946.802      100127.24      3.2806325e-06  1.1900639e-06  2.0905686e-06  1.2716113e+08
    153000   4.7606347e-11  99936.799      99932.619      100455.19      3.2806212e-06  1.1902785e-06  2.0903427e-06  1.2715879e+08
    154000   4.79175e-11    99913.594      99902.98       101076.09      3.2805455e-06  1.1906882e-06  2.0898573e-06  1.2714392e+08
    155000   4.8228652e-11  99936.072      99921.095      101535.26      3.2805741e-06  1.1902466e-06  2.0903275e-06  1.2715428e+08
    156000   4.8539805e-11  99933.744      99918.01       101608.71      3.2805777e-06  1.1902989e-06  2.0902788e-06  1.2715311e+08
    157000   4.8850958e-11  99906.287      99885.51       102086.09      3.2805736e-06  1.1908691e-06  2.0897045e-06  1.2714514e+08
    158000   4.916211e-11   99945.23       99923.445      102225.95      3.2805377e-06  1.1900187e-06  2.0905191e-06  1.2715449e+08
    159000   4.9473263e-11  99934.106      99911.081      102338.93      3.2805978e-06  1.1903115e-06  2.0902864e-06  1.2715159e+08
    160000   4.9784415e-11  99963.63       99938.463      102582.84      3.2806686e-06  1.1897647e-06  2.0909039e-06  1.2716702e+08
    161000   5.0095568e-11  99940.151      99912.803      102777.76      3.2806573e-06  1.1902445e-06  2.0904128e-06  1.2715697e+08
    162000   5.0406721e-11  99929.288      99900.585      102902.47      3.280612e-06   1.1904264e-06  2.0901856e-06  1.2715115e+08
    163000   5.0717873e-11  99941.867      99913.003      102931.22      3.2805865e-06  1.1901378e-06  2.0904487e-06  1.271546e+08 
    164000   5.1029026e-11  99923.951      99903.116      102109.56      3.2806812e-06  1.1906072e-06  2.090074e-06   1.2715381e+08
    165000   5.1340178e-11  99940.945      99917.297      102408.15      3.2806881e-06  1.1902587e-06  2.0904294e-06  1.271596e+08 
    166000   5.1651331e-11  99926.26       99893.873      103268.22      3.2806875e-06  1.1905652e-06  2.0901223e-06  1.271552e+08 
    167000   5.1962484e-11  99936.889      99901.689      103560.42      3.280717e-06   1.1903725e-06  2.0903446e-06  1.2716082e+08
    168000   5.2273636e-11  99930.701      99897.602      103343.92      3.2806872e-06  1.1904721e-06  2.0902151e-06  1.2715612e+08
    169000   5.2584789e-11  99947.357      99911.585      103628.18      3.2806508e-06  1.1900872e-06  2.0905635e-06  1.2716235e+08
    170000   5.2895941e-11  99940.786      99907.11       103411.8       3.2806076e-06  1.1901815e-06  2.0904261e-06  1.2715522e+08
    171000   5.3207094e-11  99939.121      99909.035      103050.73      3.2806694e-06  1.1902781e-06  2.0903913e-06  1.2715774e+08
    172000   5.3518247e-11  99923.791      99901.787      102226.39      3.2806815e-06  1.1906109e-06  2.0900706e-06  1.2715449e+08
    173000   5.3829399e-11  99945.074      99922.532      102301.57      3.2806981e-06  1.1901823e-06  2.0905158e-06  1.2716372e+08
    174000   5.4140552e-11  99942.6        99926.145      101689.74      3.2806034e-06  1.1901393e-06  2.090464e-06   1.2715696e+08
    175000   5.4451704e-11  99945.052      99931.883      101363.29      3.2806435e-06  1.1901282e-06  2.0905153e-06  1.2715822e+08
    176000   5.4762857e-11  99953.587      99936.963      101717.7       3.2806413e-06  1.1899475e-06  2.0906938e-06  1.271631e+08 
    177000   5.507401e-11   99935.53       99917.718      101818.53      3.2806454e-06  1.1903292e-06  2.0903161e-06  1.2715504e+08
    178000   5.5385162e-11  99927.056      99912.41       101493.17      3.2806966e-06  1.1905576e-06  2.0901389e-06  1.2715677e+08
    179000   5.5696315e-11  99947.593      99927.566      102052.32      3.280733e-06   1.1901646e-06  2.0905685e-06  1.2716147e+08
    180000   5.6007467e-11  99940.486      99925.276      101563.06      3.2807069e-06  1.1902871e-06  2.0904198e-06  1.2715641e+08
    181000   5.631862e-11   99955.96       99941.831      101470.32      3.2806855e-06  1.189942e-06   2.0907435e-06  1.2715847e+08
    182000   5.6629773e-11  99977.67       99967.846      101061.12      3.2807632e-06  1.1895656e-06  2.0911976e-06  1.2717226e+08
    183000   5.6940925e-11  99949.08       99940.346      100923.45      3.2807784e-06  1.1901788e-06  2.0905996e-06  1.271639e+08 
    184000   5.7252078e-11  99918.516      99903.647      101506.94      3.2807756e-06  1.1908153e-06  2.0899603e-06  1.2715449e+08
    185000   5.756323e-11   99926.757      99914.786      101225.02      3.2808139e-06  1.1906813e-06  2.0901326e-06  1.2715886e+08
    186000   5.7874383e-11  99936.039      99924.262      101214.94      3.2808376e-06  1.1905108e-06  2.0903268e-06  1.2716125e+08
    187000   5.8185535e-11  99951.783      99942.833      100947.72      3.2808729e-06  1.1902168e-06  2.0906561e-06  1.2716905e+08
    188000   5.8496688e-11  99950.476      99940.763      101022.78      3.2808194e-06  1.1901906e-06  2.0906288e-06  1.2716219e+08
    189000   5.8807841e-11  99960.899      99953.197      100831.91      3.2808012e-06  1.1899544e-06  2.0908468e-06  1.2716585e+08
    190000   5.9118993e-11  99954.518      99949.464      100560.48      3.2808273e-06  1.190114e-06   2.0907133e-06  1.2716555e+08
    191000   5.9430146e-11  99925.201      99915.831      100963.1       3.2808904e-06  1.1907903e-06  2.0901001e-06  1.2716052e+08
    192000   5.9741298e-11  99961.627      99949.72       101253.53      3.2808819e-06  1.1900199e-06  2.090862e-06   1.2717522e+08
    193000   6.0052451e-11  99955.52       99946.362      100972.32      3.280781e-06   1.1900467e-06  2.0907343e-06  1.2716393e+08
    194000   6.0363604e-11  99938.51       99923.921      101498.87      3.280799e-06   1.1904205e-06  2.0903785e-06  1.2715887e+08
    195000   6.0674756e-11  99937.179      99920.908      101665.86      3.2808959e-06  1.1905452e-06  2.0903506e-06  1.2716448e+08
    196000   6.0985909e-11  99944.931      99933.291      101210.05      3.2808638e-06  1.190351e-06   2.0905128e-06  1.2716753e+08
    197000   6.1297061e-11  99938.799      99928.85       101034.76      3.2808262e-06  1.1904417e-06  2.0903845e-06  1.2716072e+08
    198000   6.1608214e-11  99950.498      99940.037      101097.62      3.280792e-06   1.1901628e-06  2.0906292e-06  1.2716518e+08
    199000   6.1919367e-11  99926.415      99920.288      100639.67      3.2808705e-06  1.190745e-06   2.0901255e-06  1.2715931e+08
    200000   6.2230519e-11  99936.118      99932.61       100387.31      3.2808057e-06  1.1904772e-06  2.0903284e-06  1.2715802e+08
    201000   6.2541672e-11  99945.748      99940.936      100527.51      3.2808095e-06  1.1902796e-06  2.0905299e-06  1.2716368e+08
    202000   6.2852824e-11  99927.716      99920.762      100723.79      3.2807926e-06  1.1906399e-06  2.0901527e-06  1.2715505e+08
    203000   6.3163977e-11  99944.862      99941.333      100398.14      3.2808923e-06  1.1903809e-06  2.0905113e-06  1.2716675e+08
    204000   6.347513e-11   99920.49       99917.43       100326.85      3.2808279e-06  1.1908263e-06  2.0900016e-06  1.271571e+08 
    205000   6.3786282e-11  99929.917      99928.628      100158.97      3.2808793e-06  1.1906805e-06  2.0901987e-06  1.2716131e+08
    206000   6.4097435e-11  99949.977      99953.43       99704.325      3.2807701e-06  1.1901518e-06  2.0906183e-06  1.2716059e+08
    207000   6.4408587e-11  99946.587      99953.824      99322.205      3.2808354e-06  1.190288e-06   2.0905474e-06  1.271628e+08 
    208000   6.471974e-11   99967.891      99970.729      99783.961      3.2808538e-06  1.1898607e-06  2.090993e-06   1.2717165e+08
    209000   6.5030893e-11  99955.401      99950.578      100538.28      3.2808492e-06  1.1901174e-06  2.0907318e-06  1.2716791e+08
    210000   6.5342045e-11  99971.816      99968.631      100390.74      3.2808221e-06  1.1897469e-06  2.0910751e-06  1.2717189e+08
    211000   6.5653198e-11  99956.468      99955.716      100131.83      3.2807917e-06  1.1900376e-06  2.0907541e-06  1.2716427e+08
    212000   6.596435e-11   99968.686      99967.122      100225.24      3.280869e-06   1.1898594e-06  2.0910097e-06  1.2717295e+08
    213000   6.6275503e-11  99951.038      99948.33       100322.2       3.2807798e-06  1.1901393e-06  2.0906405e-06  1.2716189e+08
    214000   6.6586656e-11  99952.573      99955.186      99791.065      3.2808209e-06  1.1901483e-06  2.0906726e-06  1.2716425e+08
    215000   6.6897808e-11  99935.854      99941.18       99502.751      3.280843e-06   1.19052e-06    2.0903229e-06  1.2716152e+08
    216000   6.7208961e-11  99945.849      99952.797      99350.445      3.2808398e-06  1.1903078e-06  2.090532e-06   1.271633e+08 
    217000   6.7520113e-11  99966          99974.073      99258.053      3.2808728e-06  1.1899193e-06  2.0909535e-06  1.2717246e+08
    218000   6.7831266e-11  99970.932      99975.738      99589.928      3.2808381e-06  1.1897814e-06  2.0910566e-06  1.2717178e+08
    219000   6.8142419e-11  99928.99       99934.625      99464.951      3.2808368e-06  1.1906575e-06  2.0901793e-06  1.2715686e+08
    220000   6.8453571e-11  99925.38       99933.845      99178.047      3.280837e-06   1.1907332e-06  2.0901038e-06  1.2715756e+08
    221000   6.8764724e-11  99935.455      99942.746      99305.657      3.2807855e-06  1.1904709e-06  2.0903146e-06  1.2715774e+08
    222000   6.9075876e-11  99944.99       99950.905      99452.941      3.2808049e-06  1.1902909e-06  2.090514e-06   1.2716238e+08
    223000   6.9387029e-11  99949.191      99955.696      99398.068      3.2808619e-06  1.19026e-06    2.0906019e-06  1.2716645e+08
    224000   6.9698182e-11  99935.069      99939.753      99566.208      3.2808901e-06  1.1905836e-06  2.0903065e-06  1.2716302e+08
    225000   7.0009334e-11  99957.617      99957.857      100033.68      3.2808408e-06  1.1900627e-06  2.0907781e-06  1.2716549e+08
    226000   7.0320487e-11  99942.283      99945.383      99732.02       3.2807884e-06  1.190331e-06   2.0904574e-06  1.2715711e+08
    227000   7.0631639e-11  99957.089      99957.222      100043.84      3.2808073e-06  1.1900402e-06  2.0907671e-06  1.2716359e+08
    228000   7.0942792e-11  99961.929      99959.692      100286.01      3.2808207e-06  1.1899524e-06  2.0908683e-06  1.2716617e+08
    229000   7.1253945e-11  99960.438      99958.122      100292.35      3.2808108e-06  1.1899736e-06  2.0908371e-06  1.2716529e+08
    230000   7.1565097e-11  99951.086      99944.876      100672.78      3.2808977e-06  1.1902561e-06  2.0906415e-06  1.2716964e+08
    231000   7.187625e-11   99939.725      99935.051      100507.67      3.2808572e-06  1.1904532e-06  2.0904039e-06  1.2716232e+08
    232000   7.2187402e-11  99941.581      99940.515      100148.34      3.280765e-06   1.1903222e-06  2.0904427e-06  1.2715735e+08
    233000   7.2498555e-11  99953.764      99952.737      100156.66      3.2807717e-06  1.1900741e-06  2.0906976e-06  1.2715909e+08
    234000   7.2809708e-11  99973.866      99971.937      100267.08      3.2808518e-06  1.1897338e-06  2.091118e-06   1.2717336e+08
    235000   7.312086e-11   99941.245      99935.206      100645.77      3.2808261e-06  1.1903905e-06  2.0904357e-06  1.2716027e+08
    236000   7.3432013e-11  99960.826      99959.394      100204.2       3.2807753e-06  1.18993e-06    2.0908453e-06  1.2716459e+08
    237000   7.3743165e-11  99967.532      99965.876      100233.37      3.2808492e-06  1.1898636e-06  2.0909855e-06  1.271709e+08 
    238000   7.4054318e-11  99949.422      99940.82       100910.57      3.2808326e-06  1.1902258e-06  2.0906067e-06  1.2716567e+08
    239000   7.4365471e-11  99931.287      99921.683      100992.65      3.2808827e-06  1.1906552e-06  2.0902274e-06  1.2716169e+08
    240000   7.4676623e-11  99933.24       99927.021      100655.71      3.2808804e-06  1.1906121e-06  2.0902682e-06  1.2716022e+08
    241000   7.4987776e-11  99943.324      99937.302      100646.12      3.2808613e-06  1.1903821e-06  2.0904792e-06  1.2716534e+08
    242000   7.5298928e-11  99976.502      99972.67       100460.16      3.2809017e-06  1.1897285e-06  2.0911731e-06  1.2717782e+08
    243000   7.5610081e-11  99931.55       99925.948      100592.37      3.2808316e-06  1.1905987e-06  2.0902329e-06  1.2715912e+08
    244000   7.5921233e-11  99967.233      99966.515      100139.19      3.2808155e-06  1.1898362e-06  2.0909793e-06  1.2717098e+08
    245000   7.6232386e-11  99936.29       99934.489      100216.66      3.2808031e-06  1.190471e-06   2.0903321e-06  1.2715741e+08
    246000   7.6543539e-11  99959.925      99953.311      100722.01      3.2807986e-06  1.1899722e-06  2.0908264e-06  1.2716625e+08
    247000   7.6854691e-11  99936.335      99924.605      101210.56      3.2807824e-06  1.1904494e-06  2.090333e-06   1.2715843e+08
    248000   7.7165844e-11  99944.005      99929.842      101461.82      3.2808055e-06  1.1903121e-06  2.0904934e-06  1.2716067e+08
    249000   7.7476996e-11  99944.885      99928.601      101674.93      3.2807755e-06  1.1902636e-06  2.0905118e-06  1.2715941e+08
    250000   7.7788149e-11  99947.118      99931.355      101625.03      3.2807928e-06  1.1902343e-06  2.0905585e-06  1.2716077e+08
    251000   7.8099302e-11  99961.141      99938.397      102337.83      3.2807692e-06  1.1899173e-06  2.0908518e-06  1.2716481e+08
    252000   7.8410454e-11  99944.288      99923.117      102163.53      3.2808432e-06  1.1903439e-06  2.0904993e-06  1.2716392e+08
    253000   7.8721607e-11  99945.847      99924.079      102224.86      3.2808126e-06  1.1902807e-06  2.090532e-06   1.2716265e+08
    254000   7.9032759e-11  99946.204      99923.496      102319.29      3.2808062e-06  1.1902668e-06  2.0905394e-06  1.2716076e+08
    255000   7.9343912e-11  99948.729      99923.135      102610.7       3.2808041e-06  1.1902118e-06  2.0905922e-06  1.2716083e+08
    256000   7.9655065e-11  99963.319      99936.983      102699.6       3.2808127e-06  1.1899153e-06  2.0908974e-06  1.2716646e+08
    257000   7.9966217e-11  99923.893      99902.562      102159.17      3.2808906e-06  1.1908178e-06  2.0900727e-06  1.2716061e+08
    258000   8.027737e-11   99943.482      99922.229      102170.92      3.280826e-06   1.1903435e-06  2.0904825e-06  1.2716262e+08
    259000   8.0588522e-11  99936.893      99915.335      102194.84      3.2807714e-06  1.1904267e-06  2.0903447e-06  1.2715641e+08
    260000   8.0899675e-11  99970.58       99950.798      102050.82      3.2808907e-06  1.1898414e-06  2.0910493e-06  1.2717593e+08
    261000   8.1210828e-11  99923.592      99904.414      101943.25      3.2808026e-06  1.1907361e-06  2.0900664e-06  1.2715598e+08
    262000   8.152198e-11   99963.396      99944.537      101951.23      3.2807924e-06  1.1898934e-06  2.090899e-06   1.2716844e+08
    263000   8.1833133e-11  99928.778      99909.079      102000.64      3.2808239e-06  1.190649e-06   2.0901749e-06  1.2716032e+08
    264000   8.2144285e-11  99953.513      99936.099      101796.7       3.2808413e-06  1.190149e-06   2.0906923e-06  1.2716683e+08
    265000   8.2455438e-11  99943.44       99930.1        101378.8       3.2808833e-06  1.1904016e-06  2.0904816e-06  1.2716521e+08
    266000   8.2766591e-11  99943.198      99933.573      101006.7       3.2808326e-06  1.1903561e-06  2.0904765e-06  1.2716328e+08
    267000   8.3077743e-11  99948.64       99936.582      101255.7       3.2808039e-06  1.1902135e-06  2.0905904e-06  1.271616e+08 
    268000   8.3388896e-11  99947.576      99935.165      101289.99      3.2807787e-06  1.1902106e-06  2.0905681e-06  1.2715978e+08
    269000   8.3700048e-11  99933.036      99925.876      100749.79      3.2808836e-06  1.1906197e-06  2.090264e-06   1.2716351e+08
    270000   8.4011201e-11  99915.628      99906.553      100924.05      3.2808926e-06  1.1909927e-06  2.0898999e-06  1.2715977e+08
    271000   8.4322354e-11  99950.835      99947.026      100432.21      3.2809102e-06  1.1902739e-06  2.0906363e-06  1.2717128e+08
    272000   8.4633506e-11  99958.369      99957.753      100120.1       3.2808654e-06  1.1900716e-06  2.0907939e-06  1.2716965e+08
    273000   8.4944659e-11  99941.754      99944.164      99800.558      3.2808306e-06  1.1903843e-06  2.0904463e-06  1.271633e+08 
    274000   8.5255811e-11  99941.389      99944.193      99760.822      3.2808028e-06  1.1903641e-06  2.0904387e-06  1.2715978e+08
    275000   8.5566964e-11  99956.703      99958.458      99881.04       3.2808103e-06  1.1900513e-06  2.090759e-06   1.271638e+08 
    276000   8.5878117e-11  99951.615      99956.574      99555.235      3.2808164e-06  1.1901638e-06  2.0906526e-06  1.2716488e+08
    277000   8.6189269e-11  99947.073      99958.274      98925.951      3.2807881e-06  1.1902305e-06  2.0905576e-06  1.2716116e+08
    278000   8.6500422e-11  99926.287      99936.556      98998.401      3.2808177e-06  1.1906949e-06  2.0901228e-06  1.2715667e+08
    279000   8.6811574e-11  99950.673      99959.667      99150.495      3.2807553e-06  1.1901224e-06  2.0906329e-06  1.2715953e+08
    280000   8.7122727e-11  99954.586      99966.634      98848.638      3.280801e-06   1.1900863e-06  2.0907147e-06  1.2716245e+08
    281000   8.743388e-11   99944.262      99959.103      98558.792      3.2808021e-06  1.1903033e-06  2.0904988e-06  1.2716057e+08
    282000   8.7745032e-11  99962.808      99977.889      98553.323      3.2808285e-06  1.1899418e-06  2.0908867e-06  1.2716802e+08
    283000   8.8056185e-11  99951.565      99970.559      98150.274      3.2807876e-06  1.1901361e-06  2.0906515e-06  1.271619e+08 
    284000   8.8367337e-11  99938.034      99957.011      98138.496      3.2807722e-06  1.1904036e-06  2.0903685e-06  1.2715955e+08
    285000   8.867849e-11   99942.115      99960.679      98183.957      3.2807867e-06  1.1903328e-06  2.0904539e-06  1.2716225e+08
    286000   8.8989643e-11  99946.664      99965.475      98163.741      3.2807641e-06  1.1902151e-06  2.090549e-06   1.2716098e+08
    287000   8.9300795e-11  99953.299      99969.487      98432.911      3.2808151e-06  1.1901273e-06  2.0906878e-06  1.2716495e+08
    288000   8.9611948e-11  99959.9        99973.338      98714.786      3.2808162e-06  1.1899903e-06  2.0908259e-06  1.2716801e+08
    289000   8.99231e-11    99938.435      99952.856      98594.918      3.2808023e-06  1.1904254e-06  2.0903769e-06  1.2716017e+08
    290000   9.0234253e-11  99955.264      99967.211      98859.433      3.2808582e-06  1.1901293e-06  2.0907289e-06  1.2716982e+08
    291000   9.0545406e-11  99940.322      99955.005      98570.582      3.2808193e-06  1.1904029e-06  2.0904164e-06  1.2716223e+08
    292000   9.0856558e-11  99942.95       99961.759      98160.238      3.2808801e-06  1.1904087e-06  2.0904714e-06  1.2716594e+08
    293000   9.1167711e-11  99936.034      99955.104      98127.197      3.2808092e-06  1.1904825e-06  2.0903267e-06  1.2716123e+08
    294000   9.1478863e-11  99959.814      99979.619      98077.466      3.2808136e-06  1.1899895e-06  2.0908241e-06  1.2716725e+08
    295000   9.1790016e-11  99928.827      99949.219      97987.651      3.2807787e-06  1.1906027e-06  2.0901759e-06  1.2715459e+08
    296000   9.2101168e-11  99953.539      99974.734      97932.051      3.2808305e-06  1.1901377e-06  2.0906928e-06  1.2716589e+08
    297000   9.2412321e-11  99936.106      99957.667      97877.949      3.2808419e-06  1.1905137e-06  2.0903282e-06  1.2716351e+08
    298000   9.2723474e-11  99920.69       99939.256      98162.321      3.2808492e-06  1.1908435e-06  2.0900058e-06  1.2715812e+08
    299000   9.3034626e-11  99942.824      99955.4        98784.006      3.2808069e-06  1.1903382e-06  2.0904687e-06  1.2716193e+08
    300000   9.3345779e-11  99941.031      99950.555      99087.713      3.2808049e-06  1.1903736e-06  2.0904312e-06  1.2716069e+08
    301000   9.3656931e-11  99929.188      99939.883      98958.674      3.2807501e-06  1.1905666e-06  2.0901835e-06  1.2715442e+08
    302000   9.3968084e-11  99944.319      99959.182      98556.6        3.2808061e-06  1.1903061e-06  2.0905e-06     1.2716239e+08
    303000   9.4279237e-11  99940.716      99955.293      98581.63       3.2808124e-06  1.1903878e-06  2.0904246e-06  1.271623e+08 
    304000   9.4590389e-11  99938.079      99951.825      98662.188      3.2807662e-06  1.1903967e-06  2.0903695e-06  1.2715555e+08
    305000   9.4901542e-11  99969.773      99981.101      98935.856      3.2808093e-06  1.1897769e-06  2.0910324e-06  1.2717117e+08
    306000   9.5212694e-11  99952.703      99964.529      98868.938      3.2807947e-06  1.1901194e-06  2.0906754e-06  1.2716389e+08
    307000   9.5523847e-11  99939.006      99949.546      98983.915      3.2808094e-06  1.1904205e-06  2.0903888e-06  1.2716075e+08
    308000   9.5835e-11     99945.213      99958.448      98720.458      3.2807661e-06  1.1902474e-06  2.0905187e-06  1.2716024e+08
    309000   9.6146152e-11  99938.012      99944.735      99365.041      3.2807811e-06  1.190413e-06   2.0903681e-06  1.2715608e+08
    310000   9.6457305e-11  99931.446      99936.188      99556.785      3.2808451e-06  1.1906144e-06  2.0902307e-06  1.2715915e+08
    311000   9.6768457e-11  99927.255      99930.56       99696.462      3.2808824e-06  1.1907393e-06  2.0901431e-06  1.2716233e+08
    312000   9.707961e-11   99925.374      99923.924      100170.59      3.2808122e-06  1.1907084e-06  2.0901037e-06  1.2715616e+08
    313000   9.7390763e-11  99931.477      99940.228      99155.512      3.2808046e-06  1.1905732e-06  2.0902314e-06  1.2715633e+08
    314000   9.7701915e-11  99948.749      99955.219      99401.175      3.2808728e-06  1.1902802e-06  2.0905926e-06  1.2716817e+08
    315000   9.8013068e-11  99936.254      99941.882      99472.966      3.2807564e-06  1.1904251e-06  2.0903313e-06  1.2715747e+08
    316000   9.832422e-11   99942.932      99950.637      99271.677      3.2807397e-06  1.1902688e-06  2.090471e-06   1.2715669e+08
    317000   9.8635373e-11  99941.698      99947.126      99498.465      3.2807983e-06  1.1903531e-06  2.0904452e-06  1.2716097e+08
    318000   9.8946526e-11  99938.109      99947.111      99137.097      3.2808586e-06  1.1904885e-06  2.0903701e-06  1.2716246e+08
    319000   9.9257678e-11  99936.337      99946.35       99034.06       3.2808137e-06  1.1904807e-06  2.090333e-06   1.2715961e+08
    320000   9.9568831e-11  99946.392      99957.656      98918.881      3.2808007e-06  1.1902574e-06  2.0905433e-06  1.2716158e+08
    321000   9.9879983e-11  99966.206      99976.903      98995.523      3.2807657e-06  1.1898079e-06  2.0909578e-06  1.271676e+08 
    322000   1.0019114e-10  99955.246      99967.434      98835.281      3.2807943e-06  1.1900658e-06  2.0907285e-06  1.2716375e+08
    323000   1.0050229e-10  99957.014      99967.116      99045.869      3.280835e-06   1.1900695e-06  2.0907655e-06  1.2716606e+08
    324000   1.0081344e-10  99934.263      99950.097      98449.387      3.2808029e-06  1.1905132e-06  2.0902897e-06  1.2715886e+08
    325000   1.0112459e-10  99930.173      99953.324      97712.883      3.2808432e-06  1.1906391e-06  2.0902041e-06  1.2715995e+08
    326000   1.0143575e-10  99963.067      99987.374      97630.067      3.2808141e-06  1.189922e-06   2.0908921e-06  1.2716902e+08
    327000   1.017469e-10   99929.563      99950.772      97906.622      3.2808234e-06  1.190632e-06   2.0901913e-06  1.271564e+08 
    328000   1.0205805e-10  99953.468      99978.99       97498.801      3.2808264e-06  1.1901351e-06  2.0906914e-06  1.2716407e+08
    329000   1.023692e-10   99951.662      99978.857      97329.607      3.2807322e-06  1.1900786e-06  2.0906536e-06  1.2715912e+08
    330000   1.0268036e-10  99929.177      99948.136      98131.458      3.2807577e-06  1.1905744e-06  2.0901833e-06  1.2715331e+08
    331000   1.0299151e-10  99935.994      99956.984      97935.04       3.2808193e-06  1.1904935e-06  2.0903259e-06  1.27159e+08  
    332000   1.0330266e-10  99947.935      99966.256      98214.037      3.2808821e-06  1.1903065e-06  2.0905756e-06  1.2716921e+08
    333000   1.0361381e-10  99966.481      99981.526      98560.571      3.280812e-06   1.1898485e-06  2.0909636e-06  1.2716922e+08
    334000   1.0392497e-10  99946.314      99966.168      98058.967      3.2808239e-06  1.1902822e-06  2.0905417e-06  1.2716283e+08
    335000   1.0423612e-10  99954.311      99971.821      98301.641      3.2808681e-06  1.1901591e-06  2.090709e-06   1.2716921e+08
    336000   1.0454727e-10  99941.854      99958.907      98334.918      3.280928e-06   1.1904796e-06  2.0904484e-06  1.2716878e+08
    337000   1.0485842e-10  99939.295      99956.277      98339.497      3.2808547e-06  1.1904598e-06  2.0903949e-06  1.2716571e+08
    338000   1.0516958e-10  99944.099      99956.029      98849.898      3.2808461e-06  1.1903508e-06  2.0904954e-06  1.271637e+08 
    339000   1.0548073e-10  99938.805      99942.106      99708.337      3.2808849e-06  1.1905002e-06  2.0903846e-06  1.271631e+08 
    340000   1.0579188e-10  99966.76       99964.887      100254.27      3.2807887e-06  1.1898193e-06  2.0909694e-06  1.2716635e+08
    341000   1.0610304e-10  99943.883      99946.901      99741.821      3.280817e-06   1.1903262e-06  2.0904909e-06  1.2716115e+08
    342000   1.0641419e-10  99922.255      99923.792      99868.441      3.2808382e-06  1.1907997e-06  2.0900385e-06  1.2715513e+08
    343000   1.0672534e-10  99960.917      99967.897      99362.314      3.2808501e-06  1.190003e-06   2.0908472e-06  1.2716779e+08
    344000   1.0703649e-10  99963.675      99971.985      99231.896      3.2808145e-06  1.1899096e-06  2.0909049e-06  1.271676e+08 
    345000   1.0734765e-10  99967.385      99974.898      99315.463      3.2808197e-06  1.1898373e-06  2.0909825e-06  1.2716826e+08
    346000   1.076588e-10   99936.873      99949.964      98726.528      3.2808556e-06  1.1905114e-06  2.0903442e-06  1.2716153e+08
    347000   1.0796995e-10  99969.105      99981.968      98781.652      3.2807898e-06  1.1897714e-06  2.0910184e-06  1.2716866e+08
    348000   1.082811e-10   99955.117      99967.997      98765.908      3.2807665e-06  1.1900407e-06  2.0907258e-06  1.2716094e+08
    349000   1.0859226e-10  99941.137      99955.414      98612.056      3.2808151e-06  1.1903817e-06  2.0904334e-06  1.2716027e+08
    350000   1.0890341e-10  99939.776      99948.135      99203.096      3.2809076e-06  1.1905026e-06  2.090405e-06   1.2716848e+08
    351000   1.0921456e-10  99946.106      99954.578      99198.111      3.2808999e-06  1.1903625e-06  2.0905374e-06  1.2716736e+08
    352000   1.0952571e-10  99946.722      99952.813      99437.072      3.2808351e-06  1.1902849e-06  2.0905502e-06  1.2716327e+08
    353000   1.0983687e-10  99958.624      99958.794      100041.66      3.2807876e-06  1.1899884e-06  2.0907992e-06  1.2716452e+08
    354000   1.1014802e-10  99951.321      99956.964      99486.505      3.2807877e-06  1.1901413e-06  2.0906464e-06  1.2716104e+08
    355000   1.1045917e-10  99964.347      99976.549      98842.952      3.2808586e-06  1.1899397e-06  2.0909189e-06  1.2717067e+08
    356000   1.1077032e-10  99939.991      99955.548      98482.788      3.2808177e-06  1.1904082e-06  2.0904095e-06  1.2716018e+08
    357000   1.1108148e-10  99933.952      99949.9        98437.62       3.2808272e-06  1.190544e-06   2.0902831e-06  1.2715882e+08
    358000   1.1139263e-10  99922.947      99929.709      99346.123      3.2808339e-06  1.1907809e-06  2.090053e-06   1.2715714e+08
    359000   1.1170378e-10  99940.804      99946.651      99455.57       3.2808527e-06  1.1904263e-06  2.0904265e-06  1.2716481e+08
    360000   1.1201493e-10  99955.263      99968.182      98762.151      3.280809e-06   1.1900801e-06  2.0907289e-06  1.2716469e+08
    361000   1.1232609e-10  99961.844      99969.147      99330.909      3.2807608e-06  1.1898943e-06  2.0908666e-06  1.2716369e+08
    362000   1.1263724e-10  99934.747      99944.416      99066.862      3.2807732e-06  1.1904734e-06  2.0902998e-06  1.2715381e+08
    363000   1.1294839e-10  99950.827      99957.478      99385.197      3.2808064e-06  1.1901703e-06  2.0906361e-06  1.2716165e+08
    364000   1.1325955e-10  99965.71       99970.962      99540.065      3.2807763e-06  1.1898289e-06  2.0909474e-06  1.2716551e+08
    365000   1.135707e-10   99958.347      99959.079      99985.167      3.2808474e-06  1.190054e-06   2.0907934e-06  1.2716704e+08
    366000   1.1388185e-10  99940.506      99945.063      99584.338      3.2808307e-06  1.1904105e-06  2.0904202e-06  1.2716195e+08
    367000   1.14193e-10    99954.321      99952.615      100225.16      3.2808395e-06  1.1901303e-06  2.0907092e-06  1.2716677e+08
    368000   1.1450416e-10  99943.53       99940.703      100326.59      3.2808031e-06  1.1903197e-06  2.0904835e-06  1.271599e+08 
    369000   1.1481531e-10  99941.617      99942.529      99950.388      3.2808206e-06  1.1903772e-06  2.0904435e-06  1.2716163e+08
    370000   1.1512646e-10  99951.724      99954.894      99734.415      3.2808342e-06  1.1901793e-06  2.0906549e-06  1.2716418e+08
    371000   1.1543761e-10  99965.397      99968.792      99725.59       3.2807986e-06  1.1898577e-06  2.0909409e-06  1.2716766e+08
    372000   1.1574877e-10  99949.996      99955.664      99482.687      3.2809118e-06  1.1902931e-06  2.0906187e-06  1.271694e+08 
    373000   1.1605992e-10  99954.55       99962.166      99292.283      3.2807835e-06  1.1900695e-06  2.090714e-06   1.2716311e+08
    374000   1.1637107e-10  99953.835      99960.279      99408.852      3.2808763e-06  1.1901773e-06  2.090699e-06   1.2716922e+08
    375000   1.1668222e-10  99917.993      99919.606      99856.635      3.2808542e-06  1.1909049e-06  2.0899493e-06  1.2715408e+08
    376000   1.1699338e-10  99956.594      99956.805      100035.58      3.2808395e-06  1.1900827e-06  2.0907567e-06  1.2716687e+08
    377000   1.1730453e-10  99942.249      99946.662      99600.514      3.2807835e-06  1.1903269e-06  2.0904567e-06  1.2715826e+08
    378000   1.1761568e-10  99961.931      99963.86       99868.975      3.2807577e-06  1.1898893e-06  2.0908684e-06  1.2716265e+08
    379000   1.1792683e-10  99941.969      99942.673      99971.564      3.2807344e-06  1.1902836e-06  2.0904508e-06  1.2715308e+08
    380000   1.1823799e-10  99940.175      99946.856      99371.496      3.2808338e-06  1.1904205e-06  2.0904133e-06  1.2716109e+08
    381000   1.1854914e-10  99930.569      99936.402      99446.743      3.2808481e-06  1.1906357e-06  2.0902124e-06  1.2715934e+08
    382000   1.1886029e-10  99968.456      99976.273      99286.044      3.2809093e-06  1.1899044e-06  2.0910048e-06  1.2717549e+08
    383000   1.1917144e-10  99941.069      99949.812      99166.02       3.2808729e-06  1.1904409e-06  2.090432e-06   1.2716302e+08
    384000   1.194826e-10   99956.795      99969.586      98776.484      3.2808778e-06  1.1901169e-06  2.0907609e-06  1.2716901e+08
    385000   1.1979375e-10  99942.358      99962.137      98062.532      3.280858e-06   1.190399e-06   2.090459e-06   1.2716157e+08
    386000   1.201049e-10   99932.759      99949.391      98367.953      3.28085e-06    1.1905918e-06  2.0902582e-06  1.2715827e+08
    387000   1.2041605e-10  99981.232      100000.53      98149.132      3.2808341e-06  1.189562e-06   2.0912721e-06  1.2717384e+08
    388000   1.2072721e-10  99964.825      99987.163      97828.941      3.2807831e-06  1.1898542e-06  2.0909289e-06  1.2716286e+08
    389000   1.2103836e-10  99955.334      99969.502      98637.175      3.280813e-06   1.1900826e-06  2.0907304e-06  1.2716324e+08
    390000   1.2134951e-10  99953.414      99967.026      98690.959      3.2808857e-06  1.1901955e-06  2.0906902e-06  1.2716905e+08
    391000   1.2166067e-10  99916.722      99932.038      98483.647      3.2809174e-06  1.1909947e-06  2.0899228e-06  1.271591e+08 
    392000   1.2197182e-10  99948.182      99966.475      98217.097      3.2808556e-06  1.1902748e-06  2.0905808e-06  1.2716712e+08
    393000   1.2228297e-10  99957.807      99977.878      98048.827      3.2808753e-06  1.1900932e-06  2.0907821e-06  1.2716861e+08
    394000   1.2259412e-10  99949.593      99969.005      98106.558      3.2808346e-06  1.1902243e-06  2.0906103e-06  1.2716339e+08
    395000   1.2290528e-10  99945.855      99965.758      98053.631      3.280831e-06   1.1902989e-06  2.0905321e-06  1.2716469e+08
    396000   1.2321643e-10  99929.896      99945.343      98483.641      3.2808285e-06  1.1906302e-06  2.0901983e-06  1.2715751e+08
    397000   1.2352758e-10  99940.785      99953.724      98745.716      3.2808246e-06  1.1903985e-06  2.0904261e-06  1.2716151e+08
    398000   1.2383873e-10  99935.164      99947.119      98838.429      3.2808095e-06  1.190501e-06   2.0903085e-06  1.2715988e+08
    399000   1.2414989e-10  99939.684      99956.973      98309.179      3.280846e-06   1.1904429e-06  2.090403e-06   1.2716337e+08
    400000   1.2446104e-10  99947.49       99962.249      98570.169      3.2808445e-06  1.1902782e-06  2.0905663e-06  1.2716425e+08
    401000   1.2477219e-10  99965.532      99983.27       98289.987      3.2808604e-06  1.1899167e-06  2.0909437e-06  1.2717256e+08
