Job ID:        404036
Host:          daisg111
Start time:    Wed Aug  5 03:51:39 PM CEST 2026
Working dir:   /dais/fs/scratch/kshao/wd/White-Dwarf-Codes/unforced/dais
MPI tasks:     1
CPUs/task:     12
Visible GPU:   0
LAMMPS:        /u/kshao/software/lammps-gpu-cuda12-install/bin/lmp
Input:         unforcedvel_v5.4e+05_c2.in
Currently Loaded Modulefiles:
 1) gcc/14   2) cuda/12.8   3) openmpi/5.0  
name, uuid, driver_version, memory.total [MiB]
NVIDIA H200, GPU-9487e9c0-6ed3-9353-f036-4179e09a9eb6, 580.173.02, 143771 MiB
LAMMPS (22 Jul 2025 - Update 4)
  using 1 OpenMP thread(s) per MPI task
Created orthogonal box = (0 0 0) to (2.5958006e-05 2.5958006e-05 2.5958006e-05)
  1 by 1 by 1 MPI processor grid
Created 100000 atoms
  using lattice units in orthogonal box = (0 0 0) to (2.5958006e-05 2.5958006e-05 2.5958006e-05)
  create_atoms CPU = 111.647 seconds
Created 1000 atoms
  using lattice units in orthogonal box = (0 0 0) to (2.5958006e-05 2.5958006e-05 2.5958006e-05)
  create_atoms CPU = 2.215 seconds
1000 atoms in group Si
100000 atoms in group H

CITE-CITE-CITE-CITE-CITE-CITE-CITE-CITE-CITE-CITE-CITE-CITE-CITE

Your simulation uses code contributions which should be cited:
- GPU package (short-range, long-range and three-body potentials): doi:10.1016/j.cpc.2010.12.021, doi:10.1016/j.cpc.2011.10.012, doi:10.1016/j.cpc.2013.08.002, doi:10.1016/j.commatsci.2014.10.068, doi:10.1016/j.cpc.2016.10.020, doi:10.3233/APC200086
The log file lists these citations in BibTeX format.

CITE-CITE-CITE-CITE-CITE-CITE-CITE-CITE-CITE-CITE-CITE-CITE-CITE


--------------------------------------------------------------------------
- Using acceleration for yukawa:
-  with 1 proc(s) per device.
-  with 1 thread(s) per proc.
-  Horizontal vector operations: ENABLED
-  Shared memory system: No
--------------------------------------------------------------------------
Device 0: NVIDIA H200, 132 CUs, 1.4e+02/1.4e+02 GB, 2 GHZ (Mixed Precision)
--------------------------------------------------------------------------

Initializing Device and compiling on process 0...Done.
Initializing Device 0 on core 0...Done.

Generated 0 of 1 mixed pair_coeff terms from geometric mixing rule
Neighbor list info ...
  update: every = 1 steps, delay = 0 steps, check = yes
  max neighbors/atom: 10000, page size: 100000
  master list distance cutoff = 6.4137883e-06
  ghost atom cutoff = 6.4137883e-06
  binsize = 3.2068942e-06, bins = 9 9 9
  1 neighbor lists, perpetual/occasional/extra = 1 0 0
  (1) pair yukawa/gpu, perpetual
      attributes: full, newton on
      pair build: full/bin/atomonly
      stencil: full/bin/3d
      bin: standard
Setting up Verlet run ...
  Unit style    : cgs
  Current step  : 0
  Time step     : 2.90835190494059e-16
Per MPI rank memory allocation (min/avg/max) = 2678 | 2678 | 2678 Mbytes
   Step          Time           Temp         c_tempH        c_tempSi        TotEng         PotEng         KinEng         Press           v_k0           v_dt        v_collfreq       v_ccs     
         0   0              100000         99997.834      100316.89      3.2893843e-06  1.1977196e-06  2.0916646e-06  1.2739277e+08  623656.38      2.9083519e-16  1.7688211e+11  4.58653e-15  
      1000   2.9083519e-13  100077         100071.68      100710.44      3.2847091e-06  1.1914338e-06  2.0932753e-06  1.2730249e+08  623656.38      2.9083519e-16  1.7688211e+11  4.58653e-15  
      2000   5.8167038e-13  99936.511      99930.583      100629.9       3.280673e-06   1.1903363e-06  2.0903367e-06  1.2715752e+08  623656.38      2.9083519e-16  1.7688211e+11  4.58653e-15  
Loop time of 60.1608 on 1 procs for 2000 steps with 101000 atoms

99.4% CPU use with 1 MPI tasks x 1 OpenMP threads

MPI task timing breakdown:
Section |  min time  |  avg time  |  max time  |%varavg| %total
---------------------------------------------------------------
Pair    | 8.624      | 8.624      | 8.624      |   0.0 | 14.33
Neigh   | 47.039     | 47.039     | 47.039     |   0.0 | 78.19
Comm    | 1.7948     | 1.7948     | 1.7948     |   0.0 |  2.98
Output  | 0.017089   | 0.017089   | 0.017089   |   0.0 |  0.03
Modify  | 1.8383     | 1.8383     | 1.8383     |   0.0 |  3.06
Other   |            | 0.8474     |            |       |  1.41

Nlocal:         101000 ave      101000 max      101000 min
Histogram: 1 0 0 0 0 0 0 0 0 0
Nghost:         235888 ave      235888 max      235888 min
Histogram: 1 0 0 0 0 0 0 0 0 0
Neighs:              0 ave           0 max           0 min
Histogram: 1 0 0 0 0 0 0 0 0 0
FullNghs:   6.4454e+08 ave  6.4454e+08 max  6.4454e+08 min
Histogram: 1 0 0 0 0 0 0 0 0 0

Total # of neighbors = 6.4453977e+08
Ave neighs/atom = 6381.5819
Neighbor list builds = 5
Dangerous builds = 0


---------------------------------------------------------------------
      Device Time Info (average): 
---------------------------------------------------------------------
Data Transfer:   0.3247 s.
Neighbor copy:   2.6854 s.
Neighbor unpack: 0.0000 s.
Force calc:      5.7513 s.
Device Overhead: 0.0704 s.
CPU Cast/Pack:   1.1033 s.
CPU Driver_Time: 0.0260 s.
CPU Idle_Time:   5.1831 s.
Average split:   1.0000.
Max Mem / Proc:  3097.52 MB.
Prefetch mode:   None.
Vector width:    32.
Lanes / atom:    4.
Pair block:      256.
Neigh block:     128.
Neigh mode:      Host.
---------------------------------------------------------------------


--------------------------------------------------------------------------
- Using acceleration for yukawa:
-  with 1 proc(s) per device.
-  with 1 thread(s) per proc.
-  Horizontal vector operations: ENABLED
-  Shared memory system: No
--------------------------------------------------------------------------
Device 0: NVIDIA H200, 132 CUs, 1.4e+02/1.4e+02 GB, 2 GHZ (Mixed Precision)
--------------------------------------------------------------------------

Initializing Device and compiling on process 0...Done.
Initializing Device 0 on core 0...Done.

Generated 0 of 1 mixed pair_coeff terms from geometric mixing rule
Setting up Verlet run ...
  Unit style    : cgs
  Current step  : 2000
  Time step     : 2.90835190494059e-16
Per MPI rank memory allocation (min/avg/max) = 2686 | 2686 | 2686 Mbytes
   Step          Time           Temp         c_tempH        c_tempSi        TotEng         PotEng         KinEng         Press     
      2000   5.8167038e-13  100292.02      99930.583      136571.52      3.2881089e-06  1.1903363e-06  2.0977726e-06  1.2744094e+08
      3000   8.7250557e-13  100288.15      99926.855      136553.74      3.2880537e-06  1.1903619e-06  2.0976918e-06  1.2743548e+08
      4000   1.1633408e-12  100292.59      99934.671      136220.15      3.2880828e-06  1.1902982e-06  2.0977846e-06  1.2743987e+08
      5000   1.454176e-12   100295.69      99945.033      135496.76      3.2880188e-06  1.1901692e-06  2.0978495e-06  1.2743624e+08
      6000   1.7450111e-12  100271.26      99923.951      135136.5       3.288143e-06   1.1908046e-06  2.0973384e-06  1.2743598e+08
      7000   2.0358463e-12  100287.2       99946.297      134511.35      3.2880912e-06  1.1904193e-06  2.0976718e-06  1.2743977e+08
      8000   2.3266815e-12  100291.91      99950.768      134539.93      3.2881591e-06  1.1903888e-06  2.0977704e-06  1.2744553e+08
      9000   2.6175167e-12  100321.72      99982.978      134330.06      3.2881336e-06  1.1897396e-06  2.098394e-06   1.2745149e+08
     10000   2.9083519e-12  100312.71      99977.697      133947.2       3.2880485e-06  1.1898431e-06  2.0982054e-06  1.2744371e+08
     11000   3.1991871e-12  100292.5       99958.488      133827.43      3.2880787e-06  1.1902958e-06  2.0977828e-06  1.2743866e+08
     12000   3.4900223e-12  100277.13      99956.961      132426.03      3.2881016e-06  1.1906403e-06  2.0974612e-06  1.2743643e+08
     13000   3.7808575e-12  100304.34      99988.344      132035.98      3.2880578e-06  1.1900273e-06  2.0980305e-06  1.2744232e+08
     14000   4.0716927e-12  100294         99976.539      132172.29      3.2881106e-06  1.1902964e-06  2.0978142e-06  1.2744026e+08
     15000   4.3625279e-12  100314.9       100001.69      131766.35      3.2880819e-06  1.1898307e-06  2.0982512e-06  1.2744584e+08
     16000   4.653363e-12   100300.7       99988.106      131691.61      3.2880716e-06  1.1901173e-06  2.0979543e-06  1.2744115e+08
     17000   4.9441982e-12  100299.56      99985.712      131816.32      3.2881265e-06  1.190196e-06   2.0979305e-06  1.2744537e+08
     18000   5.2350334e-12  100263.5       99956.364      131107.71      3.2881341e-06  1.190958e-06   2.0971761e-06  1.2743438e+08
     19000   5.5258686e-12  100280.41      99975.597      130892.46      3.2881218e-06  1.1905919e-06  2.0975299e-06  1.2744018e+08
     20000   5.8167038e-12  100289.53      99993.034      130068.52      3.2880847e-06  1.1903641e-06  2.0977206e-06  1.2743904e+08
     21000   6.107539e-12   100282.58      99987.613      129908.45      3.2880801e-06  1.1905049e-06  2.0975752e-06  1.2743512e+08
     22000   6.3983742e-12  100300.62      100003.84      130108.79      3.2880531e-06  1.1901004e-06  2.0979527e-06  1.2744022e+08
     23000   6.6892094e-12  100322.06      100032.29      129428.6       3.2881128e-06  1.1897116e-06  2.0984011e-06  1.2745127e+08
     24000   6.9800446e-12  100302.52      100017.28      128955.8       3.2880856e-06  1.1900932e-06  2.0979924e-06  1.2744143e+08
     25000   7.2708798e-12  100303.56      100024.78      128309.14      3.2880433e-06  1.1900292e-06  2.0980141e-06  1.2743942e+08
     26000   7.561715e-12   100300.63      100029.32      127558.82      3.2880826e-06  1.1901297e-06  2.0979529e-06  1.274414e+08 
     27000   7.8525501e-12  100297.3       100041.17      126036.26      3.2880389e-06  1.1901556e-06  2.0978832e-06  1.2743721e+08
     28000   8.1433853e-12  100298.48      100052.35      125035.74      3.2880612e-06  1.1901534e-06  2.0979078e-06  1.2743896e+08
     29000   8.4342205e-12  100300.38      100060.72      124390.48      3.2880834e-06  1.1901359e-06  2.0979476e-06  1.2744089e+08
     30000   8.7250557e-12  100309.35      100075.76      123791.4       3.2881034e-06  1.1899683e-06  2.0981351e-06  1.2744433e+08
     31000   9.0158909e-12  100304.05      100069.77      123856.02      3.2881298e-06  1.1901054e-06  2.0980244e-06  1.2744655e+08
     32000   9.3067261e-12  100315.54      100085.94      123398.93      3.2880987e-06  1.1898339e-06  2.0982647e-06  1.2744636e+08
     33000   9.5975613e-12  100297.24      100071.61      122982.71      3.2881069e-06  1.190225e-06   2.0978819e-06  1.2744081e+08
     34000   9.8883965e-12  100285.13      100064.45      122475.98      3.2880882e-06  1.1904595e-06  2.0976287e-06  1.2743629e+08
     35000   1.0179232e-11  100309.63      100091.71      122223.81      3.2880542e-06  1.1899131e-06  2.0981411e-06  1.2744373e+08
     36000   1.0470067e-11  100290.73      100069.58      122528.72      3.2880774e-06  1.1903316e-06  2.0977458e-06  1.2743717e+08
     37000   1.0760902e-11  100300.11      100078.33      122600.55      3.2881634e-06  1.1902214e-06  2.097942e-06   1.2744703e+08
     38000   1.1051737e-11  100281.54      100065.19      122038.96      3.28815e-06    1.1905964e-06  2.0975536e-06  1.2744045e+08
     39000   1.1342572e-11  100283.83      100074.48      121340.46      3.28812e-06    1.1905185e-06  2.0976015e-06  1.2743826e+08
     40000   1.1633408e-11  100275.29      100068.37      121088.25      3.2881361e-06  1.1907132e-06  2.0974228e-06  1.2743656e+08
     41000   1.1924243e-11  100290.23      100089.06      120527.99      3.2881923e-06  1.190457e-06   2.0977354e-06  1.2744531e+08
     42000   1.2215078e-11  100280.81      100082.46      120235.95      3.2881599e-06  1.1906216e-06  2.0975383e-06  1.2744143e+08
     43000   1.2505913e-11  100288.51      100091.71      120088.84      3.2881605e-06  1.1904612e-06  2.0976993e-06  1.2744288e+08
     44000   1.2796748e-11  100305.93      100107.01      120318.59      3.2881221e-06  1.1900583e-06  2.0980637e-06  1.2744688e+08
     45000   1.3087584e-11  100305.2       100114.64      119480.8       3.288152e-06   1.1901035e-06  2.0980485e-06  1.274486e+08 
     46000   1.3378419e-11  100309.82      100120.73      119338.02      3.2881677e-06  1.1900227e-06  2.0981451e-06  1.2744934e+08
     47000   1.3669254e-11  100277.97      100076.43      120552.3       3.288122e-06   1.1906432e-06  2.0974787e-06  1.274364e+08 
     48000   1.3960089e-11  100285.41      100087.77      120170.21      3.2881349e-06  1.1905004e-06  2.0976346e-06  1.2743992e+08
     49000   1.4250924e-11  100306.78      100111.03      120002.28      3.2881221e-06  1.1900406e-06  2.0980815e-06  1.2744621e+08
     50000   1.454176e-11   100319.75      100128.21      119593.9       3.2881419e-06  1.1897891e-06  2.0983528e-06  1.2745104e+08
     51000   1.4832595e-11  100258.92      100069.88      119281.77      3.2882168e-06  1.1911365e-06  2.0970803e-06  1.2743736e+08
     52000   1.512343e-11   100269.54      100077.5       119593.15      3.2881178e-06  1.1908153e-06  2.0973025e-06  1.2743381e+08
     53000   1.5414265e-11  100297.16      100106.3       119502.17      3.2881017e-06  1.1902214e-06  2.0978803e-06  1.2744041e+08
     54000   1.57051e-11    100285.47      100093.41      119610.76      3.288074e-06   1.1904383e-06  2.0976357e-06  1.2743587e+08
     55000   1.5995935e-11  100308.56      100120.18      119265.46      3.2881399e-06  1.1900212e-06  2.0981187e-06  1.2744574e+08
     56000   1.6286771e-11  100282.79      100095.28      119152.68      3.2881121e-06  1.1905324e-06  2.0975797e-06  1.2743712e+08
     57000   1.6577606e-11  100297.5       100118.48      118316.97      3.2881647e-06  1.1902774e-06  2.0978873e-06  1.2744516e+08
     58000   1.6868441e-11  100299.12      100119.33      118396.83      3.2881486e-06  1.1902274e-06  2.0979213e-06  1.2744236e+08
     59000   1.7159276e-11  100308.86      100131.5       118162.8       3.2881262e-06  1.1900012e-06  2.098125e-06   1.2744599e+08
     60000   1.7450111e-11  100302.89      100121.1       118600         3.2881371e-06  1.1901371e-06  2.0980001e-06  1.2744541e+08
     61000   1.7740947e-11  100292.25      100108.78      118757.61      3.288133e-06   1.1903554e-06  2.0977776e-06  1.2744051e+08
     62000   1.8031782e-11  100297.98      100112.44      118970.3       3.2881368e-06  1.1902394e-06  2.0978974e-06  1.2744268e+08
     63000   1.8322617e-11  100283.84      100096.15      119171.37      3.2881964e-06  1.1905949e-06  2.0976016e-06  1.2744238e+08
     64000   1.8613452e-11  100288.73      100101.46      119134.27      3.2881442e-06  1.1904403e-06  2.0977039e-06  1.274421e+08 
     65000   1.8904287e-11  100284.12      100100.64      118750.3       3.2881664e-06  1.1905589e-06  2.0976075e-06  1.2744041e+08
     66000   1.9195123e-11  100300.95      100121.02      118412.55      3.2881498e-06  1.1901903e-06  2.0979596e-06  1.2744617e+08
     67000   1.9485958e-11  100316.06      100141.55      117884.88      3.288166e-06   1.1898905e-06  2.0982755e-06  1.2745064e+08
     68000   1.9776793e-11  100294.82      100126.9       117203.73      3.288157e-06   1.1903257e-06  2.0978313e-06  1.2744281e+08
     69000   2.0067628e-11  100307.65      100139.14      117275.71      3.2880871e-06  1.1899874e-06  2.0980997e-06  1.2744295e+08
     70000   2.0358463e-11  100288.54      100118.33      117427.21      3.2881228e-06  1.1904228e-06  2.0977e-06     1.274397e+08 
     71000   2.0649299e-11  100276.38      100110.03      117028.18      3.2881395e-06  1.1906939e-06  2.0974456e-06  1.2743766e+08
     72000   2.0940134e-11  100284.86      100128.34      116052.71      3.2881982e-06  1.1905753e-06  2.0976229e-06  1.2744409e+08
     73000   2.1230969e-11  100289.58      100130.47      116316.88      3.2881933e-06  1.1904715e-06  2.0977217e-06  1.2744422e+08
     74000   2.1521804e-11  100298.03      100141.46      116071.47      3.2882078e-06  1.1903093e-06  2.0978985e-06  1.2744818e+08
     75000   2.1812639e-11  100277.31      100120.3       116093.94      3.2881535e-06  1.1906885e-06  2.097465e-06   1.2743585e+08
     76000   2.2103474e-11  100270.8       100112.71      116195.85      3.2881309e-06  1.1908021e-06  2.0973288e-06  1.2743491e+08
     77000   2.239431e-11   100301.81      100148.02      115796.37      3.2881555e-06  1.190178e-06   2.0979775e-06  1.2744583e+08
     78000   2.2685145e-11  100282.82      100130.58      115622.02      3.2881065e-06  1.1905262e-06  2.0975802e-06  1.2743486e+08
     79000   2.297598e-11   100304.96      100150.68      115848.69      3.2881274e-06  1.190084e-06   2.0980434e-06  1.274445e+08 
     80000   2.3266815e-11  100293.61      100143.35      115434.69      3.2881067e-06  1.1903007e-06  2.097806e-06   1.2743733e+08
     81000   2.355765e-11   100316.44      100170.66      115009.29      3.2880621e-06  1.1897785e-06  2.0982836e-06  1.2744279e+08
     82000   2.3848486e-11  100297.33      100153.42      114803         3.2881299e-06  1.1902461e-06  2.0978838e-06  1.2744241e+08
     83000   2.4139321e-11  100290.48      100142.48      115205.51      3.2881105e-06  1.1903701e-06  2.0977404e-06  1.2743926e+08
     84000   2.4430156e-11  100300.36      100150.46      115406.35      3.2881181e-06  1.1901709e-06  2.0979472e-06  1.2744245e+08
     85000   2.4720991e-11  100298.4       100147.95      115459.38      3.2881795e-06  1.1902733e-06  2.0979062e-06  1.2744765e+08
     86000   2.5011826e-11  100284.94      100137.71      115123.14      3.2881838e-06  1.1905592e-06  2.0976246e-06  1.2744244e+08
     87000   2.5302662e-11  100286.81      100140.58      115024.69      3.288162e-06   1.1904983e-06  2.0976637e-06  1.2744106e+08
     88000   2.5593497e-11  100293.91      100154.59      114340.27      3.2880835e-06  1.1902712e-06  2.0978123e-06  1.2743654e+08
     89000   2.5884332e-11  100311.55      100171.87      114394.08      3.288069e-06   1.1898878e-06  2.0981812e-06  1.2744204e+08
     90000   2.6175167e-11  100306.92      100172.78      113833.88      3.2881357e-06  1.1900514e-06  2.0980843e-06  1.2744374e+08
     91000   2.6466002e-11  100297.73      100160.74      114109.96      3.2880494e-06  1.1901573e-06  2.0978921e-06  1.2743616e+08
     92000   2.6756838e-11  100310.03      100172.22      114205.66      3.2880902e-06  1.1899407e-06  2.0981495e-06  1.2744229e+08
     93000   2.7047673e-11  100292.33      100158.13      113825.89      3.2881443e-06  1.1903651e-06  2.0977791e-06  1.2744111e+08
     94000   2.7338508e-11  100314.07      100183.21      113513.5       3.2881582e-06  1.1899242e-06  2.098234e-06   1.2745055e+08
     95000   2.7629343e-11  100283.59      100152.12      113543.61      3.288182e-06   1.1905856e-06  2.0975964e-06  1.2744131e+08
     96000   2.7920178e-11  100291.29      100161.46      113387.73      3.288198e-06   1.1904405e-06  2.0977574e-06  1.2744536e+08
     97000   2.8211013e-11  100299.49      100168.09      113553.16      3.2881103e-06  1.1901812e-06  2.0979291e-06  1.2744112e+08
     98000   2.8501849e-11  100289.6       100161.54      113209.34      3.2881987e-06  1.1904765e-06  2.0977222e-06  1.2744359e+08
     99000   2.8792684e-11  100296.75      100176.27      112456.23      3.2881832e-06  1.1903116e-06  2.0978716e-06  1.2744388e+08
    100000   2.9083519e-11  100284.05      100166.03      112197.31      3.2881582e-06  1.1905523e-06  2.0976059e-06  1.2743906e+08
    101000   2.9374354e-11  100284.72      100168.12      112056.64      3.2881621e-06  1.1905422e-06  2.0976199e-06  1.2743999e+08
    102000   2.9665189e-11  100292.11      100180         111614.76      3.2881517e-06  1.1903771e-06  2.0977747e-06  1.2744054e+08
    103000   2.9956025e-11  100300.77      100189.79      111510.28      3.2881135e-06  1.1901577e-06  2.0979557e-06  1.274418e+08 
    104000   3.024686e-11   100307.97      100196         111617.21      3.288166e-06   1.1900596e-06  2.0981064e-06  1.2744769e+08
    105000   3.0537695e-11  100299.27      100193.4       110996.56      3.2881627e-06  1.1902383e-06  2.0979243e-06  1.2744522e+08
    106000   3.082853e-11   100311.19      100202.52      111288.84      3.2881635e-06  1.1899899e-06  2.0981736e-06  1.2744984e+08
    107000   3.1119365e-11  100299.19      100192.16      111113.24      3.2881678e-06  1.190245e-06   2.0979228e-06  1.274441e+08 
    108000   3.1410201e-11  100298.87      100184.18      111879.92      3.2881608e-06  1.1902448e-06  2.097916e-06   1.2744397e+08
    109000   3.1701036e-11  100321.85      100214.59      111159.17      3.2881606e-06  1.189764e-06   2.0983966e-06  1.2745365e+08
    110000   3.1991871e-11  100299.76      100195.93      110792.94      3.2881543e-06  1.1902197e-06  2.0979346e-06  1.2744328e+08
    111000   3.2282706e-11  100302.55      100200.94      110574.01      3.2881053e-06  1.1901123e-06  2.0979929e-06  1.2744094e+08
    112000   3.2573541e-11  100315.76      100207.27      111276.44      3.2881635e-06  1.1898941e-06  2.0982693e-06  1.2745196e+08
    113000   3.2864377e-11  100305.38      100202.29      110725.49      3.2881725e-06  1.1901202e-06  2.0980523e-06  1.2744834e+08
    114000   3.3155212e-11  100319.1       100220.3       110309.37      3.2881711e-06  1.1898319e-06  2.0983392e-06  1.2745159e+08
    115000   3.3446047e-11  100277.88      100183.11      109865.11      3.2881942e-06  1.1907172e-06  2.097477e-06   1.2744007e+08
    116000   3.3736882e-11  100278.42      100188.78      109351.06      3.2881966e-06  1.1907083e-06  2.0974882e-06  1.2744072e+08
    117000   3.4027717e-11  100327.95      100232.7       109963.53      3.288103e-06   1.1895786e-06  2.0985244e-06  1.2744776e+08
    118000   3.4318552e-11  100297.47      100195.64      110590.13      3.2881465e-06  1.1902599e-06  2.0978866e-06  1.274425e+08 
    119000   3.4609388e-11  100302.26      100202.09      110430.28      3.288182e-06   1.190195e-06   2.097987e-06   1.2744672e+08
    120000   3.4900223e-11  100298.73      100199.27      110355.39      3.2881666e-06  1.1902535e-06  2.0979131e-06  1.274441e+08 
    121000   3.5191058e-11  100304.88      100200.98      110805.74      3.2881881e-06  1.1901464e-06  2.0980418e-06  1.274467e+08 
    122000   3.5481893e-11  100308.94      100210.52      110261.07      3.2881882e-06  1.1900615e-06  2.0981266e-06  1.2744846e+08
    123000   3.5772728e-11  100306.89      100214.34      109671.97      3.2881807e-06  1.1900968e-06  2.0980838e-06  1.274462e+08 
    124000   3.6063564e-11  100284.51      100191.49      109695.47      3.2882945e-06  1.1906789e-06  2.0976156e-06  1.2745088e+08
    125000   3.6354399e-11  100265.46      100169.78      109943.36      3.2882424e-06  1.1910252e-06  2.0972172e-06  1.2744071e+08
    126000   3.6645234e-11  100305.19      100208.66      110067.98      3.2882626e-06  1.1902145e-06  2.0980482e-06  1.2745232e+08
    127000   3.6936069e-11  100295.23      100202.22      109705.45      3.2881936e-06  1.1903537e-06  2.0978398e-06  1.274465e+08 
    128000   3.7226904e-11  100298.49      100203.96      109861.85      3.288126e-06   1.1902178e-06  2.0979081e-06  1.2744245e+08
    129000   3.751774e-11   100298.44      100207.25      109526.56      3.2881013e-06  1.1901942e-06  2.097907e-06   1.274394e+08 
    130000   3.7808575e-11  100314.15      100231.67      108670.32      3.2881455e-06  1.1899099e-06  2.0982355e-06  1.2744949e+08
    131000   3.809941e-11   100291.43      100208.29      108714.24      3.2881741e-06  1.1904137e-06  2.0977605e-06  1.2744253e+08
    132000   3.8390245e-11  100303.83      100217.35      109061.08      3.2881617e-06  1.190142e-06   2.0980197e-06  1.2744472e+08
    133000   3.868108e-11   100288.17      100203.61      108852.89      3.2881237e-06  1.1904316e-06  2.0976921e-06  1.274384e+08 
    134000   3.8971916e-11  100312.96      100228.4       108877.76      3.2881369e-06  1.1899261e-06  2.0982107e-06  1.27447e+08  
    135000   3.9262751e-11  100301.45      100209.33      109622.4       3.2881025e-06  1.1901326e-06  2.0979699e-06  1.2744046e+08
    136000   3.9553586e-11  100300.68      100208.9       109587.47      3.2881921e-06  1.1902383e-06  2.0979538e-06  1.274464e+08 
    137000   3.9844421e-11  100304.71      100216.87      109197.98      3.2882169e-06  1.1901787e-06  2.0980382e-06  1.2745018e+08
    138000   4.0135256e-11  100311.25      100230.87      108457.34      3.2881861e-06  1.1900112e-06  2.0981749e-06  1.2744784e+08
    139000   4.0426091e-11  100307.58      100229.14      108259.67      3.2880848e-06  1.1899866e-06  2.0980982e-06  1.2743983e+08
    140000   4.0716927e-11  100296.42      100220.45      108001.46      3.2881461e-06  1.1902813e-06  2.0978648e-06  1.2744232e+08
    141000   4.1007762e-11  100307.06      100228.36      108285.71      3.2881602e-06  1.1900728e-06  2.0980874e-06  1.2744591e+08
    142000   4.1298597e-11  100277.7       100199.73      108182.31      3.2881025e-06  1.1906293e-06  2.0974732e-06  1.2743202e+08
    143000   4.1589432e-11  100301.22      100219.1       108621.83      3.2881364e-06  1.1901713e-06  2.0979652e-06  1.2744196e+08
    144000   4.1880267e-11  100283.41      100202.29      108503.32      3.2881751e-06  1.1905825e-06  2.0975926e-06  1.2743953e+08
    145000   4.2171103e-11  100278.22      100199.65      108243.34      3.2882163e-06  1.1907323e-06  2.097484e-06   1.2743977e+08
    146000   4.2461938e-11  100288.52      100203.82      108867.25      3.2882051e-06  1.1905056e-06  2.0976995e-06  1.2744215e+08
    147000   4.2752773e-11  100290.7       100198.61      109609.16      3.2881647e-06  1.1904196e-06  2.0977451e-06  1.2744192e+08
    148000   4.3043608e-11  100294.84      100204.98      109390.95      3.2882386e-06  1.1904068e-06  2.0978318e-06  1.2744766e+08
    149000   4.3334443e-11  100301.14      100220.4       108483.84      3.2882662e-06  1.1903027e-06  2.0979635e-06  1.2745157e+08
    150000   4.3625279e-11  100300.93      100221.4       108361.63      3.2882204e-06  1.1902614e-06  2.097959e-06   1.2744704e+08
    151000   4.3916114e-11  100293.26      100219.15      107811.86      3.2882168e-06  1.1904181e-06  2.0977987e-06  1.2744463e+08
    152000   4.4206949e-11  100312.04      100238.66      107758         3.288152e-06   1.1899605e-06  2.0981915e-06  1.2744731e+08
    153000   4.4497784e-11  100310.49      100239.05      107561.29      3.288176e-06   1.190017e-06   2.098159e-06   1.2744866e+08
    154000   4.4788619e-11  100299.48      100228.11      107544.05      3.2882088e-06  1.19028e-06    2.0979289e-06  1.2744812e+08
    155000   4.5079455e-11  100304.15      100236.24      107202.68      3.2881695e-06  1.1901431e-06  2.0980264e-06  1.2744616e+08
    156000   4.537029e-11   100299.85      100232.56      107135.51      3.2882046e-06  1.1902681e-06  2.0979365e-06  1.2744599e+08
    157000   4.5661125e-11  100309.98      100242.96      107118.97      3.2881886e-06  1.1900403e-06  2.0981483e-06  1.2744861e+08
    158000   4.595196e-11   100320.83      100251.76      107334.98      3.2881784e-06  1.1898031e-06  2.0983752e-06  1.2745176e+08
    159000   4.6242795e-11  100281.81      100210.73      107497.51      3.2882089e-06  1.1906498e-06  2.0975592e-06  1.274433e+08 
    160000   4.653363e-11   100277.55      100200.42      108098.89      3.2881296e-06  1.1906595e-06  2.09747e-06    1.2743538e+08
    161000   4.6824466e-11  100322.94      100247.58      107967.02      3.2881196e-06  1.1897002e-06  2.0984194e-06  1.2744853e+08
    162000   4.7115301e-11  100301.24      100233.81      107151.93      3.2881234e-06  1.1901578e-06  2.0979657e-06  1.2744169e+08
    163000   4.7406136e-11  100281.06      100215.41      106952.67      3.2881923e-06  1.1906489e-06  2.0975434e-06  1.2743983e+08
    164000   4.7696971e-11  100307.91      100242.09      106996.68      3.2881658e-06  1.1900608e-06  2.098105e-06   1.2744698e+08
    165000   4.7987806e-11  100297.28      100230.82      107050.88      3.2881329e-06  1.19025e-06    2.0978828e-06  1.274403e+08 
    166000   4.8278642e-11  100282.66      100222.89      106365.43      3.2881746e-06  1.1905977e-06  2.0975769e-06  1.2743908e+08
    167000   4.8569477e-11  100298.51      100238.7       106385.85      3.2881344e-06  1.1902259e-06  2.0979084e-06  1.2744041e+08
    168000   4.8860312e-11  100318.96      100261.7       106151.29      3.2881493e-06  1.1898131e-06  2.0983362e-06  1.2745046e+08
    169000   4.9151147e-11  100303.13      100244.75      106247.32      3.2882514e-06  1.1902464e-06  2.0980051e-06  1.274518e+08 
    170000   4.9441982e-11  100310.18      100250.73      106361.27      3.2882205e-06  1.1900679e-06  2.0981526e-06  1.2745344e+08
    171000   4.9732818e-11  100289.31      100230.32      106294.97      3.2881755e-06  1.1904594e-06  2.097716e-06   1.2744309e+08
    172000   5.0023653e-11  100281.1       100226.56      105840.91      3.2881349e-06  1.1905907e-06  2.0975442e-06  1.2743711e+08
    173000   5.0314488e-11  100287.91      100235.03      105681         3.2881455e-06  1.1904588e-06  2.0976867e-06  1.27439e+08  
    174000   5.0605323e-11  100277.94      100220.41      106136.78      3.2881522e-06  1.190674e-06   2.0974782e-06  1.274378e+08 
    175000   5.0896158e-11  100283.57      100226.97      106049.93      3.2881795e-06  1.1905835e-06  2.0975961e-06  1.2744039e+08
    176000   5.1186994e-11  100313.14      100261         105632.45      3.2881393e-06  1.1899248e-06  2.0982145e-06  1.274454e+08 
    177000   5.1477829e-11  100288.7       100229.97      106268.08      3.2881796e-06  1.1904763e-06  2.0977033e-06  1.2744146e+08
    178000   5.1768664e-11  100295.72      100232.99      106675.53      3.2881702e-06  1.1903201e-06  2.0978501e-06  1.2744184e+08
    179000   5.2059499e-11  100309.23      100246.51      106687.89      3.2881843e-06  1.1900515e-06  2.0981328e-06  1.2744808e+08
    180000   5.2350334e-11  100300.18      100243.2       106104.76      3.2881603e-06  1.1902169e-06  2.0979434e-06  1.2744308e+08
    181000   5.2641169e-11  100310.05      100257.99      105621.74      3.2881505e-06  1.1900006e-06  2.0981499e-06  1.2744444e+08
    182000   5.2932005e-11  100280.26      100223.5       106062.63      3.2881404e-06  1.1906136e-06  2.0975267e-06  1.2743493e+08
    183000   5.322284e-11   100303.13      100241.61      106560.86      3.2881526e-06  1.1901476e-06  2.098005e-06   1.2744422e+08
    184000   5.3513675e-11  100294.97      100227.01      107198.72      3.2881811e-06  1.1903466e-06  2.0978345e-06  1.2744293e+08
    185000   5.380451e-11   100308.71      100234.55      107832.7       3.2881435e-06  1.1900218e-06  2.0981218e-06  1.2744522e+08
    186000   5.4095345e-11  100312.43      100238.37      107826.45      3.2881956e-06  1.1899959e-06  2.0981997e-06  1.2745287e+08
    187000   5.4386181e-11  100310.33      100235.6       107891.05      3.288216e-06   1.1900603e-06  2.0981557e-06  1.2745136e+08
    188000   5.4677016e-11  100302.92      100224.91      108212.52      3.288166e-06   1.1901653e-06  2.0980007e-06  1.2744534e+08
    189000   5.4967851e-11  100287.61      100207.32      108425.52      3.2881493e-06  1.1904688e-06  2.0976805e-06  1.2743964e+08
    190000   5.5258686e-11  100275.69      100189.01      109052.55      3.2881695e-06  1.1907383e-06  2.0974312e-06  1.2743614e+08
    191000   5.5549521e-11  100304.79      100217.44      109149.19      3.2882511e-06  1.1902112e-06  2.0980399e-06  1.2745266e+08
    192000   5.5840357e-11  100291.57      100203.96      109162.57      3.2881448e-06  1.1903814e-06  2.0977634e-06  1.2744186e+08
    193000   5.6131192e-11  100286.05      100197.62      109239.09      3.2881588e-06  1.1905108e-06  2.097648e-06   1.2743786e+08
    194000   5.6422027e-11  100278.02      100196.52      108536.38      3.2882174e-06  1.1907376e-06  2.0974798e-06  1.2744067e+08
    195000   5.6712862e-11  100288.81      100207.97      108480.89      3.2882432e-06  1.1905376e-06  2.0977056e-06  1.2744601e+08
    196000   5.7003697e-11  100289.27      100211.55      108169.63      3.2881399e-06  1.1904246e-06  2.0977153e-06  1.2743918e+08
    197000   5.7294533e-11  100289.69      100214.05      107961.61      3.2881769e-06  1.1904529e-06  2.097724e-06   1.274406e+08 
    198000   5.7585368e-11  100318.47      100239.82      108291.73      3.2881051e-06  1.1897792e-06  2.0983259e-06  1.274451e+08 
    199000   5.7876203e-11  100310.47      100231.82      108283.43      3.2881939e-06  1.1900353e-06  2.0981586e-06  1.2744856e+08
    200000   5.8167038e-11  100307.39      100232.74      107880.34      3.2881385e-06  1.1900442e-06  2.0980942e-06  1.2744321e+08
    201000   5.8457873e-11  100314.74      100244.74      107422.5       3.2881057e-06  1.1898577e-06  2.098248e-06   1.2744393e+08
    202000   5.8748708e-11  100292.2       100220.07      107612.92      3.2882028e-06  1.1904263e-06  2.0977765e-06  1.274443e+08 
    203000   5.9039544e-11  100308.1       100239.71      107253.88      3.2881871e-06  1.1900781e-06  2.098109e-06   1.2744799e+08
    204000   5.9330379e-11  100311.92      100249.32      106678.25      3.2881731e-06  1.1899842e-06  2.0981889e-06  1.2744852e+08
    205000   5.9621214e-11  100313.84      100256.03      106200.71      3.2881818e-06  1.1899527e-06  2.0982291e-06  1.2744909e+08
    206000   5.9912049e-11  100292.39      100236.37      105999.52      3.2880938e-06  1.1903134e-06  2.0977804e-06  1.2743561e+08
    207000   6.0202884e-11  100294.58      100237.27      106131.37      3.2881426e-06  1.1903163e-06  2.0978263e-06  1.2744145e+08
    208000   6.049372e-11   100313.05      100253.79      106345.86      3.2881631e-06  1.1899504e-06  2.0982127e-06  1.2744903e+08
    209000   6.0784555e-11  100300.3       100241.91      106245.86      3.2881583e-06  1.1902124e-06  2.0979459e-06  1.2744386e+08
    210000   6.107539e-11   100304.41      100249.14      105936.46      3.2882171e-06  1.1901853e-06  2.0980318e-06  1.2744889e+08
    211000   6.1366225e-11  100290.51      100232.95      106152.49      3.2881383e-06  1.1903972e-06  2.0977411e-06  1.2743928e+08
    212000   6.165706e-11   100303.21      100239.04      106826.88      3.2881355e-06  1.1901287e-06  2.0980067e-06  1.2744254e+08
    213000   6.1947896e-11  100302.11      100235.22      107098.13      3.2881164e-06  1.1901325e-06  2.0979839e-06  1.2744262e+08
    214000   6.2238731e-11  100291.32      100224.86      107044.2       3.2881304e-06  1.1903724e-06  2.097758e-06   1.2743961e+08
    215000   6.2529566e-11  100308.15      100240.18      107212.47      3.2881314e-06  1.1900213e-06  2.0981101e-06  1.2744436e+08
    216000   6.2820401e-11  100331.07      100262.62      107283.54      3.2880836e-06  1.1894941e-06  2.0985895e-06  1.2744866e+08
    217000   6.3111236e-11  100275.92      100214.16      106558.31      3.2881223e-06  1.1906863e-06  2.097436e-06   1.2743267e+08
    218000   6.3402072e-11  100301.92      100243.75      106225.12      3.2882022e-06  1.1902224e-06  2.0979798e-06  1.2744632e+08
    219000   6.3692907e-11  100295         100234.01      106500.35      3.2882733e-06  1.1904382e-06  2.0978351e-06  1.2744874e+08
    220000   6.3983742e-11  100294.12      100234.9       106323.2       3.2880997e-06  1.1902829e-06  2.0978167e-06  1.2743763e+08
    221000   6.4274577e-11  100283.65      100224.47      106307.75      3.2881707e-06  1.190573e-06   2.0975977e-06  1.2743746e+08
    222000   6.4565412e-11  100307.66      100248.06      106374.22      3.2881877e-06  1.1900878e-06  2.0980999e-06  1.2744804e+08
    223000   6.4856247e-11  100314.48      100253.18      106551.02      3.2881697e-06  1.1899271e-06  2.0982426e-06  1.2744885e+08
    224000   6.5147083e-11  100297.05      100234.14      106695.51      3.2881945e-06  1.1903164e-06  2.097878e-06   1.2744454e+08
    225000   6.5437918e-11  100299.98      100241.43      106261.17      3.2882439e-06  1.1903048e-06  2.0979391e-06  1.2744887e+08
    226000   6.5728753e-11  100298.05      100245.02      105707.45      3.2881663e-06  1.1902674e-06  2.0978989e-06  1.2744181e+08
    227000   6.6019588e-11  100273.39      100224.26      105291.91      3.2882093e-06  1.1908263e-06  2.097383e-06   1.2743602e+08
    228000   6.6310423e-11  100295.55      100239.23      106033.37      3.2881981e-06  1.1903515e-06  2.0978466e-06  1.2744292e+08
    229000   6.6601259e-11  100276.95      100218.27      106251.17      3.2881889e-06  1.1907313e-06  2.0974576e-06  1.2743777e+08
    230000   6.6892094e-11  100291.17      100237.18      105796.66      3.2882096e-06  1.1904546e-06  2.097755e-06   1.2744341e+08
    231000   6.7182929e-11  100289.64      100230.64      106296.38      3.2881951e-06  1.1904722e-06  2.097723e-06   1.2744203e+08
    232000   6.7473764e-11  100288.05      100235.8       105618.97      3.2881912e-06  1.1905015e-06  2.0976897e-06  1.2744107e+08
    233000   6.7764599e-11  100295.86      100245.66      105421.2       3.2882169e-06  1.1903639e-06  2.097853e-06   1.2744667e+08
    234000   6.8055435e-11  100304.92      100255.39      105363.55      3.2881662e-06  1.1901237e-06  2.0980425e-06  1.2744524e+08
    235000   6.834627e-11   100291.58      100243.59      105195.84      3.288196e-06   1.1904326e-06  2.0977635e-06  1.2744284e+08
    236000   6.8637105e-11  100303.4       100257.38      105011.11      3.2881746e-06  1.1901638e-06  2.0980108e-06  1.274435e+08 
    237000   6.892794e-11   100284.12      100241.5       104650.26      3.2881549e-06  1.1905474e-06  2.0976075e-06  1.2743586e+08
    238000   6.9218775e-11  100315.45      100279.09      104055.08      3.2882045e-06  1.1899417e-06  2.0982628e-06  1.274493e+08 
    239000   6.9509611e-11  100306.36      100270.74      103972.76      3.2882437e-06  1.1901709e-06  2.0980728e-06  1.2744962e+08
    240000   6.9800446e-11  100307.24      100265.77      104559.03      3.2881654e-06  1.1900743e-06  2.0980911e-06  1.2744507e+08
    241000   7.0091281e-11  100295.85      100249.36      105050.49      3.2881894e-06  1.1903365e-06  2.0978529e-06  1.274429e+08 
    242000   7.0382116e-11  100279.88      100232.71      105101.6       3.2881594e-06  1.1906406e-06  2.0975188e-06  1.2743594e+08
    243000   7.0672951e-11  100301.61      100259.13      104653.84      3.2881744e-06  1.1902011e-06  2.0979733e-06  1.2744379e+08
    244000   7.0963786e-11  100288.51      100240.76      105168.51      3.288148e-06   1.1904488e-06  2.0976992e-06  1.274386e+08 
    245000   7.1254622e-11  100300.77      100256.33      104849.58      3.2881452e-06  1.1901894e-06  2.0979557e-06  1.274426e+08 
    246000   7.1545457e-11  100278.81      100237.62      104502.09      3.2881772e-06  1.1906809e-06  2.0974963e-06  1.2743489e+08
    247000   7.1836292e-11  100303.84      100266.09      104182.84      3.2881558e-06  1.1901358e-06  2.0980199e-06  1.2744517e+08
    248000   7.2127127e-11  100306.65      100266.74      104402.29      3.2881633e-06  1.1900845e-06  2.0980788e-06  1.2744549e+08
    249000   7.2417962e-11  100311.02      100271.73      104344.06      3.2881681e-06  1.189998e-06   2.0981701e-06  1.2744477e+08
    250000   7.2708798e-11  100318.47      100277.06      104563.23      3.2881261e-06  1.1898002e-06  2.0983259e-06  1.274467e+08 
    251000   7.2999633e-11  100314.64      100275.21      104362.83      3.2881258e-06  1.1898798e-06  2.098246e-06   1.2744472e+08
    252000   7.3290468e-11  100312.19      100274.81      104154.49      3.288156e-06   1.1899614e-06  2.0981946e-06  1.2744626e+08
    253000   7.3581303e-11  100298.23      100263.16      103908.56      3.2881334e-06  1.1902309e-06  2.0979026e-06  1.2744212e+08
    254000   7.3872138e-11  100293.56      100256.59      104094.22      3.2881535e-06  1.1903487e-06  2.0978048e-06  1.2744305e+08
    255000   7.4162974e-11  100316.29      100278.02      104247.09      3.2881557e-06  1.1898754e-06  2.0982804e-06  1.2744971e+08
    256000   7.4453809e-11  100288.67      100250.5       104209.81      3.2882061e-06  1.1905036e-06  2.0977026e-06  1.2744249e+08
    257000   7.4744644e-11  100289.56      100253.28      104021.4       3.2882049e-06  1.1904836e-06  2.0977213e-06  1.2744343e+08
    258000   7.5035479e-11  100298.73      100254.97      104779.56      3.2881839e-06  1.1902708e-06  2.0979132e-06  1.2744341e+08
    259000   7.5326314e-11  100294.7       100249.96      104873.45      3.2881689e-06  1.1903401e-06  2.0978288e-06  1.2744292e+08
    260000   7.561715e-11   100304.61      100269.17      103952.01      3.2881583e-06  1.1901223e-06  2.098036e-06   1.2744498e+08
    261000   7.5907985e-11  100288.85      100251.27      104151.1       3.2881436e-06  1.1904372e-06  2.0977064e-06  1.2743938e+08
    262000   7.619882e-11   100303.34      100263.36      104405.22      3.2881886e-06  1.1901791e-06  2.0980095e-06  1.2744637e+08
    263000   7.6489655e-11  100299.22      100266.82      103642.62      3.2881467e-06  1.1902234e-06  2.0979233e-06  1.2744249e+08
    264000   7.678049e-11   100297.01      100261.8       103922.03      3.2881854e-06  1.1903083e-06  2.0978772e-06  1.2744349e+08
    265000   7.7071325e-11  100284.14      100257.9       103011.47      3.2882144e-06  1.1906065e-06  2.097608e-06   1.2744184e+08
    266000   7.7362161e-11  100285.87      100261.77      102798.43      3.2881803e-06  1.1905362e-06  2.0976441e-06  1.2743924e+08
    267000   7.7652996e-11  100311.89      100289.74      102629.51      3.2881909e-06  1.1900027e-06  2.0981883e-06  1.2744764e+08
    268000   7.7943831e-11  100306.97      100279.85      103121.66      3.2881657e-06  1.1900804e-06  2.0980853e-06  1.2744548e+08
    269000   7.8234666e-11  100332.82      100306.68      103050.46      3.2881472e-06  1.189521e-06   2.0986262e-06  1.2745139e+08
    270000   7.8525501e-11  100300.23      100277.19      102707.44      3.2882236e-06  1.1902791e-06  2.0979445e-06  1.2744523e+08
    271000   7.8816337e-11  100288.07      100264.08      102789.97      3.2881993e-06  1.1905093e-06  2.0976901e-06  1.2744226e+08
    272000   7.9107172e-11  100262.14      100233.47      103232.91      3.2882112e-06  1.1910634e-06  2.0971478e-06  1.2743431e+08
    273000   7.9398007e-11  100304.54      100271.95      103667.4       3.288136e-06   1.1901014e-06  2.0980347e-06  1.2744436e+08
    274000   7.9688842e-11  100296.34      100267.07      103326.59      3.2882336e-06  1.1903706e-06  2.097863e-06   1.2744693e+08
    275000   7.9979677e-11  100291.07      100263.72      103129.1       3.2882992e-06  1.1905463e-06  2.0977529e-06  1.2745078e+08
    276000   8.0270513e-11  100272.35      100242.01      103409.26      3.2881773e-06  1.190816e-06   2.0973613e-06  1.2743523e+08
    277000   8.0561348e-11  100275.02      100239.15      103966.26      3.2881608e-06  1.1907437e-06  2.0974171e-06  1.2743536e+08
    278000   8.0852183e-11  100285.56      100248.34      104111.32      3.2881782e-06  1.1905405e-06  2.0976376e-06  1.274388e+08 
    279000   8.1143018e-11  100291.91      100255.77      104009.75      3.288168e-06   1.1903977e-06  2.0977703e-06  1.2744047e+08
    280000   8.1433853e-11  100301.64      100270.73      103495.91      3.2881778e-06  1.1902039e-06  2.0979739e-06  1.2744667e+08
    281000   8.1724689e-11  100265.94      100232.55      103708.86      3.2882172e-06  1.19099e-06    2.0972272e-06  1.2743801e+08
    282000   8.2015524e-11  100298.92      100269.5       103344.66      3.2881754e-06  1.1902582e-06  2.0979171e-06  1.274449e+08 
    283000   8.2306359e-11  100299.08      100272.19      103091.67      3.288184e-06   1.1902636e-06  2.0979204e-06  1.2744395e+08
    284000   8.2597194e-11  100288.92      100264.42      102841.15      3.2882345e-06  1.1905267e-06  2.0977078e-06  1.2744535e+08
    285000   8.2888029e-11  100287.81      100261.47      103023.9       3.2881936e-06  1.190509e-06   2.0976846e-06  1.2744241e+08
    286000   8.3178864e-11  100303.12      100279.36      102781.95      3.2882165e-06  1.1902117e-06  2.0980049e-06  1.274483e+08 
    287000   8.34697e-11    100300.87      100280.43      102447.43      3.2882041e-06  1.1902462e-06  2.0979579e-06  1.2744804e+08
    288000   8.3760535e-11  100295.87      100279.87      101997.73      3.2881546e-06  1.1903014e-06  2.0978532e-06  1.2744104e+08
    289000   8.405137e-11   100300.84      100281.04      102382.73      3.2881475e-06  1.1901903e-06  2.0979572e-06  1.2744328e+08
    290000   8.4342205e-11  100297.51      100275.44      102606.6       3.2881638e-06  1.1902763e-06  2.0978875e-06  1.274428e+08 
    291000   8.463304e-11   100291.69      100274.89      102073.06      3.2882015e-06  1.1904357e-06  2.0977658e-06  1.2744338e+08
    292000   8.4923876e-11  100299.29      100281.98      102131.89      3.2882377e-06  1.190313e-06   2.0979247e-06  1.2744785e+08
    293000   8.5214711e-11  100281.95      100263.72      102207.45      3.2881805e-06  1.1906184e-06  2.0975621e-06  1.2744072e+08
    294000   8.5505546e-11  100310.38      100294.04      102046.36      3.2882163e-06  1.1900596e-06  2.0981567e-06  1.2745129e+08
    295000   8.5796381e-11  100289.86      100274.51      101927.14      3.2881806e-06  1.1904529e-06  2.0977276e-06  1.2743991e+08
    296000   8.6087216e-11  100304.17      100286.92      102130.98      3.288208e-06   1.1901811e-06  2.0980269e-06  1.2744432e+08
    297000   8.6378052e-11  100295.15      100280.15      101897.73      3.2881834e-06  1.1903451e-06  2.0978383e-06  1.2744235e+08
    298000   8.6668887e-11  100294.36      100277.09      102122.82      3.288152e-06   1.1903303e-06  2.0978216e-06  1.2744142e+08
    299000   8.6959722e-11  100282.53      100267.03      101933.84      3.2881653e-06  1.1905912e-06  2.0975742e-06  1.2743835e+08
    300000   8.7250557e-11  100270.4       100255.42      101869.87      3.2882203e-06  1.1908998e-06  2.0973205e-06  1.2743758e+08
    301000   8.7541392e-11  100302.29      100289.44      101688.95      3.2881891e-06  1.1902015e-06  2.0979876e-06  1.2744503e+08
    302000   8.7832228e-11  100302.22      100282.44      102381.75      3.2881731e-06  1.1901871e-06  2.097986e-06   1.2744362e+08
    303000   8.8123063e-11  100302.79      100286.05      102078.44      3.2881584e-06  1.1901605e-06  2.097998e-06   1.2744423e+08
    304000   8.8413898e-11  100307.34      100290.11      102132.64      3.2881771e-06  1.1900839e-06  2.0980932e-06  1.2744672e+08
    305000   8.8704733e-11  100296.01      100277.76      102223.16      3.2882168e-06  1.1903605e-06  2.0978563e-06  1.2744656e+08
    306000   8.8995568e-11  100288.58      100266.61      102587.69      3.2881825e-06  1.1904818e-06  2.0977007e-06  1.2744053e+08
    307000   8.9286403e-11  100306.75      100288         102284.48      3.2881621e-06  1.1900811e-06  2.0980809e-06  1.2744621e+08
    308000   8.9577239e-11  100282.74      100264.64      102194.98      3.2881057e-06  1.1905271e-06  2.0975787e-06  1.2743413e+08
    309000   8.9868074e-11  100299.52      100284.72      101881.34      3.2881362e-06  1.1902067e-06  2.0979295e-06  1.2744186e+08
    310000   9.0158909e-11  100307.97      100291.83      102024.07      3.2881502e-06  1.1900439e-06  2.0981063e-06  1.2744433e+08
    311000   9.0449744e-11  100302.15      100294.5       101168.37      3.2881413e-06  1.1901566e-06  2.0979847e-06  1.274433e+08 
    312000   9.0740579e-11  100292.55      100286.85      100962.97      3.2881488e-06  1.1903651e-06  2.0977838e-06  1.2743994e+08
    313000   9.1031415e-11  100278.06      100272.38      100946.76      3.2881909e-06  1.1907101e-06  2.0974808e-06  1.2744001e+08
    314000   9.132225e-11   100293.53      100289.12      100835.25      3.2881244e-06  1.1903202e-06  2.0978043e-06  1.2743908e+08
    315000   9.1613085e-11  100317.07      100312.01      100924.66      3.2881003e-06  1.1898036e-06  2.0982967e-06  1.2744466e+08
    316000   9.190392e-11   100302.38      100298.3       100811.04      3.2881122e-06  1.1901228e-06  2.0979894e-06  1.2743981e+08
    317000   9.2194755e-11  100299         100301.24      100174.26      3.2881396e-06  1.190221e-06   2.0979186e-06  1.2744152e+08
    318000   9.2485591e-11  100310.42      100317.59      99692.336      3.2881297e-06  1.1899722e-06  2.0981575e-06  1.2744608e+08
    319000   9.2776426e-11  100289.39      100298.03      99524.995      3.2881332e-06  1.1904154e-06  2.0977178e-06  1.2743868e+08
    320000   9.3067261e-11  100306.12      100313.42      99675.454      3.2881104e-06  1.1900428e-06  2.0980676e-06  1.2744139e+08
    321000   9.3358096e-11  100266.63      100273.15      99714.645      3.2881581e-06  1.1909164e-06  2.0972417e-06  1.2743193e+08
    322000   9.3648931e-11  100276.16      100284.31      99559.913      3.2881263e-06  1.1906854e-06  2.0974409e-06  1.2743419e+08
    323000   9.3939767e-11  100328.87      100337.7       99545.642      3.2881098e-06  1.1895662e-06  2.0985436e-06  1.2744809e+08
    324000   9.4230602e-11  100291.07      100300.7       99426.801      3.2880471e-06  1.1902943e-06  2.0977528e-06  1.2743175e+08
    325000   9.4521437e-11  100301.55      100306.81      99875.687      3.2881706e-06  1.1901985e-06  2.0979721e-06  1.2744381e+08
    326000   9.4812272e-11  100293.78      100293.4       100432.51      3.2882294e-06  1.1904198e-06  2.0978096e-06  1.2744573e+08
    327000   9.5103107e-11  100303.78      100302.97      100484.65      3.2881791e-06  1.1901605e-06  2.0980186e-06  1.2744463e+08
    328000   9.5393942e-11  100292.59      100294.29      100223.33      3.2882696e-06  1.1904849e-06  2.0977847e-06  1.2744616e+08
    329000   9.5684778e-11  100302.81      100303.89      100295.27      3.2882366e-06  1.1902381e-06  2.0979985e-06  1.274482e+08 
    330000   9.5975613e-11  100301.88      100296.75      100915.47      3.2882647e-06  1.1902859e-06  2.0979789e-06  1.2744963e+08
    331000   9.6266448e-11  100293.69      100284.67      101296.9       3.2882829e-06  1.1904752e-06  2.0978077e-06  1.2744951e+08
    332000   9.6557283e-11  100314.39      100309.52      100901.78      3.2882255e-06  1.1899849e-06  2.0982406e-06  1.2745144e+08
    333000   9.6848118e-11  100299.95      100291.68      101227.72      3.2882863e-06  1.1903478e-06  2.0979385e-06  1.2745024e+08
    334000   9.7138954e-11  100304.98      100295.67      101336.92      3.2881961e-06  1.1901524e-06  2.0980437e-06  1.2744588e+08
    335000   9.7429789e-11  100285.59      100276.22      101324.73      3.2882363e-06  1.190598e-06   2.0976383e-06  1.2744244e+08
    336000   9.7720624e-11  100300.93      100290.4       101455.47      3.288252e-06   1.1902928e-06  2.0979592e-06  1.2744755e+08
    337000   9.8011459e-11  100274.09      100270.94      100690.25      3.2881999e-06  1.1908021e-06  2.0973977e-06  1.274351e+08 
    338000   9.8302294e-11  100297.88      100294.37      100749.29      3.2882525e-06  1.1903573e-06  2.0978953e-06  1.2744686e+08
    339000   9.859313e-11   100313.48      100312.28      100534.3       3.288252e-06   1.1900303e-06  2.0982217e-06  1.2745403e+08
    340000   9.8883965e-11  100305.49      100304.56      100498.93      3.2883218e-06  1.1902673e-06  2.0980545e-06  1.2745359e+08
    341000   9.91748e-11    100289         100290.04      100286.03      3.2882052e-06  1.1904956e-06  2.0977096e-06  1.2744053e+08
    342000   9.9465635e-11  100297.6       100298.03      100355.62      3.2882785e-06  1.190389e-06   2.0978895e-06  1.2744909e+08
    343000   9.975647e-11   100299.92      100298.41      100552.08      3.288312e-06   1.190374e-06   2.0979381e-06  1.2744908e+08
    344000   1.0004731e-10  100305.64      100301.53      100817.07      3.2882936e-06  1.1902361e-06  2.0980575e-06  1.2744731e+08
    345000   1.0033814e-10  100323.97      100315.13      101309.52      3.2883068e-06  1.1898658e-06  2.098441e-06   1.2745648e+08
    346000   1.0062898e-10  100292.4       100279.93      101641.57      3.288304e-06   1.1905233e-06  2.0977807e-06  1.2744599e+08
    347000   1.0091981e-10  100315.14      100299.93      101937.82      3.2882341e-06  1.1899777e-06  2.0982563e-06  1.274477e+08 
    348000   1.0121065e-10  100332.34      100311.63      102505.64      3.2882731e-06  1.189657e-06   2.0986161e-06  1.2745582e+08
    349000   1.0150148e-10  100308.86      100286.41      102656.74      3.2882424e-06  1.1901175e-06  2.0981249e-06  1.274442e+08 
    350000   1.0179232e-10  100299.68      100274.15      102955.27      3.2882856e-06  1.1903527e-06  2.0979329e-06  1.2744307e+08
    351000   1.0208315e-10  100321.69      100298.52      102741.35      3.2883184e-06  1.1899251e-06  2.0983933e-06  1.2745353e+08
    352000   1.0237399e-10  100334.4       100310.9       102786.23      3.2882687e-06  1.1896096e-06  2.0986591e-06  1.2745586e+08
    353000   1.0266482e-10  100264.81      100239.92      102856.14      3.2883615e-06  1.191158e-06   2.0972036e-06  1.2743899e+08
    354000   1.0295566e-10  100264.67      100236.16      103218.83      3.288295e-06   1.1910942e-06  2.0972007e-06  1.2743433e+08
    355000   1.0324649e-10  100307.43      100276.88      103465.89      3.2883037e-06  1.1902086e-06  2.0980951e-06  1.2745025e+08
    356000   1.0353733e-10  100315.69      100284.69      103519.12      3.2883516e-06  1.1900839e-06  2.0982678e-06  1.274563e+08 
    357000   1.0382816e-10  100284.74      100259.04      102957.6       3.2883416e-06  1.1907211e-06  2.0976205e-06  1.2744432e+08
    358000   1.04119e-10    100294.87      100265.48      103337.62      3.288317e-06   1.1904846e-06  2.0978323e-06  1.2744777e+08
    359000   1.0440983e-10  100312.5       100277.67      103899.39      3.2883204e-06  1.1901194e-06  2.098201e-06   1.2745283e+08
    360000   1.0470067e-10  100300.63      100264.98      103969.64      3.2882908e-06  1.1903378e-06  2.0979529e-06  1.2744645e+08
    361000   1.049915e-10   100288.97      100249.28      104362.49      3.2883329e-06  1.1906239e-06  2.097709e-06   1.2744572e+08
    362000   1.0528234e-10  100305.71      100271.1       103870.62      3.2882787e-06  1.1902196e-06  2.098059e-06   1.2744543e+08
    363000   1.0557317e-10  100311.6       100271.88      104388.37      3.2882547e-06  1.1900724e-06  2.0981823e-06  1.2744755e+08
    364000   1.0586401e-10  100323.33      100281.59      104601.77      3.2882831e-06  1.1898554e-06  2.0984276e-06  1.2745162e+08
    365000   1.0615484e-10  100284.05      100240.94      104700.61      3.2882681e-06  1.190662e-06   2.0976061e-06  1.2743957e+08
    366000   1.0644568e-10  100300.94      100262.73      104225.65      3.2882578e-06  1.1902986e-06  2.0979592e-06  1.2744425e+08
    367000   1.0673651e-10  100318.64      100280.09      104278.49      3.2882721e-06  1.1899425e-06  2.0983296e-06  1.2745033e+08
    368000   1.0702735e-10  100316.12      100283.5       103681.51      3.2883109e-06  1.1900342e-06  2.0982767e-06  1.2745079e+08
    369000   1.0731819e-10  100326.5       100291.03      103977.37      3.2882595e-06  1.1897656e-06  2.0984939e-06  1.2745112e+08
    370000   1.0760902e-10  100304.91      100268.35      104065.07      3.2883255e-06  1.1902832e-06  2.0980423e-06  1.274502e+08 
    371000   1.0789986e-10  100286.37      100244.62      104565.58      3.2883895e-06  1.190735e-06   2.0976545e-06  1.2744815e+08
    372000   1.0819069e-10  100303.2       100259.53      104774.88      3.2885262e-06  1.1905196e-06  2.0980065e-06  1.2745479e+08
    373000   1.0848153e-10  100312.37      100266.69      104985.89      3.2884828e-06  1.1902843e-06  2.0981985e-06  1.2745521e+08
    374000   1.0877236e-10  100329.33      100286.17      104749.96      3.2884894e-06  1.1899362e-06  2.0985532e-06  1.2746015e+08
    375000   1.090632e-10   100310.16      100264.24      105006.97      3.2884045e-06  1.1902523e-06  2.0981522e-06  1.2744949e+08
    376000   1.0935403e-10  100326.51      100279.69      105113.49      3.2884738e-06  1.1899797e-06  2.0984941e-06  1.2745948e+08
    377000   1.0964487e-10  100314.49      100266.34      105234.53      3.2884873e-06  1.1902446e-06  2.0982427e-06  1.274573e+08 
    378000   1.099357e-10   100300.9       100253.27      105169.21      3.2884755e-06  1.190517e-06   2.0979586e-06  1.2745138e+08
    379000   1.1022654e-10  100295.17      100250.83      104833.71      3.2885111e-06  1.1906725e-06  2.0978386e-06  1.2745403e+08
    380000   1.1051737e-10  100284.48      100241.98      104638.35      3.2884892e-06  1.1908743e-06  2.0976149e-06  1.2745031e+08
    381000   1.1080821e-10  100287.23      100240.75      105040.42      3.2884782e-06  1.1908056e-06  2.0976726e-06  1.2744758e+08
    382000   1.1109904e-10  100327.87      100280.63      105157.16      3.2885194e-06  1.1899969e-06  2.0985226e-06  1.2746365e+08
    383000   1.1138988e-10  100312.68      100266.67      105018.85      3.2884644e-06  1.1902595e-06  2.0982048e-06  1.2745517e+08
    384000   1.1168071e-10  100309.79      100265.21      104872.71      3.2884451e-06  1.1903006e-06  2.0981445e-06  1.2745139e+08
    385000   1.1197155e-10  100313.16      100269.36      104798.18      3.288417e-06   1.1902021e-06  2.098215e-06   1.2745229e+08
    386000   1.1226238e-10  100297.5       100250.76      105077.15      3.288491e-06   1.1906036e-06  2.0978874e-06  1.2745208e+08
    387000   1.1255322e-10  100294.3       100241.59      105670.84      3.2885109e-06  1.1906906e-06  2.0978203e-06  1.2745474e+08
    388000   1.1284405e-10  100311.58      100250.62      106514.43      3.2885332e-06  1.1903513e-06  2.0981819e-06  1.2746054e+08
    389000   1.1313489e-10  100318.77      100257.11      106591.44      3.2885467e-06  1.1902144e-06  2.0983323e-06  1.2746262e+08
    390000   1.1342572e-10  100312.37      100250.97      106559.22      3.2885065e-06  1.190308e-06   2.0981985e-06  1.2745724e+08
    391000   1.1371656e-10  100301.07      100239.33      106581.92      3.288433e-06   1.1904709e-06  2.0979621e-06  1.2744808e+08
    392000   1.1400739e-10  100298.96      100229.68      107334.18      3.2884664e-06  1.1905485e-06  2.0979179e-06  1.2745073e+08
    393000   1.1429823e-10  100314.53      100242.54      107620.77      3.2885058e-06  1.1902623e-06  2.0982435e-06  1.2746054e+08
    394000   1.1458907e-10  100297.39      100226.18      107525.35      3.2884646e-06  1.1905796e-06  2.097885e-06   1.2745203e+08
    395000   1.148799e-10   100287.6       100208.97      108258.33      3.2884851e-06  1.1908049e-06  2.0976802e-06  1.2744704e+08
    396000   1.1517074e-10  100297.55      100224.39      107720.79      3.2884618e-06  1.1905735e-06  2.0978883e-06  1.2745009e+08
    397000   1.1546157e-10  100310.58      100236.79      107797.14      3.2884888e-06  1.1903279e-06  2.098161e-06   1.274554e+08 
    398000   1.1575241e-10  100307.86      100231.43      108058.66      3.2884632e-06  1.1903591e-06  2.0981041e-06  1.274542e+08 
    399000   1.1604324e-10  100299.77      100220.34      108350.76      3.2884498e-06  1.1905149e-06  2.0979349e-06  1.274505e+08 
    400000   1.1633408e-10  100307.79      100227.15      108480.18      3.2884203e-06  1.1903178e-06  2.0981025e-06  1.2744901e+08
    401000   1.1662491e-10  100304.12      100226.92      108132.53      3.2884681e-06  1.1904422e-06  2.0980259e-06  1.2745156e+08
    402000   1.1691575e-10  100311.84      100236.58      107945.04      3.2884556e-06  1.1902683e-06  2.0981872e-06  1.2745476e+08
    403000   1.1720658e-10  100323.22      100245.5       108203.32      3.2884516e-06  1.1900262e-06  2.0984254e-06  1.2745722e+08
    404000   1.1749742e-10  100300.38      100220.71      108376.2       3.2884609e-06  1.1905132e-06  2.0979476e-06  1.2744995e+08
    405000   1.1778825e-10  100303.59      100224.5       108321.11      3.2884816e-06  1.1904668e-06  2.0980148e-06  1.2745231e+08
    406000   1.1807909e-10  100315.86      100235.5       108460.63      3.2884651e-06  1.1901937e-06  2.0982715e-06  1.2745705e+08
    407000   1.1836992e-10  100294         100216.89      108113.44      3.288446e-06   1.1906319e-06  2.0978141e-06  1.2744973e+08
    408000   1.1866076e-10  100316.48      100239.8       108092.58      3.2884821e-06  1.1901976e-06  2.0982844e-06  1.27457e+08  
    409000   1.1895159e-10  100331.45      100251.67      108418.41      3.2884776e-06  1.1898801e-06  2.0985975e-06  1.2746125e+08
    410000   1.1924243e-10  100308.51      100229.9       108278.14      3.2884015e-06  1.1902838e-06  2.0981177e-06  1.2744899e+08
    411000   1.1953326e-10  100329.02      100252.73      108065.82      3.288446e-06   1.1898994e-06  2.0985467e-06  1.2745822e+08
    412000   1.198241e-10   100287.96      100211.11      108080.39      3.2883837e-06  1.1906959e-06  2.0976877e-06  1.2744147e+08
    413000   1.2011493e-10  100330.46      100257.01      107783.42      3.2883942e-06  1.1898175e-06  2.0985767e-06  1.2745391e+08
    414000   1.2040577e-10  100290.06      100220.24      107379.48      3.2884875e-06  1.1907557e-06  2.0977318e-06  1.274479e+08 
    415000   1.206966e-10   100312.87      100247.63      106943.48      3.288496e-06   1.1902872e-06  2.0982088e-06  1.2745843e+08
    416000   1.2098744e-10  100319.9       100262.56      106160.58      3.2884658e-06  1.1901098e-06  2.0983559e-06  1.2745529e+08
    417000   1.2127827e-10  100314.91      100258.75      106037.52      3.2884025e-06  1.1901509e-06  2.0982516e-06  1.274501e+08 
    418000   1.2156911e-10  100316.25      100260.29      106018.47      3.288448e-06   1.1901683e-06  2.0982796e-06  1.2745295e+08
    419000   1.2185994e-10  100309.87      100251.64      106238.9       3.2884544e-06  1.1903082e-06  2.0981461e-06  1.2745368e+08
    420000   1.2215078e-10  100310.31      100251.44      106303.31      3.2884771e-06  1.1903218e-06  2.0981553e-06  1.2745443e+08
    421000   1.2244162e-10  100296.84      100242.8       105806.09      3.2884715e-06  1.190598e-06   2.0978735e-06  1.2744851e+08
    422000   1.2273245e-10  100344.48      100285.84      106314.43      3.2884804e-06  1.1896104e-06  2.0988699e-06  1.2746547e+08
    423000   1.2302329e-10  100320.42      100265.49      105919.56      3.2884635e-06  1.1900967e-06  2.0983667e-06  1.2745576e+08
    424000   1.2331412e-10  100316.47      100259.13      106157.09      3.288455e-06   1.1901708e-06  2.0982842e-06  1.274549e+08 
    425000   1.2360496e-10  100323.48      100268.14      105963.3       3.2884852e-06  1.1900544e-06  2.0984308e-06  1.2745928e+08
    426000   1.2389579e-10  100312.68      100259.48      105737.66      3.2885016e-06  1.1902968e-06  2.0982048e-06  1.2745661e+08
    427000   1.2418663e-10  100331.25      100277.69      105793.32      3.2884642e-06  1.189871e-06   2.0985933e-06  1.2746067e+08
    428000   1.2447746e-10  100306.88      100255.88      105512.25      3.2885272e-06  1.1904437e-06  2.0980835e-06  1.2745715e+08
    429000   1.247683e-10   100307.29      100258.32      105309.34      3.2885003e-06  1.1904082e-06  2.098092e-06   1.2745481e+08
    430000   1.2505913e-10  100326.03      100270.04      106030.34      3.2884675e-06  1.1899835e-06  2.098484e-06   1.2745842e+08
    431000   1.2534997e-10  100330.86      100281.85      105337.58      3.2884588e-06  1.1898736e-06  2.0985852e-06  1.27459e+08  
    432000   1.256408e-10   100315.67      100273.47      104639.97      3.2884324e-06  1.1901651e-06  2.0982674e-06  1.2745224e+08
    433000   1.2593164e-10  100302.67      100254.39      105235.55      3.2884042e-06  1.1904087e-06  2.0979954e-06  1.2744799e+08
    434000   1.2622247e-10  100297.59      100252.8       104881.6       3.2884693e-06  1.19058e-06    2.0978892e-06  1.274508e+08 
    435000   1.2651331e-10  100308.27      100264.11      104828.57      3.2885105e-06  1.1903979e-06  2.0981126e-06  1.2745731e+08
    436000   1.2680414e-10  100305.84      100268.3       104163.61      3.2885599e-06  1.1904981e-06  2.0980618e-06  1.2745757e+08
    437000   1.2709498e-10  100321.14      100281.26      104413.26      3.2885092e-06  1.1901275e-06  2.0983817e-06  1.274586e+08 
    438000   1.2738581e-10  100313.98      100271.64      104652.69      3.2884877e-06  1.1902557e-06  2.098232e-06   1.274544e+08 
    439000   1.2767665e-10  100316.48      100276.23      104445.8       3.2884838e-06  1.1901994e-06  2.0982844e-06  1.2745463e+08
    440000   1.2796748e-10  100295.45      100251.9       104754.9       3.2884682e-06  1.1906238e-06  2.0978444e-06  1.2744855e+08
    441000   1.2825832e-10  100328.84      100283.57      104960.28      3.2884967e-06  1.1899538e-06  2.0985428e-06  1.2746052e+08
    442000   1.2854915e-10  100310.12      100263.95      105031.97      3.2884429e-06  1.1902917e-06  2.0981512e-06  1.2745144e+08
    443000   1.2883999e-10  100312.61      100261.56      105522.97      3.2884785e-06  1.190275e-06   2.0982034e-06  1.2745641e+08
    444000   1.2913082e-10  100319.93      100272.27      105191.18      3.2884616e-06  1.1901051e-06  2.0983565e-06  1.2745693e+08
    445000   1.2942166e-10  100313.44      100263.49      105413.93      3.2885284e-06  1.1903076e-06  2.0982208e-06  1.274572e+08 
    446000   1.2971249e-10  100301.15      100254.11      105110.52      3.2884926e-06  1.190529e-06   2.0979637e-06  1.2745119e+08
    447000   1.3000333e-10  100301.69      100249.94      105582.19      3.2884789e-06  1.1905039e-06  2.0979749e-06  1.2745028e+08
    448000   1.3029417e-10  100336.41      100287.2       105362.91      3.2884162e-06  1.189715e-06   2.0987012e-06  1.2745681e+08
    449000   1.30585e-10    100327.05      100279.83      105154.83      3.2884354e-06  1.1899299e-06  2.0985055e-06  1.2745548e+08
    450000   1.3087584e-10  100328.61      100284.32      104862.71      3.2884724e-06  1.1899342e-06  2.0985381e-06  1.2746025e+08
    451000   1.3116667e-10  100300.75      100262.96      104183.43      3.2885368e-06  1.1905815e-06  2.0979553e-06  1.2745276e+08
    452000   1.3145751e-10  100309.41      100268.4       104515.33      3.2884665e-06  1.19033e-06    2.0981365e-06  1.2745221e+08
    453000   1.3174834e-10  100294.39      100253.73      104464.39      3.2885051e-06  1.1906828e-06  2.0978223e-06  1.274494e+08 
    454000   1.3203918e-10  100312.46      100273.67      104295.77      3.288485e-06   1.1902846e-06  2.0982004e-06  1.2745466e+08
    455000   1.3233001e-10  100305.42      100272.24      103726.45      3.2884994e-06  1.1904465e-06  2.0980529e-06  1.2745303e+08
    456000   1.3262085e-10  100321.98      100290.56      103567.08      3.288496e-06   1.1900966e-06  2.0983993e-06  1.2745889e+08
    457000   1.3291168e-10  100308.15      100276.2       103606.85      3.2884236e-06  1.1903135e-06  2.0981101e-06  1.2745009e+08
    458000   1.3320252e-10  100307.24      100277.21      103413.99      3.2884629e-06  1.1903719e-06  2.0980911e-06  1.2745194e+08
    459000   1.3349335e-10  100306.67      100275.06      103571.08      3.2884849e-06  1.1904057e-06  2.0980792e-06  1.2745288e+08
    460000   1.3378419e-10  100304.64      100270.15      103857.15      3.2884913e-06  1.1904546e-06  2.0980367e-06  1.2745412e+08
    461000   1.3407502e-10  100315.57      100281.02      103874.19      3.2885341e-06  1.1902687e-06  2.0982654e-06  1.274612e+08 
    462000   1.3436586e-10  100322.64      100291.25      103564.52      3.2885116e-06  1.1900984e-06  2.0984131e-06  1.2746109e+08
    463000   1.3465669e-10  100303.73      100271.43      103637.31      3.2884931e-06  1.1904755e-06  2.0980176e-06  1.2745347e+08
