Job ID:        404022
Host:          daisg108
Start time:    Wed Aug  5 03:24:07 PM CEST 2026
Working dir:   /dais/fs/scratch/kshao/wd/White-Dwarf-Codes/unforced/dais
MPI tasks:     1
CPUs/task:     12
Visible GPU:   0
LAMMPS:        /u/kshao/software/lammps-gpu-cuda12-install/bin/lmp
Input:         unforcedvel_v1.0e+05_c2.in
Currently Loaded Modulefiles:
 1) gcc/14   2) cuda/12.8   3) openmpi/5.0  
name, uuid, driver_version, memory.total [MiB]
NVIDIA H200, GPU-b60018c6-edd1-fe08-817b-bb197ccce1df, 580.173.02, 143771 MiB
LAMMPS (22 Jul 2025 - Update 4)
  using 1 OpenMP thread(s) per MPI task
Created orthogonal box = (0 0 0) to (2.5958006e-05 2.5958006e-05 2.5958006e-05)
  1 by 1 by 1 MPI processor grid
Created 100000 atoms
  using lattice units in orthogonal box = (0 0 0) to (2.5958006e-05 2.5958006e-05 2.5958006e-05)
  create_atoms CPU = 114.228 seconds
Created 1000 atoms
  using lattice units in orthogonal box = (0 0 0) to (2.5958006e-05 2.5958006e-05 2.5958006e-05)
  create_atoms CPU = 2.217 seconds
1000 atoms in group Si
100000 atoms in group H

CITE-CITE-CITE-CITE-CITE-CITE-CITE-CITE-CITE-CITE-CITE-CITE-CITE

Your simulation uses code contributions which should be cited:
- GPU package (short-range, long-range and three-body potentials): doi:10.1016/j.cpc.2010.12.021, doi:10.1016/j.cpc.2011.10.012, doi:10.1016/j.cpc.2013.08.002, doi:10.1016/j.commatsci.2014.10.068, doi:10.1016/j.cpc.2016.10.020, doi:10.3233/APC200086
The log file lists these citations in BibTeX format.

CITE-CITE-CITE-CITE-CITE-CITE-CITE-CITE-CITE-CITE-CITE-CITE-CITE


--------------------------------------------------------------------------
- Using acceleration for yukawa:
-  with 1 proc(s) per device.
-  with 1 thread(s) per proc.
-  Horizontal vector operations: ENABLED
-  Shared memory system: No
--------------------------------------------------------------------------
Device 0: NVIDIA H200, 132 CUs, 1.4e+02/1.4e+02 GB, 2 GHZ (Mixed Precision)
--------------------------------------------------------------------------

Initializing Device and compiling on process 0...Done.
Initializing Device 0 on core 0...Done.

Generated 0 of 1 mixed pair_coeff terms from geometric mixing rule
Neighbor list info ...
  update: every = 1 steps, delay = 0 steps, check = yes
  max neighbors/atom: 10000, page size: 100000
  master list distance cutoff = 6.4137883e-06
  ghost atom cutoff = 6.4137883e-06
  binsize = 3.2068942e-06, bins = 9 9 9
  1 neighbor lists, perpetual/occasional/extra = 1 0 0
  (1) pair yukawa/gpu, perpetual
      attributes: full, newton on
      pair build: full/bin/atomonly
      stencil: full/bin/3d
      bin: standard
Setting up Verlet run ...
  Unit style    : cgs
  Current step  : 0
  Time step     : 3.16059156798749e-16
Per MPI rank memory allocation (min/avg/max) = 2678 | 2678 | 2678 Mbytes
   Step          Time           Temp         c_tempH        c_tempSi        TotEng         PotEng         KinEng         Press           v_k0           v_dt        v_collfreq       v_ccs     
         0   0              100000         99997.834      100316.89      3.2893843e-06  1.1977196e-06  2.0916646e-06  1.2739277e+08  623656.38      3.1605916e-16  1.2106247e+11  3.36875e-15  
      1000   3.1605916e-13  100062.68      100056.92      100739.46      3.2841435e-06  1.1911678e-06  2.0929757e-06  1.2728352e+08  623656.38      3.1605916e-16  1.2106247e+11  3.36875e-15  
      2000   6.3211831e-13  99860.458      99854.41       100565.73      3.2791888e-06  1.190443e-06   2.0887459e-06  1.2709812e+08  623656.38      3.1605916e-16  1.2106247e+11  3.36875e-15  
Loop time of 59.2949 on 1 procs for 2000 steps with 101000 atoms

99.3% CPU use with 1 MPI tasks x 1 OpenMP threads

MPI task timing breakdown:
Section |  min time  |  avg time  |  max time  |%varavg| %total
---------------------------------------------------------------
Pair    | 8.4527     | 8.4527     | 8.4527     |   0.0 | 14.26
Neigh   | 46.497     | 46.497     | 46.497     |   0.0 | 78.42
Comm    | 1.7356     | 1.7356     | 1.7356     |   0.0 |  2.93
Output  | 0.016346   | 0.016346   | 0.016346   |   0.0 |  0.03
Modify  | 1.7914     | 1.7914     | 1.7914     |   0.0 |  3.02
Other   |            | 0.8014     |            |       |  1.35

Nlocal:         101000 ave      101000 max      101000 min
Histogram: 1 0 0 0 0 0 0 0 0 0
Nghost:         235886 ave      235886 max      235886 min
Histogram: 1 0 0 0 0 0 0 0 0 0
Neighs:              0 ave           0 max           0 min
Histogram: 1 0 0 0 0 0 0 0 0 0
FullNghs:   6.4454e+08 ave  6.4454e+08 max  6.4454e+08 min
Histogram: 1 0 0 0 0 0 0 0 0 0

Total # of neighbors = 6.4454002e+08
Ave neighs/atom = 6381.5844
Neighbor list builds = 5
Dangerous builds = 0


---------------------------------------------------------------------
      Device Time Info (average): 
---------------------------------------------------------------------
Data Transfer:   0.3252 s.
Neighbor copy:   2.5226 s.
Neighbor unpack: 0.0000 s.
Force calc:      5.8159 s.
Device Overhead: 0.0731 s.
CPU Cast/Pack:   1.0248 s.
CPU Driver_Time: 0.0259 s.
CPU Idle_Time:   5.2917 s.
Average split:   1.0000.
Max Mem / Proc:  3097.52 MB.
Prefetch mode:   None.
Vector width:    32.
Lanes / atom:    4.
Pair block:      256.
Neigh block:     128.
Neigh mode:      Host.
---------------------------------------------------------------------


--------------------------------------------------------------------------
- Using acceleration for yukawa:
-  with 1 proc(s) per device.
-  with 1 thread(s) per proc.
-  Horizontal vector operations: ENABLED
-  Shared memory system: No
--------------------------------------------------------------------------
Device 0: NVIDIA H200, 132 CUs, 1.4e+02/1.4e+02 GB, 2 GHZ (Mixed Precision)
--------------------------------------------------------------------------

Initializing Device and compiling on process 0...Done.
Initializing Device 0 on core 0...Done.

Generated 0 of 1 mixed pair_coeff terms from geometric mixing rule
Setting up Verlet run ...
  Unit style    : cgs
  Current step  : 2000
  Time step     : 3.16059156798749e-16
Per MPI rank memory allocation (min/avg/max) = 2686 | 2686 | 2686 Mbytes
   Step          Time           Temp         c_tempH        c_tempSi        TotEng         PotEng         KinEng         Press     
      2000   6.3211831e-13  99877.171      99854.41       102255.46      3.2795384e-06  1.190443e-06   2.0890955e-06  1.2711144e+08
      3000   9.4817747e-13  99887.215      99859.771      102734.32      3.2795823e-06  1.1902768e-06  2.0893056e-06  1.2711637e+08
      4000   1.2642366e-12  99877.649      99848.02       102943.49      3.2795317e-06  1.1904263e-06  2.0891055e-06  1.2711154e+08
      5000   1.5802958e-12  99887.508      99857.776      102963.64      3.2795693e-06  1.1902576e-06  2.0893117e-06  1.2711592e+08
      6000   1.8963549e-12  99881.502      99839.687      104167.08      3.2795788e-06  1.1903927e-06  2.0891861e-06  1.2711728e+08
      7000   2.2124141e-12  99889.079      99848.447      104056.38      3.2795642e-06  1.1902196e-06  2.0893446e-06  1.2711692e+08
      8000   2.5284733e-12  99889.242      99846.948      104222.86      3.2795581e-06  1.1902101e-06  2.089348e-06   1.2711606e+08
      9000   2.8445324e-12  99896.961      99855.008      104196.41      3.2795359e-06  1.1900265e-06  2.0895094e-06  1.2711747e+08
     10000   3.1605916e-12  99868.656      99826.844      104153.91      3.2795399e-06  1.1906225e-06  2.0889174e-06  1.2710891e+08
     11000   3.4766507e-12  99886.041      99837.248      104870.19      3.279641e-06   1.19036e-06    2.089281e-06   1.271197e+08 
     12000   3.7927099e-12  99903.328      99859.723      104368.13      3.2795662e-06  1.1899236e-06  2.0896426e-06  1.2711974e+08
     13000   4.108769e-12   99896.331      99854.442      104189.36      3.2795057e-06  1.1900095e-06  2.0894962e-06  1.2711318e+08
     14000   4.4248282e-12  99898.957      99861.564      103741.98      3.2795476e-06  1.1899964e-06  2.0895512e-06  1.2711739e+08
     15000   4.7408874e-12  99899.277      99860.613      103869.47      3.2795612e-06  1.1900033e-06  2.0895579e-06  1.2711936e+08
     16000   5.0569465e-12  99876.719      99838.971      103755.25      3.2795021e-06  1.1904161e-06  2.089086e-06   1.2710864e+08
     17000   5.3730057e-12  99868.956      99833.272      103540.81      3.2795291e-06  1.1906054e-06  2.0889236e-06  1.2710955e+08
     18000   5.6890648e-12  99879.654      99847.626      103185.6       3.2795393e-06  1.1903919e-06  2.0891474e-06  1.2711178e+08
     19000   6.005124e-12   99903.916      99873.469      103051.62      3.2795796e-06  1.1899247e-06  2.0896549e-06  1.2712324e+08
     20000   6.3211831e-12  99888.623      99858.158      103038.11      3.2795701e-06  1.1902351e-06  2.089335e-06   1.2711616e+08
     21000   6.6372423e-12  99898.349      99865.444      103292.07      3.2795019e-06  1.1899635e-06  2.0895384e-06  1.2711561e+08
     22000   6.9533014e-12  99882.18       99849.856      103217.75      3.279533e-06   1.1903328e-06  2.0892002e-06  1.2711216e+08
     23000   7.2693606e-12  99887.601      99850.47       103704.36      3.2795368e-06  1.1902232e-06  2.0893136e-06  1.2711361e+08
     24000   7.5854198e-12  99911.597      99878.288      103345.73      3.2794927e-06  1.1896771e-06  2.0898155e-06  1.2711866e+08
     25000   7.9014789e-12  99883.749      99844.106      103951.94      3.2795683e-06  1.1903352e-06  2.0892331e-06  1.2711419e+08
     26000   8.2175381e-12  99882.709      99843.864      103871.08      3.2795055e-06  1.1902942e-06  2.0892113e-06  1.2711079e+08
     27000   8.5335972e-12  99902.467      99860.476      104205.72      3.2794934e-06  1.1898688e-06  2.0896246e-06  1.2711771e+08
     28000   8.8496564e-12  99873.683      99831.577      104188.41      3.2795447e-06  1.1905221e-06  2.0890225e-06  1.2711346e+08
     29000   9.1657155e-12  99864.826      99827.485      103702.63      3.2795674e-06  1.1907302e-06  2.0888373e-06  1.2711187e+08
     30000   9.4817747e-12  99868.781      99835.112      103338.97      3.2795098e-06  1.1905898e-06  2.08892e-06    1.2710902e+08
     31000   9.7978339e-12  99899.482      99871.921      102758.39      3.2794788e-06  1.1899167e-06  2.0895622e-06  1.2711482e+08
     32000   1.0113893e-11  99892.325      99866.552      102572.19      3.2795157e-06  1.1901032e-06  2.0894124e-06  1.2711593e+08
     33000   1.0429952e-11  99896.73       99869.531      102719.35      3.2794853e-06  1.1899807e-06  2.0895046e-06  1.2711685e+08
     34000   1.0746011e-11  99890.789      99862.861      102786.27      3.279454e-06   1.1900737e-06  2.0893803e-06  1.2711055e+08
     35000   1.106207e-11   99890.081      99858.464      103154.92      3.2795346e-06  1.1901691e-06  2.0893655e-06  1.2711534e+08
     36000   1.137813e-11   99891.295      99861.62       102961.76      3.2795018e-06  1.1901109e-06  2.0893909e-06  1.2711438e+08
     37000   1.1694189e-11  99881.39       99853.046      102818.64      3.2794754e-06  1.1902916e-06  2.0891837e-06  1.2711108e+08
     38000   1.2010248e-11  99877.421      99846.098      103112.75      3.2795163e-06  1.1904157e-06  2.0891007e-06  1.2711201e+08
     39000   1.2326307e-11  99886.484      99855.4        103097.95      3.2795228e-06  1.1902325e-06  2.0892903e-06  1.2711554e+08
     40000   1.2642366e-11  99895.989      99857.813      103817.37      3.2795429e-06  1.1900538e-06  2.0894891e-06  1.2711994e+08
     41000   1.2958425e-11  99919.115      99873.998      104535.36      3.2795259e-06  1.1895531e-06  2.0899728e-06  1.2712534e+08
     42000   1.3274485e-11  99892.305      99844.155      104812.1       3.279481e-06   1.1900689e-06  2.089412e-06   1.2711323e+08
     43000   1.3590544e-11  99887.74       99837.179      105048.86      3.2795174e-06  1.1902008e-06  2.0893165e-06  1.2711266e+08
     44000   1.3906603e-11  99890.083      99841.62       104841.18      3.2794959e-06  1.1901303e-06  2.0893656e-06  1.2711446e+08
     45000   1.4222662e-11  99864.012      99816.024      104767.56      3.2795173e-06  1.190697e-06   2.0888202e-06  1.2710621e+08
     46000   1.4538721e-11  99859.824      99812.591      104687.72      3.2795415e-06  1.1908089e-06  2.0887326e-06  1.2710735e+08
     47000   1.485478e-11   99866.216      99816.652      104927.44      3.2795878e-06  1.1907215e-06  2.0888663e-06  1.2711185e+08
     48000   1.517084e-11   99893.395      99844.772      104860.46      3.2794848e-06  1.1900499e-06  2.0894348e-06  1.2711505e+08
     49000   1.5486899e-11  99883.917      99831.86       105194.72      3.2795406e-06  1.1903041e-06  2.0892366e-06  1.2711494e+08
     50000   1.5802958e-11  99867.312      99815.791      105124.5       3.2795835e-06  1.1906943e-06  2.0888893e-06  1.2711305e+08
     51000   1.6119017e-11  99885.465      99840.088      104527.66      3.2795674e-06  1.1902984e-06  2.089269e-06   1.271185e+08 
     52000   1.6435076e-11  99894.864      99842.126      105273.91      3.2794866e-06  1.1900211e-06  2.0894656e-06  1.2711558e+08
     53000   1.6751135e-11  99870.955      99817.116      105360.11      3.2795433e-06  1.1905779e-06  2.0889655e-06  1.271112e+08 
     54000   1.7067194e-11  99872.405      99817.315      105486.79      3.2795547e-06  1.190559e-06   2.0889958e-06  1.2711314e+08
     55000   1.7383254e-11  99870.563      99817.959      105236.18      3.2795634e-06  1.1906061e-06  2.0889573e-06  1.271115e+08 
     56000   1.7699313e-11  99890.098      99842.059      104798.76      3.279565e-06   1.1901991e-06  2.0893659e-06  1.2711892e+08
     57000   1.8015372e-11  99864.422      99812.477      105164.06      3.2794783e-06  1.1906495e-06  2.0888288e-06  1.271044e+08 
     58000   1.8331431e-11  99872.113      99815.534      105635.62      3.2795061e-06  1.1905164e-06  2.0889897e-06  1.2710963e+08
     59000   1.864749e-11   99869.838      99815.257      105433.27      3.2795317e-06  1.1905896e-06  2.0889421e-06  1.2711101e+08
     60000   1.8963549e-11  99893.292      99841.549      105172.72      3.2795251e-06  1.1900924e-06  2.0894327e-06  1.2711906e+08
     61000   1.9279609e-11  99890.315      99843.677      104658.7       3.2795069e-06  1.1901365e-06  2.0893704e-06  1.2711494e+08
     62000   1.9595668e-11  99886.578      99838.461      104803.05      3.2795025e-06  1.1902103e-06  2.0892922e-06  1.2711332e+08
     63000   1.9911727e-11  99884.841      99837.877      104685.88      3.2795728e-06  1.1903169e-06  2.0892559e-06  1.2711848e+08
     64000   2.0227786e-11  99878.624      99830.574      104788.37      3.2795389e-06  1.190413e-06   2.0891259e-06  1.2711419e+08
     65000   2.0543845e-11  99870.228      99825.61       104436.44      3.279501e-06   1.1905508e-06  2.0889502e-06  1.2710688e+08
     66000   2.0859904e-11  99861.814      99818.665      104280.99      3.2794518e-06  1.1906776e-06  2.0887743e-06  1.2710201e+08
     67000   2.1175964e-11  99882.904      99843.85       103892.15      3.2794462e-06  1.1902308e-06  2.0892154e-06  1.2710786e+08
     68000   2.1492023e-11  99896.138      99860.907      103522.76      3.2794868e-06  1.1899946e-06  2.0894922e-06  1.2711539e+08
     69000   2.1808082e-11  99877.495      99837.858      103945.04      3.2795127e-06  1.1904104e-06  2.0891022e-06  1.2711061e+08
     70000   2.2124141e-11  99873.73       99832.919      104058.84      3.2795244e-06  1.1905009e-06  2.0890235e-06  1.2711185e+08
     71000   2.24402e-11    99890.143      99851.256      103882.63      3.2795506e-06  1.1901838e-06  2.0893668e-06  1.2711625e+08
     72000   2.2756259e-11  99886.46       99847.624      103873.82      3.2794425e-06  1.1901527e-06  2.0892898e-06  1.2710862e+08
     73000   2.3072318e-11  99902.606      99869.7        103296.5       3.2794886e-06  1.1898611e-06  2.0896275e-06  1.2711704e+08
     74000   2.3388378e-11  99859.163      99830.475      102830.73      3.2795911e-06  1.1908723e-06  2.0887188e-06  1.2710925e+08
     75000   2.3704437e-11  99900.75       99870.732      103005.54      3.2795507e-06  1.189962e-06   2.0895887e-06  1.2712078e+08
     76000   2.4020496e-11  99894.617      99865.61       102898.15      3.2795301e-06  1.1900697e-06  2.0894604e-06  1.2711683e+08
     77000   2.4336555e-11  99864.487      99827.124      103704.42      3.2795336e-06  1.1907034e-06  2.0888302e-06  1.2710863e+08
     78000   2.4652614e-11  99894.627      99860.354      103425.3       3.2795495e-06  1.1900889e-06  2.0894606e-06  1.2712021e+08
     79000   2.4968673e-11  99891.965      99857.57       103434.87      3.2795267e-06  1.1901218e-06  2.0894049e-06  1.271164e+08 
     80000   2.5284733e-11  99875.5        99846.98       102830.32      3.2795521e-06  1.1904915e-06  2.0890605e-06  1.2711285e+08
     81000   2.5600792e-11  99889.495      99857.6        103182.15      3.2794942e-06  1.190141e-06   2.0893532e-06  1.271134e+08 
     82000   2.5916851e-11  99881.113      99842.412      103855.06      3.2795021e-06  1.1903241e-06  2.0891779e-06  1.2711174e+08
     83000   2.623291e-11   99894.899      99861.738      103314.24      3.2795247e-06  1.1900584e-06  2.0894663e-06  1.2711867e+08
     84000   2.6548969e-11  99879.327      99844.372      103478.32      3.2795515e-06  1.1904109e-06  2.0891406e-06  1.2711199e+08
     85000   2.6865028e-11  99917.061      99880.381      103688.7       3.2795561e-06  1.1896262e-06  2.0899298e-06  1.2712655e+08
     86000   2.7181087e-11  99878.871      99839.518      103918.13      3.2795331e-06  1.1904021e-06  2.089131e-06   1.271116e+08 
     87000   2.7497147e-11  99884.963      99845.349      103950.31      3.2795647e-06  1.1903063e-06  2.0892585e-06  1.2711645e+08
     88000   2.7813206e-11  99899.222      99858.188      104106.61      3.279546e-06   1.1899893e-06  2.0895567e-06  1.2711814e+08
     89000   2.8129265e-11  99870.839      99829.588      104099.97      3.2795907e-06  1.1906277e-06  2.088963e-06   1.2711298e+08
     90000   2.8445324e-11  99891.735      99855.768      103591.98      3.2795465e-06  1.1901464e-06  2.0894001e-06  1.2711628e+08
     91000   2.8761383e-11  99880.778      99847.106      103351.34      3.2795496e-06  1.1903787e-06  2.0891709e-06  1.2711173e+08
     92000   2.9077442e-11  99875.391      99840.978      103420.02      3.2795388e-06  1.1904805e-06  2.0890582e-06  1.271091e+08 
     93000   2.9393502e-11  99873.257      99836.853      103617.28      3.2794944e-06  1.1904808e-06  2.0890136e-06  1.2710626e+08
     94000   2.9709561e-11  99893.392      99857.071      103629.04      3.2795588e-06  1.190124e-06   2.0894348e-06  1.2711763e+08
     95000   3.002562e-11   99900.63       99866.21       103446         3.2795522e-06  1.189966e-06   2.0895861e-06  1.2711794e+08
     96000   3.0341679e-11  99899.862      99865.139      103475.57      3.279506e-06   1.189936e-06   2.0895701e-06  1.2711542e+08
     97000   3.0657738e-11  99907.469      99872.456      103512.24      3.2795585e-06  1.1898293e-06  2.0897292e-06  1.2712091e+08
     98000   3.0973797e-11  99886.216      99848.443      103767.24      3.2796059e-06  1.1903212e-06  2.0892847e-06  1.2711594e+08
     99000   3.1289857e-11  99889.629      99854.087      103547.37      3.2795957e-06  1.1902396e-06  2.0893561e-06  1.271189e+08 
    100000   3.1605916e-11  99885.66       99850.878      103467.38      3.2795701e-06  1.1902971e-06  2.089273e-06   1.271151e+08 
    101000   3.1921975e-11  99898.849      99865.418      103345.26      3.279494e-06   1.1899451e-06  2.0895489e-06  1.271159e+08 
    102000   3.2238034e-11  99888.459      99855.544      103283.2       3.2795249e-06  1.1901933e-06  2.0893316e-06  1.2711316e+08
    103000   3.2554093e-11  99875.426      99841.825      103338.92      3.2795673e-06  1.1905083e-06  2.089059e-06   1.2711449e+08
    104000   3.2870152e-11  99901.373      99873.658      102775.58      3.2795526e-06  1.189951e-06   2.0896017e-06  1.2712013e+08
    105000   3.3186211e-11  99875.158      99840.664      103427.97      3.2796441e-06  1.1905908e-06  2.0890534e-06  1.2711924e+08
    106000   3.3502271e-11  99884.532      99846.335      103807.99      3.2795959e-06  1.1903465e-06  2.0892494e-06  1.2711702e+08
    107000   3.381833e-11   99879.304      99848.939      103018.86      3.2794853e-06  1.1903452e-06  2.0891401e-06  1.2710824e+08
    108000   3.4134389e-11  99866.109      99834.162      103163.93      3.279568e-06   1.1907039e-06  2.0888641e-06  1.2710965e+08
    109000   3.4450448e-11  99862.77       99826.842      103559.11      3.2795789e-06  1.1907846e-06  2.0887943e-06  1.2711042e+08
    110000   3.4766507e-11  99893.126      99854.485      103861.08      3.2795558e-06  1.1901266e-06  2.0894292e-06  1.2711912e+08
    111000   3.5082566e-11  99881.676      99837.77       104376.58      3.2795723e-06  1.1903826e-06  2.0891897e-06  1.2711588e+08
    112000   3.5398626e-11  99869.209      99821.659      104728.96      3.2796012e-06  1.1906722e-06  2.0889289e-06  1.2711256e+08
    113000   3.5714685e-11  99895.6        99854.169      104142.81      3.2795657e-06  1.1900847e-06  2.0894809e-06  1.2711981e+08
    114000   3.6030744e-11  99867.491      99823.003      104420.58      3.2795707e-06  1.1906778e-06  2.088893e-06   1.2711059e+08
    115000   3.6346803e-11  99891.419      99844.746      104663.3       3.2795428e-06  1.1901493e-06  2.0893935e-06  1.2711619e+08
    116000   3.6662862e-11  99895.053      99850.267      104478.06      3.2795674e-06  1.1900979e-06  2.0894695e-06  1.271198e+08 
    117000   3.6978921e-11  99861          99821.877      103877.11      3.2795991e-06  1.1908418e-06  2.0887572e-06  1.271112e+08 
    118000   3.7294981e-11  99865.734      99833.429      103199.32      3.279581e-06   1.1907247e-06  2.0888562e-06  1.2711105e+08
    119000   3.761104e-11   99883.519      99846.37       103702.07      3.2796145e-06  1.1903863e-06  2.0892283e-06  1.2711853e+08
    120000   3.7927099e-11  99888.242      99857.562      103059.3       3.2795831e-06  1.190256e-06   2.089327e-06   1.2711691e+08
    121000   3.8243158e-11  99885.202      99856.252      102883.05      3.2795883e-06  1.1903249e-06  2.0892635e-06  1.2711692e+08
    122000   3.8559217e-11  99881.192      99848.326      103271.02      3.2796139e-06  1.1904343e-06  2.0891796e-06  1.2711719e+08
    123000   3.8875276e-11  99880.88       99855.557      102515.64      3.2795652e-06  1.1903921e-06  2.089173e-06   1.2711412e+08
    124000   3.9191335e-11  99883.26       99855.547      102757.3       3.2796522e-06  1.1904294e-06  2.0892228e-06  1.2711959e+08
    125000   3.9507395e-11  99885.753      99861.051      102458.38      3.2795858e-06  1.1903109e-06  2.089275e-06   1.2711667e+08
    126000   3.9823454e-11  99887.465      99858.156      102921.25      3.2795227e-06  1.1902119e-06  2.0893108e-06  1.2711294e+08
    127000   4.0139513e-11  99883.194      99847.806      103525.43      3.2795649e-06  1.1903435e-06  2.0892214e-06  1.2711652e+08
    128000   4.0455572e-11  99894.32       99850.81       104349.64      3.2795829e-06  1.1901287e-06  2.0894542e-06  1.2711933e+08
    129000   4.0771631e-11  99890.454      99851.644      103875.27      3.2795645e-06  1.1901912e-06  2.0893733e-06  1.2711732e+08
    130000   4.108769e-11   99893.818      99857.267      103652.61      3.2795192e-06  1.1900755e-06  2.0894437e-06  1.2711556e+08
    131000   4.140375e-11   99876.349      99838.451      103769.91      3.2795473e-06  1.190469e-06   2.0890783e-06  1.2711091e+08
    132000   4.1719809e-11  99882.515      99844.333      103804.54      3.2795405e-06  1.1903332e-06  2.0892073e-06  1.2711356e+08
    133000   4.2035868e-11  99880.656      99845.8        103469.68      3.2796068e-06  1.1904385e-06  2.0891684e-06  1.2711704e+08
    134000   4.2351927e-11  99887.04       99854.113      103282.99      3.2795409e-06  1.1902389e-06  2.0893019e-06  1.2711574e+08
    135000   4.2667986e-11  99893.411      99859.963      103341.47      3.2795557e-06  1.1901205e-06  2.0894352e-06  1.2711937e+08
    136000   4.2984045e-11  99878.613      99847.237      103119.34      3.2795515e-06  1.1904259e-06  2.0891256e-06  1.2711375e+08
    137000   4.3300104e-11  99879.356      99845.34       103384.31      3.2794945e-06  1.1903533e-06  2.0891412e-06  1.2710957e+08
    138000   4.3616164e-11  99891.235      99858.223      103295.69      3.2795748e-06  1.1901851e-06  2.0893897e-06  1.2711763e+08
    139000   4.3932223e-11  99901.076      99862.679      103844.62      3.2795073e-06  1.1899118e-06  2.0895955e-06  1.2711744e+08
    140000   4.4248282e-11  99861.661      99816.593      104472.97      3.2795014e-06  1.1907304e-06  2.0887711e-06  1.2710438e+08
    141000   4.4564341e-11  99904.296      99858.917      104546.67      3.2794961e-06  1.1898333e-06  2.0896628e-06  1.2711771e+08
    142000   4.48804e-11    99882.298      99832.123      105004.75      3.2795214e-06  1.1903187e-06  2.0892027e-06  1.2711028e+08
    143000   4.5196459e-11  99901.949      99852.008      105001.09      3.2794865e-06  1.1898727e-06  2.0896138e-06  1.2711663e+08
    144000   4.5512519e-11  99875.628      99834.221      104120.47      3.2794944e-06  1.1904312e-06  2.0890632e-06  1.2710849e+08
    145000   4.5828578e-11  99883.9        99844.907      103887.01      3.2794888e-06  1.1902526e-06  2.0892362e-06  1.2710921e+08
    146000   4.6144637e-11  99879.647      99836.504      104298.21      3.2795867e-06  1.1904394e-06  2.0891473e-06  1.271166e+08 
    147000   4.6460696e-11  99878.371      99832.784      104541.64      3.2795311e-06  1.1904106e-06  2.0891206e-06  1.2711181e+08
    148000   4.6776755e-11  99871.943      99829.617      104208.64      3.2795237e-06  1.1905376e-06  2.0889861e-06  1.271081e+08 
    149000   4.7092814e-11  99888.21       99854.848      103327.63      3.2794878e-06  1.1901614e-06  2.0893264e-06  1.2711288e+08
    150000   4.7408874e-11  99899.399      99872.259      102716.12      3.2795806e-06  1.1900202e-06  2.0895604e-06  1.2712134e+08
    151000   4.7724933e-11  99888.825      99866.086      102264.9       3.2795656e-06  1.1902264e-06  2.0893392e-06  1.2711724e+08
    152000   4.8040992e-11  99886.373      99865.653      102060.38      3.2795872e-06  1.1902992e-06  2.089288e-06   1.2711881e+08
    153000   4.8357051e-11  99889.345      99868.833      102042.49      3.2795814e-06  1.1902313e-06  2.0893501e-06  1.2711973e+08
    154000   4.867311e-11   99886.393      99861.947      102433.34      3.2795563e-06  1.1902679e-06  2.0892884e-06  1.2711625e+08
    155000   4.8989169e-11  99879.508      99860.974      101834.76      3.2795991e-06  1.1904547e-06  2.0891444e-06  1.2711578e+08
    156000   4.9305228e-11  99873.123      99853.229      101964.43      3.2795327e-06  1.1905219e-06  2.0890108e-06  1.2710953e+08
    157000   4.9621288e-11  99876.412      99858.659      101753.52      3.2795328e-06  1.1904532e-06  2.0890796e-06  1.2710943e+08
    158000   4.9937347e-11  99877.614      99861.085      101632.12      3.2795502e-06  1.1904454e-06  2.0891047e-06  1.2711187e+08
    159000   5.0253406e-11  99870.433      99851.423      101873.22      3.2795793e-06  1.1906248e-06  2.0889545e-06  1.2711441e+08
    160000   5.0569465e-11  99879.349      99861.866      101729.33      3.279559e-06   1.190418e-06   2.089141e-06   1.2711294e+08
    161000   5.0885524e-11  99897.703      99884.15       101354.32      3.2795338e-06  1.1900088e-06  2.0895249e-06  1.2711773e+08
    162000   5.1201583e-11  99896.607      99886.339      101024.37      3.2795765e-06  1.1900745e-06  2.089502e-06   1.2712149e+08
    163000   5.1517643e-11  99876.622      99859.497      101690.8       3.2795976e-06  1.1905136e-06  2.089084e-06   1.271138e+08 
    164000   5.1833702e-11  99876.265      99856.74       101930.69      3.2795852e-06  1.1905086e-06  2.0890765e-06  1.2711447e+08
    165000   5.2149761e-11  99878.662      99860.337      101812.98      3.2795683e-06  1.1904417e-06  2.0891267e-06  1.2711274e+08
    166000   5.246582e-11   99872.916      99858.434      101422.53      3.2796138e-06  1.1906074e-06  2.0890065e-06  1.2711369e+08
    167000   5.2781879e-11  99878.921      99869.732      100898.71      3.2796264e-06  1.1904943e-06  2.0891321e-06  1.2711721e+08
    168000   5.3097938e-11  99880.9        99871.319      100939.91      3.2795952e-06  1.1904217e-06  2.0891735e-06  1.2711667e+08
    169000   5.3413997e-11  99902.027      99893.701      100835.46      3.2795309e-06  1.1899155e-06  2.0896154e-06  1.2711753e+08
    170000   5.3730057e-11  99917.298      99906.935      101054.69      3.2795593e-06  1.1896245e-06  2.0899348e-06  1.2712375e+08
    171000   5.4046116e-11  99885.834      99875.021      101068.16      3.2795016e-06  1.1902249e-06  2.0892767e-06  1.2711223e+08
    172000   5.4362175e-11  99870.351      99859.763      101030.17      3.2795506e-06  1.1905978e-06  2.0889528e-06  1.2710912e+08
    173000   5.4678234e-11  99884.934      99866.748      101805.36      3.2795684e-06  1.1903106e-06  2.0892579e-06  1.2711409e+08
    174000   5.4994293e-11  99913.128      99898.841      101443.28      3.2795422e-06  1.1896946e-06  2.0898476e-06  1.2712225e+08
    175000   5.5310352e-11  99880.404      99875.104      100510.86      3.2794943e-06  1.1903312e-06  2.0891631e-06  1.2710717e+08
    176000   5.5626412e-11  99875.237      99868.868      100612.74      3.2795995e-06  1.1905444e-06  2.089055e-06   1.2711323e+08
    177000   5.5942471e-11  99874.804      99876.233      99831.796      3.2796175e-06  1.1905716e-06  2.089046e-06   1.2711517e+08
    178000   5.625853e-11   99886.089      99886.298      99965.138      3.2795792e-06  1.1902971e-06  2.089282e-06   1.2711553e+08
    179000   5.6574589e-11  99902.629      99901.26       100139.73      3.2795469e-06  1.1899189e-06  2.089628e-06   1.2711968e+08
    180000   5.6890648e-11  99889.588      99891.481      99800.006      3.2795755e-06  1.1902203e-06  2.0893552e-06  1.2711535e+08
    181000   5.7206707e-11  99896.468      99901.653      99477.517      3.2795394e-06  1.1900403e-06  2.0894991e-06  1.2711546e+08
    182000   5.7522767e-11  99892.785      99898.374      99433.341      3.2795766e-06  1.1901546e-06  2.0894221e-06  1.2711623e+08
    183000   5.7838826e-11  99857.782      99860.072      99728.496      3.2795402e-06  1.1908503e-06  2.0886899e-06  1.2710381e+08
    184000   5.8154885e-11  99884.098      99883.308      100063.17      3.2796631e-06  1.1904227e-06  2.0892404e-06  1.2712012e+08
    185000   5.8470944e-11  99885.11       99878.041      100692.74      3.2795709e-06  1.1903093e-06  2.0892615e-06  1.2711534e+08
    186000   5.8787003e-11  99894.086      99888.449      100558.41      3.2796333e-06  1.190184e-06   2.0894493e-06  1.2712056e+08
    187000   5.9103062e-11  99890.165      99882.355      100771.88      3.2795852e-06  1.190218e-06   2.0893673e-06  1.2711844e+08
    188000   5.9419121e-11  99882.256      99874.63       100745.67      3.279582e-06   1.1903801e-06  2.0892018e-06  1.2711436e+08
    189000   5.9735181e-11  99880.803      99871.273      100934.68      3.2796003e-06  1.1904288e-06  2.0891714e-06  1.2711472e+08
    190000   6.005124e-11   99891.907      99883.661      100817.26      3.2795853e-06  1.1901816e-06  2.0894037e-06  1.2711701e+08
    191000   6.0367299e-11  99901.721      99896.066      100567.78      3.2795124e-06  1.1899034e-06  2.089609e-06   1.271166e+08 
    192000   6.0683358e-11  99873.124      99869.607      100325.13      3.2795694e-06  1.1905586e-06  2.0890108e-06  1.2711054e+08
    193000   6.0999417e-11  99915.102      99914.405      100084.88      3.2796317e-06  1.1897428e-06  2.0898889e-06  1.2712939e+08
    194000   6.1315476e-11  99882.643      99883.762      99870.695      3.2796222e-06  1.1904123e-06  2.0892099e-06  1.2711648e+08
    195000   6.1631536e-11  99885.901      99889.031      99672.664      3.2795278e-06  1.1902497e-06  2.0892781e-06  1.2710991e+08
    196000   6.1947595e-11  99887.226      99889.528      99756.838      3.2795384e-06  1.1902326e-06  2.0893058e-06  1.2711292e+08
    197000   6.2263654e-11  99894.941      99892.62       100227.35      3.2796051e-06  1.1901379e-06  2.0894672e-06  1.2712065e+08
    198000   6.2579713e-11  99887.292      99878.372      100880.17      3.2795904e-06  1.1902832e-06  2.0893072e-06  1.2711614e+08
    199000   6.2895772e-11  99897.997      99888.586      100940.11      3.2795964e-06  1.1900653e-06  2.0895311e-06  1.271208e+08 
    200000   6.3211831e-11  99883.699      99877.496      100604.64      3.2795438e-06  1.1903118e-06  2.089232e-06   1.2711115e+08
    201000   6.3527891e-11  99881.527      99876.029      100531.91      3.2795625e-06  1.1903759e-06  2.0891866e-06  1.2711202e+08
    202000   6.384395e-11   99879.214      99873.264      100574.76      3.2795886e-06  1.1904504e-06  2.0891382e-06  1.2711212e+08
    203000   6.4160009e-11  99892.812      99890.096      100264.71      3.2795779e-06  1.1901553e-06  2.0894226e-06  1.2711625e+08
    204000   6.4476068e-11  99901.209      99899.568      100165.48      3.2795991e-06  1.1900008e-06  2.0895983e-06  1.2712137e+08
    205000   6.4792127e-11  99905.444      99902.397      100310.47      3.2795639e-06  1.189877e-06   2.0896869e-06  1.2711978e+08
    206000   6.5108186e-11  99895.765      99892.292      100343.4       3.2795164e-06  1.190032e-06   2.0894844e-06  1.2711408e+08
    207000   6.5424245e-11  99905.887      99911.69       99425.011      3.2795759e-06  1.1898798e-06  2.0896961e-06  1.2712049e+08
    208000   6.5740305e-11  99890.652      99895.795      99475.915      3.2798701e-06  1.1904926e-06  2.0893775e-06  1.2712438e+08
    209000   6.6056364e-11  99885.614      99892.423      99304.006      3.2798816e-06  1.1906095e-06  2.0892721e-06  1.2712573e+08
    210000   6.6372423e-11  99886.445      99894.246      99205.604      3.279869e-06   1.1905795e-06  2.0892895e-06  1.2712306e+08
    211000   6.6688482e-11  99882.509      99889.357      99297.071      3.2798527e-06  1.1906455e-06  2.0892071e-06  1.2712129e+08
    212000   6.7004541e-11  99910.98       99913.879      99720.756      3.2798707e-06  1.190068e-06   2.0898026e-06  1.2713124e+08
    213000   6.73206e-11    99898.898      99903.646      99523.621      3.2798989e-06  1.190349e-06   2.0895499e-06  1.2712762e+08
    214000   6.763666e-11   99905.036      99911.262      99381.827      3.2798236e-06  1.1901453e-06  2.0896783e-06  1.2712489e+08
    215000   6.7952719e-11  99878.121      99881.327      99657.256      3.2798566e-06  1.1907413e-06  2.0891154e-06  1.2711834e+08
    216000   6.8268778e-11  99908.727      99913.418      99539.125      3.2799104e-06  1.1901549e-06  2.0897555e-06  1.2713327e+08
    217000   6.8584837e-11  99886.236      99895.56       99052.912      3.2799062e-06  1.1906211e-06  2.0892851e-06  1.2712707e+08
    218000   6.8900896e-11  99901.635      99908.041      99360.458      3.2798319e-06  1.1902247e-06  2.0896072e-06  1.2712515e+08
    219000   6.9216955e-11  99898.503      99901.689      99679.524      3.2798252e-06  1.1902836e-06  2.0895417e-06  1.271246e+08 
    220000   6.9533014e-11  99910.119      99907.478      100274.52      3.2798605e-06  1.1900759e-06  2.0897846e-06  1.2712956e+08
    221000   6.9849074e-11  99929.658      99922.308      100765.46      3.2798084e-06  1.189615e-06   2.0901933e-06  1.2713301e+08
    222000   7.0165133e-11  99893.301      99889.413      100382.52      3.2798559e-06  1.1904231e-06  2.0894329e-06  1.2712289e+08
    223000   7.0481192e-11  99892.286      99885.652      100656.41      3.2799078e-06  1.1904961e-06  2.0894116e-06  1.2712662e+08
    224000   7.0797251e-11  99876.891      99870.884      100578.23      3.2798224e-06  1.1907328e-06  2.0890896e-06  1.2711591e+08
    225000   7.111331e-11   99909.068      99901.258      100790.82      3.279881e-06   1.1901184e-06  2.0897626e-06  1.2712986e+08
    226000   7.1429369e-11  99889.722      99882.689      100693.75      3.2798474e-06  1.1904894e-06  2.089358e-06   1.2712163e+08
    227000   7.1745429e-11  99899.262      99891.59       100767.25      3.2798811e-06  1.1903236e-06  2.0895575e-06  1.2712614e+08
    228000   7.2061488e-11  99906.604      99893.502      101318.08      3.2798435e-06  1.1901324e-06  2.0897111e-06  1.2712554e+08
    229000   7.2377547e-11  99906.241      99891.839      101447.87      3.2798629e-06  1.1901594e-06  2.0897035e-06  1.2712627e+08
    230000   7.2693606e-11  99899.543      99889.69       100985.83      3.2797516e-06  1.1901882e-06  2.0895634e-06  1.271197e+08 
    231000   7.3009665e-11  99883.008      99867.451      101540.22      3.2798521e-06  1.1906346e-06  2.0892176e-06  1.271205e+08 
    232000   7.3325724e-11  99893.47       99878.662      101475.8       3.2798515e-06  1.1904151e-06  2.0894364e-06  1.2712383e+08
    233000   7.3641784e-11  99898.054      99880.759      101729.36      3.2799148e-06  1.1903826e-06  2.0895323e-06  1.271306e+08 
    234000   7.3957843e-11  99897.208      99883.47       101372.29      3.2798948e-06  1.1903802e-06  2.0895146e-06  1.271281e+08 
    235000   7.4273902e-11  99886.037      99878.631      100727.33      3.2798825e-06  1.1906016e-06  2.0892809e-06  1.271235e+08 
    236000   7.4589961e-11  99898.118      99893.74       100436.39      3.279888e-06   1.1903544e-06  2.0895336e-06  1.2712719e+08
    237000   7.490602e-11   99887.397      99882.618      100465.79      3.2798899e-06  1.1905805e-06  2.0893094e-06  1.2712379e+08
    238000   7.5222079e-11  99884.048      99875.173      100872.5       3.2798599e-06  1.1906205e-06  2.0892393e-06  1.2712068e+08
    239000   7.5538138e-11  99915.15       99904.973      101033.93      3.2798405e-06  1.1899507e-06  2.0898899e-06  1.2713075e+08
    240000   7.5854198e-11  99915.766      99906.709      100922.4       3.2798273e-06  1.1899246e-06  2.0899028e-06  1.2712842e+08
    241000   7.6170257e-11  99902.081      99892.971      100913.97      3.279885e-06   1.1902685e-06  2.0896165e-06  1.2712599e+08
    242000   7.6486316e-11  99892.04       99878.8        101317.35      3.2799107e-06  1.1905042e-06  2.0894065e-06  1.2712334e+08
    243000   7.6802375e-11  99919.209      99914.153      100525.27      3.2798974e-06  1.1899226e-06  2.0899748e-06  1.2713124e+08
    244000   7.7118434e-11  99877.696      99873.467      100400.98      3.2799439e-06  1.1908375e-06  2.0891065e-06  1.2712357e+08
    245000   7.7434493e-11  99917.67       99910.695      100715.9       3.2799558e-06  1.1900132e-06  2.0899426e-06  1.2713653e+08
    246000   7.7750553e-11  99892.334      99884.203      100806.19      3.2799917e-06  1.1905791e-06  2.0894126e-06  1.2713142e+08
    247000   7.8066612e-11  99902.733      99897.304      100546.25      3.2798957e-06  1.1902655e-06  2.0896302e-06  1.2712679e+08
    248000   7.8382671e-11  99895.098      99892.681      100237.05      3.2798983e-06  1.1904278e-06  2.0894705e-06  1.2712562e+08
    249000   7.869873e-11   99884.674      99880.568      100395.71      3.2799665e-06  1.1907141e-06  2.0892524e-06  1.2712353e+08
    250000   7.9014789e-11  99893.848      99888.593      100519.9       3.2799259e-06  1.1904816e-06  2.0894443e-06  1.2712477e+08
    251000   7.9330848e-11  99910.668      99908.522      100225.55      3.2799092e-06  1.1901131e-06  2.0897961e-06  1.2712712e+08
    252000   7.9646908e-11  99893.933      99894.06       99981.209      3.2799417e-06  1.1904956e-06  2.0894461e-06  1.2712353e+08
    253000   7.9962967e-11  99916.424      99911.752      100484.14      3.2800051e-06  1.1900886e-06  2.0899165e-06  1.2713546e+08
    254000   8.0279026e-11  99883.494      99874.908      100842.92      3.2799659e-06  1.1907382e-06  2.0892277e-06  1.271232e+08 
    255000   8.0595085e-11  99879.103      99873.58       100531.94      3.2800327e-06  1.1908968e-06  2.0891359e-06  1.2712543e+08
    256000   8.0911144e-11  99904.139      99898.644      100554.15      3.2799722e-06  1.1903126e-06  2.0896595e-06  1.2713204e+08
    257000   8.1227203e-11  99891.494      99885.457      100595.7       3.2799836e-06  1.1905886e-06  2.0893951e-06  1.2712744e+08
    258000   8.1543262e-11  99906.546      99892.451      101417.49      3.2799339e-06  1.190224e-06   2.0897099e-06  1.2712881e+08
    259000   8.1859322e-11  99899.949      99881.706      101826.03      3.2799693e-06  1.1903973e-06  2.0895719e-06  1.2712934e+08
    260000   8.2175381e-11  99907.839      99897.187      101074.02      3.2799018e-06  1.1901649e-06  2.0897369e-06  1.2712685e+08
    261000   8.249144e-11   99894.16       99891.875      100222.93      3.2799647e-06  1.1905139e-06  2.0894508e-06  1.2712556e+08
    262000   8.2807499e-11  99919.504      99922.38       99731.705      3.2799454e-06  1.1899645e-06  2.0899809e-06  1.2713403e+08
    263000   8.3123558e-11  99904.51       99902.555      100200.23      3.2799477e-06  1.1902803e-06  2.0896673e-06  1.2712788e+08
    264000   8.3439617e-11  99922.658      99922.378      100050.65      3.2799448e-06  1.1898979e-06  2.0900469e-06  1.2713403e+08
    265000   8.3755677e-11  99905.073      99911.521      99359.642      3.2799872e-06  1.1903081e-06  2.0896791e-06  1.2713139e+08
    266000   8.4071736e-11  99914.94       99919.688      99539.638      3.279939e-06   1.1900536e-06  2.0898855e-06  1.2713119e+08
    267000   8.4387795e-11  99897.861      99899.301      99853.697      3.2799688e-06  1.1904405e-06  2.0895282e-06  1.2712773e+08
    268000   8.4703854e-11  99902.224      99899.199      100305.04      3.2799655e-06  1.190346e-06   2.0896195e-06  1.271298e+08 
    269000   8.5019913e-11  99889.474      99886.114      100325.88      3.2799785e-06  1.1906257e-06  2.0893528e-06  1.2712504e+08
    270000   8.5335972e-11  99897.17       99898.243      99889.74       3.279998e-06   1.1904843e-06  2.0895138e-06  1.2713041e+08
    271000   8.5652031e-11  99920.762      99921.809      99915.986      3.2799405e-06  1.1899333e-06  2.0900073e-06  1.2713508e+08
    272000   8.5968091e-11  99901.362      99902.543      99883.17       3.2799949e-06  1.1903935e-06  2.0896015e-06  1.2713075e+08
    273000   8.628415e-11   99931.209      99929.65       100187.24      3.2799034e-06  1.1896776e-06  2.0902258e-06  1.2713575e+08
    274000   8.6600209e-11  99921.499      99922.333      99937.982      3.2799492e-06  1.1899266e-06  2.0900227e-06  1.2713537e+08
    275000   8.6916268e-11  99910.793      99913.403      99749.504      3.2799183e-06  1.1901196e-06  2.0897987e-06  1.2713009e+08
    276000   8.7232327e-11  99904.464      99905.559      99894.822      3.2799854e-06  1.190319e-06   2.0896663e-06  1.2713233e+08
    277000   8.7548386e-11  99928.236      99929.783      99873.4        3.2799242e-06  1.1897607e-06  2.0901636e-06  1.2713483e+08
    278000   8.7864446e-11  99907.042      99908.268      99884.291      3.2799293e-06  1.190209e-06   2.0897203e-06  1.271284e+08 
    279000   8.8180505e-11  99916.436      99919.471      99712.673      3.2800104e-06  1.1900936e-06  2.0899168e-06  1.27137e+08  
    280000   8.8496564e-11  99904.177      99907.542      99667.383      3.2800141e-06  1.1903538e-06  2.0896603e-06  1.2713282e+08
    281000   8.8812623e-11  99915.121      99914.217      100105.6       3.2799617e-06  1.1900725e-06  2.0898893e-06  1.2713338e+08
    282000   8.9128682e-11  99898.974      99899.269      99969.478      3.2799813e-06  1.1904298e-06  2.0895515e-06  1.2712837e+08
    283000   8.9444741e-11  99911.611      99908.966      100276.4       3.2799642e-06  1.1901484e-06  2.0898159e-06  1.2713309e+08
    284000   8.9760801e-11  99903.323      99899.448      100391.2       3.2799715e-06  1.190329e-06   2.0896425e-06  1.2712894e+08
    285000   9.007686e-11   99886.743      99880.866      100574.94      3.2799202e-06  1.1906245e-06  2.0892957e-06  1.2712086e+08
    286000   9.0392919e-11  99897.941      99897.74       100018.06      3.2799957e-06  1.1904657e-06  2.0895299e-06  1.2712886e+08
    287000   9.0708978e-11  99894.136      99898.809      99526.372      3.2799368e-06  1.1904865e-06  2.0894503e-06  1.27125e+08  
    288000   9.1025037e-11  99889.234      99892.037      99708.682      3.2799701e-06  1.1906223e-06  2.0893478e-06  1.2712612e+08
    289000   9.1341096e-11  99891.748      99896.389      99527.135      3.2800139e-06  1.1906136e-06  2.0894004e-06  1.2713029e+08
    290000   9.1657155e-11  99905.957      99911.145      99486.702      3.2800627e-06  1.1903651e-06  2.0896976e-06  1.2713699e+08
    291000   9.1973215e-11  99904.786      99915.086      98973.811      3.2800121e-06  1.190339e-06   2.0896731e-06  1.2713484e+08
    292000   9.2289274e-11  99904.78       99916.985      98783.069      3.2800189e-06  1.190346e-06   2.089673e-06   1.2713307e+08
    293000   9.2605333e-11  99908.856      99922.358      98657.309      3.2800177e-06  1.1902595e-06  2.0897582e-06  1.2713542e+08
    294000   9.2921392e-11  99910.341      99926.352      98407.612      3.2800247e-06  1.1902355e-06  2.0897893e-06  1.2713572e+08
    295000   9.3237451e-11  99905.806      99925.224      98062.152      3.280002e-06   1.1903076e-06  2.0896944e-06  1.2713439e+08
    296000   9.355351e-11   99887.426      99908.232      97904.768      3.2800475e-06  1.1907376e-06  2.08931e-06    1.2713076e+08
    297000   9.386957e-11   99897.698      99922.129      97552.16       3.2799672e-06  1.1904423e-06  2.0895248e-06  1.2712784e+08
    298000   9.4185629e-11  99887.77       99909.657      97796.9        3.2799622e-06  1.190645e-06   2.0893172e-06  1.2712341e+08
    299000   9.4501688e-11  99920.307      99948.097      97238.553      3.2799373e-06  1.1899395e-06  2.0899977e-06  1.2713307e+08
    300000   9.4817747e-11  99906.827      99945.772      96108.469      3.2799984e-06  1.1902826e-06  2.0897158e-06  1.2713331e+08
    301000   9.5133806e-11  99905.706      99942.583      96314.363      3.2800268e-06  1.1903345e-06  2.0896923e-06  1.2713533e+08
    302000   9.5449865e-11  99899.06       99931.805      96721.329      3.2799716e-06  1.1904182e-06  2.0895533e-06  1.2712918e+08
    303000   9.5765925e-11  99913.156      99948.051      96520.248      3.2799536e-06  1.1901055e-06  2.0898482e-06  1.2713164e+08
    304000   9.6081984e-11  99864.067      99905.3        95836.652      3.27994e-06    1.1911186e-06  2.0888214e-06  1.2711408e+08
    305000   9.6398043e-11  99909.232      99952.352      95692.948      3.2799288e-06  1.1901627e-06  2.0897661e-06  1.2712815e+08
    306000   9.6714102e-11  99921.091      99959.515      96174.861      3.280014e-06   1.1899999e-06  2.0900141e-06  1.2713766e+08
    307000   9.7030161e-11  99910.92       99950.612      96037.784      3.2800067e-06  1.1902054e-06  2.0898014e-06  1.2713627e+08
    308000   9.734622e-11   99907.846      99944.132      96375.694      3.2799709e-06  1.1902338e-06  2.0897371e-06  1.271316e+08 
    309000   9.7662279e-11  99892.661      99931.892      96065.644      3.2800079e-06  1.1905884e-06  2.0894195e-06  1.2712996e+08
    310000   9.7978339e-11  99879.129      99918.643      96023.724      3.2799644e-06  1.190828e-06   2.0891364e-06  1.2712431e+08
    311000   9.8294398e-11  99906.284      99942.655      96365.554      3.2800335e-06  1.1903291e-06  2.0897044e-06  1.2713798e+08
    312000   9.8610457e-11  99903.587      99937.934      96565.488      3.2800133e-06  1.1903653e-06  2.089648e-06   1.271336e+08 
    313000   9.8926516e-11  99914.06       99948.074      96609.339      3.2799632e-06  1.1900961e-06  2.0898671e-06  1.271335e+08 
    314000   9.9242575e-11  99928.791      99964.664      96437.998      3.2799541e-06  1.1897789e-06  2.0901752e-06  1.2713812e+08
    315000   9.9558634e-11  99893.397      99930.675      96261.934      3.2799605e-06  1.1905256e-06  2.0894349e-06  1.2712615e+08
    316000   9.9874694e-11  99903.349      99937.954      96539.453      3.2800452e-06  1.1904022e-06  2.089643e-06   1.2713759e+08
    317000   1.0019075e-10  99916.69       99948.603      96822.269      3.2799919e-06  1.1900699e-06  2.0899221e-06  1.2713721e+08
    318000   1.0050681e-10  99896.076      99925.367      97064.121      3.2798628e-06  1.1903719e-06  2.0894909e-06  1.2712061e+08
    319000   1.0082287e-10  99936.308      99968.859      96778.101      3.2799859e-06  1.1896535e-06  2.0903324e-06  1.271421e+08 
    320000   1.0113893e-10  99892.167      99927.131      96492.281      3.2799729e-06  1.1905637e-06  2.0894091e-06  1.2712763e+08
    321000   1.0145499e-10  99908.951      99950.905      95809.356      3.2799557e-06  1.1901955e-06  2.0897602e-06  1.2713215e+08
    322000   1.0177105e-10  99895.003      99937.409      95750.148      3.2800381e-06  1.1905697e-06  2.0894685e-06  1.2713092e+08
    323000   1.0208711e-10  99907.646      99947.178      96050.55       3.2799412e-06  1.1902083e-06  2.0897329e-06  1.2713041e+08
    324000   1.0240317e-10  99936.33       99976.882      95977.087      3.2799693e-06  1.1896364e-06  2.0903329e-06  1.2714155e+08
    325000   1.0271923e-10  99906.886      99945.398      96151.839      3.2799114e-06  1.1901944e-06  2.089717e-06   1.2712755e+08
    326000   1.0303529e-10  99906.593      99942.94       96368.295      3.2799697e-06  1.1902588e-06  2.0897109e-06  1.2713162e+08
    327000   1.0335134e-10  99922.285      99962.101      96036.784      3.2799408e-06  1.1899017e-06  2.0900391e-06  1.2713353e+08
    328000   1.036674e-10   99899.312      99941.121      95814.198      3.2799613e-06  1.1904027e-06  2.0895586e-06  1.2712715e+08
    329000   1.0398346e-10  99919.898      99956.49       96357.16       3.2800228e-06  1.1900336e-06  2.0899892e-06  1.2713779e+08
    330000   1.0429952e-10  99908.029      99943.37       96470.34       3.2799575e-06  1.1902166e-06  2.0897409e-06  1.2713067e+08
    331000   1.0461558e-10  99901.35       99939.324      96200.188      3.2799433e-06  1.1903421e-06  2.0896012e-06  1.2712717e+08
    332000   1.0493164e-10  99906.014      99942.397      96364.066      3.2799472e-06  1.1902485e-06  2.0896988e-06  1.2712821e+08
    333000   1.052477e-10   99927.973      99962.574      96564.465      3.2799751e-06  1.189817e-06   2.0901581e-06  1.27138e+08  
    334000   1.0556376e-10  99897.529      99932.768      96470.178      3.2800248e-06  1.1905035e-06  2.0895213e-06  1.2712981e+08
    335000   1.0587982e-10  99920.546      99956.317      96439.919      3.2799793e-06  1.1899766e-06  2.0900027e-06  1.2713312e+08
    336000   1.0619588e-10  99914.679      99943.287      97151.049      3.2800079e-06  1.1901279e-06  2.08988e-06    1.271349e+08 
    337000   1.0651194e-10  99917.434      99942.909      97467.434      3.2799789e-06  1.1900413e-06  2.0899376e-06  1.27134e+08  
    338000   1.0682799e-10  99896.574      99916.449      98007.12       3.2799304e-06  1.1904291e-06  2.0895013e-06  1.2712368e+08
    339000   1.0714405e-10  99904.958      99921.571      98342.015      3.2799258e-06  1.1902492e-06  2.0896767e-06  1.2712506e+08
    340000   1.0746011e-10  99924.124      99944.425      97992.091      3.2800567e-06  1.1899791e-06  2.0900776e-06  1.2714121e+08
    341000   1.0777617e-10  99903.203      99925.586      97762.682      3.2800212e-06  1.1903812e-06  2.08964e-06    1.2713116e+08
    342000   1.0809223e-10  99907.625      99930.929      97674.907      3.280021e-06   1.1902885e-06  2.0897325e-06  1.2713294e+08
    343000   1.0840829e-10  99908.694      99929.764      97899.53       3.2799953e-06  1.1902405e-06  2.0897548e-06  1.2713105e+08
    344000   1.0872435e-10  99891.33       99913.775      97744.548      3.2800247e-06  1.190633e-06   2.0893916e-06  1.2712815e+08
    345000   1.0904041e-10  99908.692      99938.539      97021.042      3.2800342e-06  1.1902794e-06  2.0897548e-06  1.2713482e+08
    346000   1.0935647e-10  99896.639      99927.119      96945.666      3.280055e-06   1.1905523e-06  2.0895027e-06  1.271325e+08 
    347000   1.0967253e-10  99923.686      99952.566      97132.836      3.2799768e-06  1.1899084e-06  2.0900684e-06  1.2713659e+08
    348000   1.0998859e-10  99922.351      99951.529      97101.617      3.2800123e-06  1.1899719e-06  2.0900405e-06  1.2713568e+08
    349000   1.1030465e-10  99930.544      99955.804      97502.081      3.2800097e-06  1.1897978e-06  2.0902119e-06  1.2714015e+08
    350000   1.106207e-10   99903.374      99924.725      97866.162      3.2800093e-06  1.1903658e-06  2.0896436e-06  1.2713259e+08
    351000   1.1093676e-10  99901.76       99918.859      98290.132      3.280008e-06   1.1903982e-06  2.0896098e-06  1.2713138e+08
    352000   1.1125282e-10  99881.881      99896.783      98490.188      3.2800353e-06  1.1908413e-06  2.089194e-06   1.2712664e+08
    353000   1.1156888e-10  99909.929      99924.959      98505.468      3.2800525e-06  1.1902718e-06  2.0897807e-06  1.2713731e+08
    354000   1.1188494e-10  99915.867      99931.115      98489.529      3.2800255e-06  1.1901207e-06  2.0899049e-06  1.2713662e+08
    355000   1.12201e-10    99885.424      99901.734      98352.771      3.280027e-06   1.1907589e-06  2.0892681e-06  1.2712609e+08
    356000   1.1251706e-10  99893.96       99912.344      98153.701      3.2800477e-06  1.1906011e-06  2.0894466e-06  1.2713185e+08
    357000   1.1283312e-10  99907.335      99923.759      98363.334      3.2799373e-06  1.1902109e-06  2.0897264e-06  1.2712842e+08
    358000   1.1314918e-10  99910.23       99921.259      98906.26       3.2800255e-06  1.1902386e-06  2.089787e-06   1.2713393e+08
    359000   1.1346524e-10  99906.275      99916.405      98992.322      3.2800129e-06  1.1903087e-06  2.0897042e-06  1.2713365e+08
    360000   1.137813e-10   99903.176      99912.46       99073.915      3.2800221e-06  1.1903826e-06  2.0896394e-06  1.2713114e+08
    361000   1.1409736e-10  99922.767      99928.94       99404.851      3.2799957e-06  1.1899465e-06  2.0900492e-06  1.27135e+08  
    362000   1.1441341e-10  99927.445      99933.294      99441.992      3.2799749e-06  1.1898279e-06  2.090147e-06   1.2713742e+08
    363000   1.1472947e-10  99892.684      99906.102      98649.615      3.2800355e-06  1.1906155e-06  2.08942e-06    1.2712907e+08
    364000   1.1504553e-10  99889.763      99905.736      98390.857      3.2799738e-06  1.1906149e-06  2.0893588e-06  1.2712401e+08
    365000   1.1536159e-10  99917.866      99936.035      98199.212      3.279969e-06   1.1900223e-06  2.0899467e-06  1.2713367e+08
    366000   1.1567765e-10  99891.625      99913.044      97847.606      3.2800103e-06  1.1906125e-06  2.0893978e-06  1.2712788e+08
    367000   1.1599371e-10  99902.955      99925.919      97704.213      3.2799934e-06  1.1903586e-06  2.0896348e-06  1.2712962e+08
    368000   1.1630977e-10  99897.566      99913.134      98439.316      3.2800367e-06  1.1905146e-06  2.0895221e-06  1.2713139e+08
    369000   1.1662583e-10  99877.218      99891          98597.637      3.2800132e-06  1.1909168e-06  2.0890965e-06  1.2712448e+08
    370000   1.1694189e-10  99921.729      99930.77       99116.73       3.2799627e-06  1.1899352e-06  2.0900275e-06  1.2713459e+08
