Job ID:        404032
Host:          daisg116
Start time:    Wed Aug  5 03:49:40 PM CEST 2026
Working dir:   /dais/fs/scratch/kshao/wd/White-Dwarf-Codes/unforced/dais
MPI tasks:     1
CPUs/task:     12
Visible GPU:   0
LAMMPS:        /u/kshao/software/lammps-gpu-cuda12-install/bin/lmp
Input:         unforcedvel_v3.1e+05_c2.in
Currently Loaded Modulefiles:
 1) gcc/14   2) cuda/12.8   3) openmpi/5.0  
name, uuid, driver_version, memory.total [MiB]
NVIDIA H200, GPU-6bf2fb8e-264f-5f64-ecb7-8fbdeaca6222, 580.173.02, 143771 MiB
LAMMPS (22 Jul 2025 - Update 4)
  using 1 OpenMP thread(s) per MPI task
Created orthogonal box = (0 0 0) to (2.5958006e-05 2.5958006e-05 2.5958006e-05)
  1 by 1 by 1 MPI processor grid
Created 100000 atoms
  using lattice units in orthogonal box = (0 0 0) to (2.5958006e-05 2.5958006e-05 2.5958006e-05)
  create_atoms CPU = 113.464 seconds
Created 1000 atoms
  using lattice units in orthogonal box = (0 0 0) to (2.5958006e-05 2.5958006e-05 2.5958006e-05)
  create_atoms CPU = 2.220 seconds
1000 atoms in group Si
100000 atoms in group H

CITE-CITE-CITE-CITE-CITE-CITE-CITE-CITE-CITE-CITE-CITE-CITE-CITE

Your simulation uses code contributions which should be cited:
- GPU package (short-range, long-range and three-body potentials): doi:10.1016/j.cpc.2010.12.021, doi:10.1016/j.cpc.2011.10.012, doi:10.1016/j.cpc.2013.08.002, doi:10.1016/j.commatsci.2014.10.068, doi:10.1016/j.cpc.2016.10.020, doi:10.3233/APC200086
The log file lists these citations in BibTeX format.

CITE-CITE-CITE-CITE-CITE-CITE-CITE-CITE-CITE-CITE-CITE-CITE-CITE


--------------------------------------------------------------------------
- Using acceleration for yukawa:
-  with 1 proc(s) per device.
-  with 1 thread(s) per proc.
-  Horizontal vector operations: ENABLED
-  Shared memory system: No
--------------------------------------------------------------------------
Device 0: NVIDIA H200, 132 CUs, 1.4e+02/1.4e+02 GB, 2 GHZ (Mixed Precision)
--------------------------------------------------------------------------

Initializing Device and compiling on process 0...Done.
Initializing Device 0 on core 0...Done.

Generated 0 of 1 mixed pair_coeff terms from geometric mixing rule
Neighbor list info ...
  update: every = 1 steps, delay = 0 steps, check = yes
  max neighbors/atom: 10000, page size: 100000
  master list distance cutoff = 6.4137883e-06
  ghost atom cutoff = 6.4137883e-06
  binsize = 3.2068942e-06, bins = 9 9 9
  1 neighbor lists, perpetual/occasional/extra = 1 0 0
  (1) pair yukawa/gpu, perpetual
      attributes: full, newton on
      pair build: full/bin/atomonly
      stencil: full/bin/3d
      bin: standard
Setting up Verlet run ...
  Unit style    : cgs
  Current step  : 0
  Time step     : 3.03496354633346e-16
Per MPI rank memory allocation (min/avg/max) = 2678 | 2678 | 2678 Mbytes
   Step          Time           Temp         c_tempH        c_tempSi        TotEng         PotEng         KinEng         Press           v_k0           v_dt        v_collfreq       v_ccs     
         0   0              100000         99997.834      100316.89      3.2893843e-06  1.1977196e-06  2.0916646e-06  1.2739277e+08  623656.38      3.0349635e-16  1.4451462e+11  3.88569e-15  
      1000   3.0349635e-13  100065.76      100060.26      100716.38      3.2844272e-06  1.191387e-06   2.0930402e-06  1.2729186e+08  623656.38      3.0349635e-16  1.4451462e+11  3.88569e-15  
      2000   6.0699271e-13  99913.969      99908.043      100607.23      3.280295e-06   1.1904298e-06  2.0898652e-06  1.2714049e+08  623656.38      3.0349635e-16  1.4451462e+11  3.88569e-15  
Loop time of 59.1344 on 1 procs for 2000 steps with 101000 atoms

99.4% CPU use with 1 MPI tasks x 1 OpenMP threads

MPI task timing breakdown:
Section |  min time  |  avg time  |  max time  |%varavg| %total
---------------------------------------------------------------
Pair    | 8.5275     | 8.5275     | 8.5275     |   0.0 | 14.42
Neigh   | 46.244     | 46.244     | 46.244     |   0.0 | 78.20
Comm    | 1.7366     | 1.7366     | 1.7366     |   0.0 |  2.94
Output  | 0.017133   | 0.017133   | 0.017133   |   0.0 |  0.03
Modify  | 1.8124     | 1.8124     | 1.8124     |   0.0 |  3.06
Other   |            | 0.7972     |            |       |  1.35

Nlocal:         101000 ave      101000 max      101000 min
Histogram: 1 0 0 0 0 0 0 0 0 0
Nghost:         235890 ave      235890 max      235890 min
Histogram: 1 0 0 0 0 0 0 0 0 0
Neighs:              0 ave           0 max           0 min
Histogram: 1 0 0 0 0 0 0 0 0 0
FullNghs:   6.4454e+08 ave  6.4454e+08 max  6.4454e+08 min
Histogram: 1 0 0 0 0 0 0 0 0 0

Total # of neighbors = 6.4453981e+08
Ave neighs/atom = 6381.5823
Neighbor list builds = 5
Dangerous builds = 0


---------------------------------------------------------------------
      Device Time Info (average): 
---------------------------------------------------------------------
Data Transfer:   0.3225 s.
Neighbor copy:   2.6331 s.
Neighbor unpack: 0.0000 s.
Force calc:      5.7986 s.
Device Overhead: 0.0766 s.
CPU Cast/Pack:   1.0170 s.
CPU Driver_Time: 0.0255 s.
CPU Idle_Time:   5.2623 s.
Average split:   1.0000.
Max Mem / Proc:  3097.52 MB.
Prefetch mode:   None.
Vector width:    32.
Lanes / atom:    4.
Pair block:      256.
Neigh block:     128.
Neigh mode:      Host.
---------------------------------------------------------------------


--------------------------------------------------------------------------
- Using acceleration for yukawa:
-  with 1 proc(s) per device.
-  with 1 thread(s) per proc.
-  Horizontal vector operations: ENABLED
-  Shared memory system: No
--------------------------------------------------------------------------
Device 0: NVIDIA H200, 132 CUs, 1.4e+02/1.4e+02 GB, 2 GHZ (Mixed Precision)
--------------------------------------------------------------------------

Initializing Device and compiling on process 0...Done.
Initializing Device 0 on core 0...Done.

Generated 0 of 1 mixed pair_coeff terms from geometric mixing rule
Setting up Verlet run ...
  Unit style    : cgs
  Current step  : 2000
  Time step     : 3.03496354633346e-16
Per MPI rank memory allocation (min/avg/max) = 2686 | 2686 | 2686 Mbytes
   Step          Time           Temp         c_tempH        c_tempSi        TotEng         PotEng         KinEng         Press     
      2000   6.0699271e-13  100038.48      99908.043      113194.84      3.2828993e-06  1.1904298e-06  2.0924694e-06  1.2723975e+08
      3000   9.1048906e-13  100033.46      99900.132      113479.56      3.2829058e-06  1.1905413e-06  2.0923645e-06  1.2723689e+08
      4000   1.2139854e-12  100036.34      99903.668      113417.28      3.2828972e-06  1.1904724e-06  2.0924249e-06  1.2723921e+08
      5000   1.5174818e-12  100046.75      99917.5        113084.56      3.2828815e-06  1.1902391e-06  2.0926425e-06  1.2724077e+08
      6000   1.8209781e-12  100037.8       99905.092      113421.76      3.2829168e-06  1.1904616e-06  2.0924553e-06  1.2724255e+08
      7000   2.1244745e-12  100058.12      99926.587      113324.58      3.282921e-06   1.1900407e-06  2.0928803e-06  1.2724926e+08
      8000   2.4279708e-12  100030.23      99895.036      113663.36      3.2829057e-06  1.1906087e-06  2.092297e-06   1.2723682e+08
      9000   2.7314672e-12  100050.84      99915.971      113651.12      3.2828466e-06  1.1901186e-06  2.092728e-06   1.272395e+08 
     10000   3.0349635e-12  100051.1       99911.096      114165.83      3.2828981e-06  1.1901646e-06  2.0927336e-06  1.2724498e+08
     11000   3.3384599e-12  100056.62      99915.704      114262.04      3.283066e-06   1.1902171e-06  2.0928489e-06  1.2724932e+08
     12000   3.6419563e-12  100066.95      99928.768      113999.04      3.2830249e-06  1.1899598e-06  2.093065e-06   1.2725035e+08
     13000   3.9454526e-12  100051.87      99915.329      113819.48      3.283023e-06   1.1902734e-06  2.0927496e-06  1.2724531e+08
     14000   4.248949e-12   100061.24      99924.118      113886.86      3.2829622e-06  1.1900167e-06  2.0929455e-06  1.2724388e+08
     15000   4.5524453e-12  100048.78      99916.781      113361.48      3.2829513e-06  1.1902664e-06  2.0926849e-06  1.2723888e+08
     16000   4.8559417e-12  100048.58      99925.507      112468.03      3.283073e-06   1.1903922e-06  2.0926807e-06  1.2724746e+08
     17000   5.159438e-12   100066.51      99951.956      111633.4       3.2830196e-06  1.1899638e-06  2.0930558e-06  1.2724983e+08
     18000   5.4629344e-12  100045.29      99936.996      110985.45      3.2830188e-06  1.1904068e-06  2.0926119e-06  1.2724309e+08
     19000   5.7664307e-12  100054.06      99936.949      111876.49      3.2830181e-06  1.1902228e-06  2.0927953e-06  1.2724604e+08
     20000   6.0699271e-12  100073.57      99957.437      111798.72      3.282992e-06   1.1897885e-06  2.0932035e-06  1.2725039e+08
     21000   6.3734234e-12  100072.75      99954.844      111975.42      3.2830779e-06  1.1898916e-06  2.0931864e-06  1.2725613e+08
     22000   6.6769198e-12  100054.42      99933.258      112282.72      3.2830386e-06  1.1902357e-06  2.0928029e-06  1.2724805e+08
     23000   6.9804162e-12  100051.36      99930.402      112259.18      3.2830171e-06  1.1902782e-06  2.0927389e-06  1.2724552e+08
     24000   7.2839125e-12  100055.4       99933.988      112308.38      3.2830786e-06  1.1902552e-06  2.0928233e-06  1.2725218e+08
     25000   7.5874089e-12  100064.74      99942.955      112355.18      3.2830354e-06  1.1900167e-06  2.0930187e-06  1.2725169e+08
     26000   7.8909052e-12  100057.5       99930.889      112831.6       3.2830158e-06  1.1901484e-06  2.0928674e-06  1.2724647e+08
     27000   8.1944016e-12  100068.22      99939.606      113042.24      3.2830291e-06  1.1899376e-06  2.0930915e-06  1.2725127e+08
     28000   8.4978979e-12  100046.74      99917.675      113066.32      3.2830264e-06  1.1903841e-06  2.0926423e-06  1.2724481e+08
     29000   8.8013943e-12  100053.18      99927.321      112751.28      3.2830003e-06  1.1902234e-06  2.0927769e-06  1.2724388e+08
     30000   9.1048906e-12  100047.59      99918.971      113022.14      3.282951e-06   1.190291e-06   2.09266e-06    1.2723717e+08
     31000   9.408387e-12   100044.84      99913.552      113286.99      3.2829858e-06  1.1903832e-06  2.0926026e-06  1.2724113e+08
     32000   9.7118833e-12  100034.24      99903.686      113202.74      3.2830247e-06  1.1906439e-06  2.0923808e-06  1.2723948e+08
     33000   1.001538e-11   100068.02      99939.55       113028.15      3.2830413e-06  1.1899539e-06  2.0930874e-06  1.2725182e+08
     34000   1.0318876e-11  100029.9       99903.612      112771.36      3.283077e-06   1.1907869e-06  2.0922901e-06  1.2724287e+08
     35000   1.0622372e-11  100033.62      99909.842      112524.09      3.2829948e-06  1.1906269e-06  2.0923679e-06  1.272382e+08 
     36000   1.0925869e-11  100051.91      99921.571      113199.3       3.2830827e-06  1.1903322e-06  2.0927505e-06  1.2724958e+08
     37000   1.1229365e-11  100039.55      99899.441      114164.95      3.283075e-06   1.190583e-06   2.092492e-06   1.2724583e+08
     38000   1.1532861e-11  100060.74      99916.293      114619.9       3.2830457e-06  1.1901105e-06  2.0929351e-06  1.2725062e+08
     39000   1.1836358e-11  100040.77      99897.74       114458.16      3.2829732e-06  1.1904557e-06  2.0925174e-06  1.2723847e+08
     40000   1.2139854e-11  100026.73      99884.512      114363.16      3.2830655e-06  1.1908417e-06  2.0922238e-06  1.27241e+08  
     41000   1.2443351e-11  100056.12      99904.317      115351.41      3.2830662e-06  1.1902278e-06  2.0928384e-06  1.2725036e+08
     42000   1.2746847e-11  100053.26      99898.694      115625.11      3.2830347e-06  1.1902561e-06  2.0927786e-06  1.2724632e+08
     43000   1.3050343e-11  100060.53      99914.346      114793.74      3.2830911e-06  1.1901604e-06  2.0929308e-06  1.2725152e+08
     44000   1.335384e-11   100069.17      99924.632      114637.05      3.283023e-06   1.1899117e-06  2.0931114e-06  1.2724994e+08
     45000   1.3657336e-11  100068.39      99934.904      113530.32      3.2830681e-06  1.189973e-06   2.0930951e-06  1.2725302e+08
     46000   1.3960832e-11  100048.47      99920.622      112946.26      3.283104e-06   1.1904255e-06  2.0926785e-06  1.2725081e+08
     47000   1.4264329e-11  100064.95      99944.274      112244.48      3.2831446e-06  1.1901215e-06  2.0930231e-06  1.2725798e+08
     48000   1.4567825e-11  100054.76      99939.388      111703.54      3.2831294e-06  1.1903194e-06  2.09281e-06    1.2725357e+08
     49000   1.4871321e-11  100054.67      99940.609      111572.05      3.2829975e-06  1.1901894e-06  2.0928081e-06  1.2724443e+08
     50000   1.5174818e-11  100068.48      99956.825      111345.22      3.2830933e-06  1.1899962e-06  2.093097e-06   1.2725867e+08
     51000   1.5478314e-11  100033.25      99918.186      111650.8       3.2830556e-06  1.1906955e-06  2.09236e-06    1.2724222e+08
     52000   1.578181e-11   100057.85      99940.099      111944.44      3.2831035e-06  1.1902289e-06  2.0928746e-06  1.2725371e+08
     53000   1.6085307e-11  100054.6       99937.818      111844.83      3.2830211e-06  1.1902143e-06  2.0928068e-06  1.2724531e+08
     54000   1.6388803e-11  100077.72      99964.04       111556.85      3.2830385e-06  1.1897483e-06  2.0932902e-06  1.272561e+08 
     55000   1.66923e-11    100071.11      99953.341      111959.66      3.2830441e-06  1.1898921e-06  2.093152e-06   1.2725398e+08
     56000   1.6995796e-11  100033.33      99917.831      111694.92      3.2830884e-06  1.1907266e-06  2.0923618e-06  1.2724495e+08
     57000   1.7299292e-11  100080.35      99966.37       111589.85      3.2830211e-06  1.1896758e-06  2.0933453e-06  1.2725504e+08
     58000   1.7602789e-11  100043.58      99927.556      111757.67      3.2831109e-06  1.1905347e-06  2.0925762e-06  1.2724927e+08
     59000   1.7906285e-11  100040.19      99924.165      111754.37      3.283094e-06   1.1905888e-06  2.0925053e-06  1.2724782e+08
     60000   1.8209781e-11  100040.85      99930.379      111198.88      3.2831263e-06  1.1906072e-06  2.0925191e-06  1.2724916e+08
     61000   1.8513278e-11  100049.32      99936.872      111405.09      3.2830892e-06  1.190393e-06   2.0926962e-06  1.2724836e+08
     62000   1.8816774e-11  100056.01      99938.754      111893.27      3.2830946e-06  1.1902584e-06  2.0928362e-06  1.2725202e+08
     63000   1.912027e-11   100070.15      99953.29       111868.15      3.2830565e-06  1.1899245e-06  2.093132e-06   1.2725165e+08
     64000   1.9423767e-11  100052.48      99931.433      112268.87      3.2830669e-06  1.1903047e-06  2.0927623e-06  1.2724832e+08
     65000   1.9727263e-11  100058.13      99936.423      112340.62      3.2830442e-06  1.1901638e-06  2.0928804e-06  1.2724897e+08
     66000   2.0030759e-11  100048.4       99926.005      112400.08      3.2830103e-06  1.1903333e-06  2.092677e-06   1.2724355e+08
     67000   2.0334256e-11  100070.56      99948.704      112368.94      3.2830711e-06  1.1899305e-06  2.0931406e-06  1.2725509e+08
     68000   2.0637752e-11  100063.57      99937.151      112818.29      3.2830374e-06  1.190043e-06   2.0929944e-06  1.2725056e+08
     69000   2.0941248e-11  100066.55      99945.227      112310.99      3.2830708e-06  1.1900141e-06  2.0930566e-06  1.2725395e+08
     70000   2.1244745e-11  100058.59      99934.413      112588.62      3.2830083e-06  1.1901182e-06  2.0928901e-06  1.2724633e+08
     71000   2.1548241e-11  100032.19      99910.375      112326.16      3.2830041e-06  1.1906661e-06  2.092338e-06   1.272387e+08 
     72000   2.1851738e-11  100032.21      99911.952      112170.07      3.2830676e-06  1.1907292e-06  2.0923384e-06  1.2724177e+08
     73000   2.2155234e-11  100052.13      99927.751      112602.71      3.28307e-06    1.1903149e-06  2.0927551e-06  1.2724831e+08
     74000   2.245873e-11   100079.27      99955.434      112575.43      3.2830694e-06  1.1897467e-06  2.0933227e-06  1.272555e+08 
     75000   2.2762227e-11  100048.03      99918.275      113136.19      3.2830466e-06  1.1903775e-06  2.0926692e-06  1.2724533e+08
     76000   2.3065723e-11  100042.59      99908.936      113521.31      3.283087e-06   1.1905315e-06  2.0925555e-06  1.2724784e+08
     77000   2.3369219e-11  100039.24      99906.961      113380.83      3.2830848e-06  1.1905993e-06  2.0924855e-06  1.2724653e+08
     78000   2.3672716e-11  100063.73      99934.865      113062.66      3.2830485e-06  1.190051e-06   2.0929976e-06  1.272509e+08 
     79000   2.3976212e-11  100054.58      99928.187      112806.23      3.2830888e-06  1.1902826e-06  2.0928062e-06  1.272518e+08 
     80000   2.4279708e-11  100045.51      99918.824      112826.77      3.2830973e-06  1.1904808e-06  2.0926165e-06  1.2724859e+08
     81000   2.4583205e-11  100058.43      99926.371      113377.36      3.2830347e-06  1.1901479e-06  2.0928868e-06  1.2724967e+08
     82000   2.4886701e-11  100068.76      99934.367      113621.1       3.2830656e-06  1.1899629e-06  2.0931028e-06  1.2725352e+08
     83000   2.5190197e-11  100048.15      99913.212      113655.19      3.2830564e-06  1.1903847e-06  2.0926717e-06  1.272456e+08 
     84000   2.5493694e-11  100058.22      99917.503      114244.38      3.2830961e-06  1.1902137e-06  2.0928825e-06  1.2725228e+08
     85000   2.579719e-11   100041.83      99901.283      114210.08      3.2830465e-06  1.1905071e-06  2.0925395e-06  1.272424e+08 
     86000   2.6100686e-11  100037.76      99907.294      113197.74      3.2830387e-06  1.1905842e-06  2.0924545e-06  1.2724004e+08
     87000   2.6404183e-11  100036.28      99905.557      113222         3.2831025e-06  1.1906789e-06  2.0924236e-06  1.2724456e+08
     88000   2.6707679e-11  100052.37      99930.055      112396.13      3.2830673e-06  1.1903072e-06  2.0927601e-06  1.2724666e+08
     89000   2.7011176e-11  100039.91      99921.246      112017.91      3.2830179e-06  1.1905185e-06  2.0924994e-06  1.272404e+08 
     90000   2.7314672e-11  100060.68      99935.209      112720.34      3.2830429e-06  1.1901091e-06  2.0929339e-06  1.2724925e+08
     91000   2.7618168e-11  100049.41      99922.034      112899.51      3.2830789e-06  1.1903808e-06  2.0926981e-06  1.2724803e+08
     92000   2.7921665e-11  100081.15      99953.137      112995.46      3.2830979e-06  1.1897358e-06  2.0933621e-06  1.2726018e+08
     93000   2.8225161e-11  100045.61      99921.239      112595.41      3.2830731e-06  1.1904544e-06  2.0926187e-06  1.2724701e+08
     94000   2.8528657e-11  100048.71      99926.567      112374.89      3.2831146e-06  1.1904312e-06  2.0926834e-06  1.2725066e+08
     95000   2.8832154e-11  100027.76      99911.55       111759.97      3.2830947e-06  1.1908495e-06  2.0922452e-06  1.2723933e+08
     96000   2.913565e-11   100061.18      99943.852      111905.44      3.2830135e-06  1.1900693e-06  2.0929443e-06  1.2724723e+08
     97000   2.9439146e-11  100052.33      99938.31       111566.21      3.2831564e-06  1.1903971e-06  2.0927593e-06  1.2724751e+08
     98000   2.9742643e-11  100071.04      99955.945      111692.17      3.2831599e-06  1.1900094e-06  2.0931506e-06  1.272555e+08 
     99000   3.0046139e-11  100042.13      99928.63       111503.27      3.283253e-06   1.1907072e-06  2.0925458e-06  1.2725262e+08
    100000   3.0349635e-11  100054.75      99938.061      111835.74      3.2832198e-06  1.1904099e-06  2.0928099e-06  1.2725385e+08
    101000   3.0653132e-11  100057         99936.558      112213.2       3.283239e-06   1.1903821e-06  2.0928569e-06  1.2725686e+08
    102000   3.0956628e-11  100078.77      99955.843      112483.52      3.2831409e-06  1.1898287e-06  2.0933122e-06  1.2725805e+08
    103000   3.1260125e-11  100049.38      99925.69       112531.28      3.2832291e-06  1.1905315e-06  2.0926976e-06  1.2725334e+08
    104000   3.1563621e-11  100067.63      99947.021      112240.74      3.2832505e-06  1.1901713e-06  2.0930792e-06  1.272591e+08 
    105000   3.1867117e-11  100045.41      99926.87       112010.93      3.283207e-06   1.1905926e-06  2.0926144e-06  1.2725171e+08
    106000   3.2170614e-11  100042.39      99923.872      112006.57      3.2832599e-06  1.1907085e-06  2.0925514e-06  1.2725327e+08
    107000   3.247411e-11   100056.34      99932.62       112541.28      3.283195e-06   1.1903518e-06  2.0928432e-06  1.2725446e+08
    108000   3.2777606e-11  100040.83      99916.332      112602.85      3.2832318e-06  1.1907132e-06  2.0925186e-06  1.2725145e+08
    109000   3.3081103e-11  100082.43      99955.173      112920.85      3.2832717e-06  1.1898829e-06  2.0933888e-06  1.2726385e+08
    110000   3.3384599e-11  100070.65      99947.424      112505.74      3.2832058e-06  1.1900634e-06  2.0931424e-06  1.2725726e+08
    111000   3.3688095e-11  100060.68      99932.899      112951.63      3.2832626e-06  1.1903287e-06  2.0929339e-06  1.2725676e+08
    112000   3.3991592e-11  100049.69      99919.447      113187.41      3.2832373e-06  1.1905332e-06  2.0927041e-06  1.2725254e+08
    113000   3.4295088e-11  100062.23      99933.928      113005.05      3.2831761e-06  1.1902099e-06  2.0929662e-06  1.2725095e+08
    114000   3.4598584e-11  100090.1       99963.321      112880.46      3.2832208e-06  1.1896716e-06  2.0935492e-06  1.2726339e+08
    115000   3.4902081e-11  100079.39      99951.231      113008.35      3.283215e-06   1.1898897e-06  2.0933252e-06  1.2725925e+08
    116000   3.5205577e-11  100054.93      99932.46       112414.27      3.2832711e-06  1.1904575e-06  2.0928136e-06  1.2725517e+08
    117000   3.5509073e-11  100067.34      99948.453      112068.18      3.2832148e-06  1.1901416e-06  2.0930732e-06  1.2725698e+08
    118000   3.581257e-11   100070.66      99946.501      112598.72      3.2832472e-06  1.1901046e-06  2.0931426e-06  1.2725946e+08
    119000   3.6116066e-11  100077.46      99955.82       112354.04      3.2832805e-06  1.1899956e-06  2.0932849e-06  1.2726339e+08
    120000   3.6419563e-11  100052.06      99932.269      112143.3       3.2832923e-06  1.1905387e-06  2.0927536e-06  1.2725609e+08
    121000   3.6723059e-11  100034.83      99914.52       112177.56      3.2832361e-06  1.1908429e-06  2.0923931e-06  1.2724774e+08
    122000   3.7026555e-11  100053.82      99931.415      112406.22      3.2832695e-06  1.1904792e-06  2.0927903e-06  1.2725677e+08
    123000   3.7330052e-11  100044.25      99920.979      112483.86      3.2832408e-06  1.1906506e-06  2.0925902e-06  1.2725086e+08
    124000   3.7633548e-11  100051.84      99927.667      112581.59      3.2832542e-06  1.1905053e-06  2.092749e-06   1.2725494e+08
    125000   3.7937044e-11  100054.46      99927.961      112817.09      3.283269e-06   1.1904652e-06  2.0928038e-06  1.2725653e+08
    126000   3.8240541e-11  100067.62      99940.267      112915.37      3.2832421e-06  1.1901631e-06  2.093079e-06   1.2725827e+08
    127000   3.8544037e-11  100055.95      99931.455      112617.91      3.2833023e-06  1.1904674e-06  2.0928349e-06  1.2725805e+08
    128000   3.8847533e-11  100066.4       99944.627      112355.77      3.2832224e-06  1.190169e-06   2.0930535e-06  1.2725487e+08
    129000   3.915103e-11   100053.2       99932.96       112188.8       3.2832368e-06  1.1904595e-06  2.0927773e-06  1.2725104e+08
    130000   3.9454526e-11  100052.55      99935.007      111918.32      3.2832194e-06  1.1904557e-06  2.0927637e-06  1.2725048e+08
    131000   3.9758022e-11  100043.54      99923.488      112160.35      3.2832406e-06  1.1906653e-06  2.0925753e-06  1.2725022e+08
    132000   4.0061519e-11  100069.22      99950.068      112096.49      3.2832421e-06  1.1901296e-06  2.0931125e-06  1.2725733e+08
    133000   4.0365015e-11  100061.28      99937.329      112568.74      3.2832306e-06  1.1902842e-06  2.0929464e-06  1.2725576e+08
    134000   4.0668512e-11  100051.54      99928.734      112444.11      3.2832392e-06  1.1904966e-06  2.0927426e-06  1.2725294e+08
    135000   4.0972008e-11  100066.45      99946.976      112125.49      3.283227e-06   1.1901725e-06  2.0930545e-06  1.2725639e+08
    136000   4.1275504e-11  100076.56      99958.458      111998.79      3.2832337e-06  1.1899676e-06  2.0932661e-06  1.2725999e+08
    137000   4.1579001e-11  100083.59      99964.253      112128.81      3.28321e-06    1.189797e-06   2.093413e-06   1.2725998e+08
    138000   4.1882497e-11  100054.13      99939.877      111590.83      3.2831656e-06  1.1903687e-06  2.0927968e-06  1.2724672e+08
    139000   4.2185993e-11  100071.51      99959.936      111339.64      3.2831873e-06  1.190027e-06   2.0931603e-06  1.2725415e+08
    140000   4.248949e-11   100061.98      99951.55       111215.85      3.2832028e-06  1.1902418e-06  2.092961e-06   1.2725147e+08
    141000   4.2792986e-11  100043.32      99931.351      111351.02      3.2832577e-06  1.190687e-06   2.0925707e-06  1.2724927e+08
    142000   4.3096482e-11  100064.82      99948.074      111850.9       3.283263e-06   1.1902425e-06  2.0930204e-06  1.2725875e+08
    143000   4.3399979e-11  100049.07      99927.433      112325.39      3.2832875e-06  1.1905964e-06  2.0926911e-06  1.2725545e+08
    144000   4.3703475e-11  100044.88      99921.067      112538.2       3.283314e-06   1.1907107e-06  2.0926033e-06  1.2725467e+08
    145000   4.4006971e-11  100064.79      99950.033      111652.22      3.2832522e-06  1.1902324e-06  2.0930199e-06  1.2725723e+08
    146000   4.4310468e-11  100063.76      99956.208      110929.79      3.2832838e-06  1.1902855e-06  2.0929983e-06  1.2725745e+08
    147000   4.4613964e-11  100075.14      99971.479      110551.72      3.2832436e-06  1.1900073e-06  2.0932363e-06  1.2725808e+08
    148000   4.491746e-11   100071.38      99970.156      110304.01      3.2832821e-06  1.1901245e-06  2.0931577e-06  1.2726044e+08
    149000   4.5220957e-11  100070.03      99971.845      109998.75      3.2832762e-06  1.1901467e-06  2.0931295e-06  1.2725844e+08
    150000   4.5524453e-11  100060.13      99965.263      109656.32      3.2832639e-06  1.1903416e-06  2.0929223e-06  1.2725516e+08
    151000   4.582795e-11   100060.24      99963.487      109845.27      3.2832558e-06  1.1903311e-06  2.0929247e-06  1.2725378e+08
    152000   4.6131446e-11  100055.79      99959.854      109758.75      3.2832461e-06  1.1904146e-06  2.0928315e-06  1.2724913e+08
    153000   4.6434942e-11  100071.41      99979.314      109389.91      3.2832474e-06  1.1900892e-06  2.0931582e-06  1.2725837e+08
    154000   4.6738439e-11  100016.25      99926.514      109099.04      3.2833443e-06  1.1913397e-06  2.0920046e-06  1.2724661e+08
    155000   4.7041935e-11  100060.68      99967.123      109525.91      3.2832748e-06  1.1903409e-06  2.0929339e-06  1.2725354e+08
    156000   4.7345431e-11  100065.34      99976.933      109014.64      3.2833349e-06  1.1903036e-06  2.0930313e-06  1.2726041e+08
    157000   4.7648928e-11  100057.53      99962.747      109645.53      3.283288e-06   1.1904199e-06  2.092868e-06   1.2725553e+08
    158000   4.7952424e-11  100050.55      99950.724      110143.08      3.2832915e-06  1.1905695e-06  2.092722e-06   1.2725313e+08
    159000   4.825592e-11   100063.51      99964.601      110064.79      3.2833219e-06  1.1903287e-06  2.0929932e-06  1.2725924e+08
    160000   4.8559417e-11  100074.16      99975.624      110037.3       3.2832715e-06  1.1900558e-06  2.0932157e-06  1.2725913e+08
    161000   4.8862913e-11  100062.06      99962.447      110133.21      3.2832645e-06  1.1903018e-06  2.0929627e-06  1.272531e+08 
    162000   4.9166409e-11  100070.63      99973.219      109921.77      3.2832856e-06  1.1901436e-06  2.093142e-06   1.2725925e+08
    163000   4.9469906e-11  100074.59      99979.511      109691.71      3.2833637e-06  1.1901389e-06  2.0932247e-06  1.2726251e+08
    164000   4.9773402e-11  100084.52      99990.133      109632.56      3.2832894e-06  1.1898569e-06  2.0934325e-06  1.2726267e+08
    165000   5.0076899e-11  100057.34      99961.212      109779.66      3.2833631e-06  1.1904991e-06  2.092864e-06   1.2725889e+08
    166000   5.0380395e-11  100085.18      99980.375      110676.15      3.283343e-06   1.1898967e-06  2.0934463e-06  1.2726623e+08
    167000   5.0683891e-11  100042.96      99938.663      110583.19      3.2833273e-06  1.190764e-06   2.0925632e-06  1.2725125e+08
    168000   5.0987388e-11  100056.4       99951.668      110640.21      3.283364e-06   1.1905196e-06  2.0928444e-06  1.272572e+08 
    169000   5.1290884e-11  100063.22      99956.114      110884.62      3.2832776e-06  1.1902906e-06  2.092987e-06   1.2725417e+08
    170000   5.159438e-11   100081.92      99975.695      110815.3       3.2832616e-06  1.1898835e-06  2.0933782e-06  1.2725825e+08
    171000   5.1897877e-11  100071.38      99966.931      110626.59      3.2832894e-06  1.1901318e-06  2.0931576e-06  1.2725656e+08
    172000   5.2201373e-11  100061.08      99963.231      109956.28      3.2832996e-06  1.1903572e-06  2.0929423e-06  1.2725443e+08
    173000   5.2504869e-11  100074.84      99980.524      109615.61      3.2832537e-06  1.1900237e-06  2.09323e-06    1.2725745e+08
    174000   5.2808366e-11  100060.24      99965.244      109669.76      3.2833556e-06  1.1904309e-06  2.0929247e-06  1.2725814e+08
    175000   5.3111862e-11  100041.72      99951.609      109161.76      3.2833587e-06  1.1908215e-06  2.0925373e-06  1.2725271e+08
    176000   5.3415358e-11  100052.33      99969.777      108415.74      3.2833298e-06  1.1905707e-06  2.0927592e-06  1.2725631e+08
    177000   5.3718855e-11  100057.53      99977.744      108144.67      3.283312e-06   1.1904439e-06  2.0928681e-06  1.2725492e+08
    178000   5.4022351e-11  100041.54      99964.66       107837.55      3.2833117e-06  1.1907781e-06  2.0925336e-06  1.2725013e+08
    179000   5.4325847e-11  100043.45      99963.677      108128.93      3.2834205e-06  1.190847e-06   2.0925735e-06  1.2725884e+08
    180000   5.4629344e-11  100036.29      99952.982      108475.12      3.2833978e-06  1.1909742e-06  2.0924236e-06  1.2725293e+08
    181000   5.493284e-11   100072.04      99993.247      108059.16      3.2833022e-06  1.1901307e-06  2.0931715e-06  1.2725945e+08
    182000   5.5236337e-11  100074.49      99998.369      107794         3.2833731e-06  1.1901505e-06  2.0932227e-06  1.2726302e+08
    183000   5.5539833e-11  100065.92      99995.29       107236.27      3.2833293e-06  1.1902858e-06  2.0930435e-06  1.2725765e+08
    184000   5.5843329e-11  100071.45      100003.05      107017.87      3.2833352e-06  1.1901761e-06  2.0931591e-06  1.2726012e+08
    185000   5.6146826e-11  100047.88      99981.666      106775.73      3.2833212e-06  1.1906551e-06  2.0926661e-06  1.2725314e+08
    186000   5.6450322e-11  100035.63      99972.187      106486.08      3.2833607e-06  1.1909508e-06  2.0924098e-06  1.2725031e+08
    187000   5.6753818e-11  100063.15      100003.82      106102.23      3.2833452e-06  1.1903596e-06  2.0929855e-06  1.2726033e+08
    188000   5.7057315e-11  100076.37      100016.05      106214.26      3.2833042e-06  1.1900421e-06  2.0932621e-06  1.2726038e+08
    189000   5.7360811e-11  100065.79      100008.64      105886.55      3.283303e-06   1.1902623e-06  2.0930407e-06  1.2725692e+08
    190000   5.7664307e-11  100073.33      100014.57      106055.32      3.2833047e-06  1.1901063e-06  2.0931984e-06  1.2726004e+08
    191000   5.7967804e-11  100075.32      100015.35      106178.33      3.2832341e-06  1.1899941e-06  2.09324e-06    1.2725578e+08
    192000   5.82713e-11    100059.63      99997.508      106378.13      3.2832968e-06  1.1903849e-06  2.0929119e-06  1.2725492e+08
    193000   5.8574796e-11  100057.78      99995.638      106378.15      3.2832967e-06  1.1904235e-06  2.0928732e-06  1.2725169e+08
    194000   5.8878293e-11  100059.78      99997.216      106422.35      3.2833549e-06  1.1904398e-06  2.092915e-06   1.2725836e+08
    195000   5.9181789e-11  100082.88      100025.53      105924.13      3.2833578e-06  1.1899595e-06  2.0933983e-06  1.2726549e+08
    196000   5.9485286e-11  100055.73      99998.267      105908.28      3.283308e-06   1.1904776e-06  2.0928304e-06  1.272536e+08 
    197000   5.9788782e-11  100046.09      99990.903      105670.41      3.2833679e-06  1.1907392e-06  2.0926287e-06  1.2725337e+08
    198000   6.0092278e-11  100053.46      99993.46       106159.5       3.283376e-06   1.1905931e-06  2.0927828e-06  1.2725749e+08
    199000   6.0395775e-11  100061.02      100006.83      105585.57      3.2833186e-06  1.1903776e-06  2.0929409e-06  1.2725529e+08
    200000   6.0699271e-11  100059.84      100014.37      104711.92      3.2833552e-06  1.1904389e-06  2.0929163e-06  1.2725804e+08
    201000   6.1002767e-11  100047.41      100001.24      104769.78      3.2833627e-06  1.1907063e-06  2.0926564e-06  1.2725514e+08
    202000   6.1306264e-11  100058.63      100010.88      104939.37      3.2833775e-06  1.1904864e-06  2.0928911e-06  1.2725984e+08
    203000   6.160976e-11   100059.41      100013.68      104736.81      3.2833819e-06  1.1904746e-06  2.0929073e-06  1.2725909e+08
    204000   6.1913256e-11  100067.17      100021.59      104729.66      3.283298e-06   1.1902284e-06  2.0930696e-06  1.2725612e+08
    205000   6.2216753e-11  100047.87      100005.45      104393.98      3.2833151e-06  1.1906492e-06  2.0926659e-06  1.2725321e+08
    206000   6.2520249e-11  100066.2       100020.52      104739.2       3.2833653e-06  1.1903159e-06  2.0930494e-06  1.2726001e+08
    207000   6.2823745e-11  100076.36      100021.88      105629.79      3.2833339e-06  1.1900721e-06  2.0932618e-06  1.2726115e+08
    208000   6.3127242e-11  100059.7       100000.5       106086.05      3.2833347e-06  1.1904213e-06  2.0929134e-06  1.2725814e+08
    209000   6.3430738e-11  100057.77      99994.26       106515.46      3.2833079e-06  1.1904349e-06  2.0928731e-06  1.2725542e+08
    210000   6.3734234e-11  100058.94      99996.878      106371.88      3.2833371e-06  1.1904395e-06  2.0928976e-06  1.2725561e+08
    211000   6.4037731e-11  100067.04      100003.33      106545.08      3.2833642e-06  1.1902973e-06  2.0930669e-06  1.2726234e+08
    212000   6.4341227e-11  100081.5       100023.1       106027.47      3.2833609e-06  1.1899915e-06  2.0933693e-06  1.27267e+08  
    213000   6.4644724e-11  100074.94      100011.5       106525.97      3.2833236e-06  1.1900914e-06  2.0932322e-06  1.2726157e+08
    214000   6.494822e-11   100074.44      100010.34      106590.6       3.2833789e-06  1.1901573e-06  2.0932217e-06  1.2726474e+08
    215000   6.5251716e-11  100071.05      100004.2       106862.51      3.2833259e-06  1.1901752e-06  2.0931508e-06  1.2726166e+08
    216000   6.5555213e-11  100056.24      99987.607      107026.84      3.2833369e-06  1.1904958e-06  2.0928411e-06  1.2725598e+08
    217000   6.5858709e-11  100042.27      99976.898      106686.58      3.2834081e-06  1.1908592e-06  2.0925489e-06  1.2725502e+08
    218000   6.6162205e-11  100067.7       100003.75      106569.77      3.2833943e-06  1.1903135e-06  2.0930808e-06  1.2726299e+08
    219000   6.6465702e-11  100059.9       99993.534      106803.31      3.2833225e-06  1.190405e-06   2.0929176e-06  1.2725761e+08
    220000   6.6769198e-11  100060.95      99992.735      106989.59      3.2833343e-06  1.1903948e-06  2.0929396e-06  1.2725753e+08
    221000   6.7072694e-11  100076.82      100009.47      106919         3.2833238e-06  1.1900524e-06  2.0932714e-06  1.2725982e+08
    222000   6.7376191e-11  100067.66      99999.322      107008.71      3.2833133e-06  1.1902334e-06  2.0930799e-06  1.27255e+08  
    223000   6.7679687e-11  100059.69      99991.666      106969.4       3.2833358e-06  1.1904225e-06  2.0929133e-06  1.2725558e+08
    224000   6.7983183e-11  100076.86      100006.93      107176.57      3.2833928e-06  1.1901205e-06  2.0932723e-06  1.2726373e+08
    225000   6.828668e-11   100060.52      99985.216      107699.01      3.2833495e-06  1.1904189e-06  2.0929306e-06  1.2725801e+08
    226000   6.8590176e-11  100046.81      99971.3        107705.7       3.2833333e-06  1.1906895e-06  2.0926438e-06  1.2725219e+08
    227000   6.8893673e-11  100077.67      100004.42      107509.41      3.2832396e-06  1.1899504e-06  2.0932891e-06  1.272556e+08 
    228000   6.9197169e-11  100055.28      99988.123      106878.1       3.2833091e-06  1.1904881e-06  2.092821e-06   1.2725294e+08
    229000   6.9500665e-11  100062.02      99995.005      106870.83      3.2833285e-06  1.1903665e-06  2.092962e-06   1.2725569e+08
    230000   6.9804162e-11  100082.7       100019.38      106521.34      3.2833407e-06  1.1899463e-06  2.0933944e-06  1.272634e+08 
    231000   7.0107658e-11  100050.18      99985.343      106640.49      3.2833494e-06  1.1906352e-06  2.0927142e-06  1.2725399e+08
    232000   7.0411154e-11  100082.08      100016.23      106773.78      3.2833245e-06  1.1899431e-06  2.0933814e-06  1.272623e+08 
    233000   7.0714651e-11  100077.98      100008.64      107118.54      3.2833123e-06  1.1900166e-06  2.0932957e-06  1.2726199e+08
    234000   7.1018147e-11  100064.75      99995.604      107086.03      3.2833367e-06  1.1903177e-06  2.0930189e-06  1.2725746e+08
    235000   7.1321643e-11  100069.66      100003.73      106770.12      3.283334e-06   1.1902122e-06  2.0931218e-06  1.2725996e+08
    236000   7.162514e-11   100063.96      99998.066      106760.5       3.2833007e-06  1.1902981e-06  2.0930026e-06  1.2725692e+08
    237000   7.1928636e-11  100064.43      99998.22       106791.8       3.2833762e-06  1.190364e-06   2.0930122e-06  1.2726103e+08
    238000   7.2232132e-11  100062.21      99993.507      107039.85      3.2833239e-06  1.1903579e-06  2.092966e-06   1.272573e+08 
    239000   7.2535629e-11  100060.6       99996.732      106553.57      3.2833118e-06  1.1903796e-06  2.0929321e-06  1.2725569e+08
    240000   7.2839125e-11  100082.56      100021.63      106282.09      3.283273e-06   1.1898815e-06  2.0933916e-06  1.2725958e+08
    241000   7.3142621e-11  100046.49      99988.158      105986.11      3.2833076e-06  1.1906705e-06  2.0926372e-06  1.2725057e+08
    242000   7.3446118e-11  100052.56      99994.197      105994.91      3.2832973e-06  1.1905332e-06  2.0927641e-06  1.2725165e+08
    243000   7.3749614e-11  100049.69      99989.915      106133.54      3.2833704e-06  1.1906663e-06  2.092704e-06   1.2725504e+08
    244000   7.4053111e-11  100064.78      100006.66      105983.28      3.2832379e-06  1.1902183e-06  2.0930197e-06  1.272518e+08 
    245000   7.4356607e-11  100060.1       100006.73      105502.35      3.283305e-06   1.1903832e-06  2.0929218e-06  1.272541e+08 
    246000   7.4660103e-11  100059.89      100009.83      105170.88      3.2833505e-06  1.1904332e-06  2.0929173e-06  1.2725837e+08
    247000   7.49636e-11    100062.46      100006.25      105789.05      3.2833254e-06  1.1903544e-06  2.092971e-06   1.2725713e+08
    248000   7.5267096e-11  100075.78      100018.79      105880.44      3.2833455e-06  1.1900958e-06  2.0932496e-06  1.2726235e+08
    249000   7.5570592e-11  100064.25      100006.04      105991.23      3.2832948e-06  1.1902864e-06  2.0930085e-06  1.2725614e+08
    250000   7.5874089e-11  100087.53      100034.07      105539.28      3.2833056e-06  1.18981e-06    2.0934956e-06  1.2726255e+08
    251000   7.6177585e-11  100064.75      100000.37      106609.11      3.2833375e-06  1.1903186e-06  2.093019e-06   1.2725661e+08
    252000   7.6481081e-11  100086.36      100013.46      107483.64      3.2833426e-06  1.1898716e-06  2.093471e-06   1.2726452e+08
    253000   7.6784578e-11  100086.87      100012.22      107659.75      3.2833444e-06  1.1898626e-06  2.0934817e-06  1.2726835e+08
    254000   7.7088074e-11  100049.64      99976.646      107456.91      3.2833402e-06  1.1906372e-06  2.0927031e-06  1.2725252e+08
    255000   7.739157e-11   100055.99      99982.538      107508.39      3.2833356e-06  1.1904999e-06  2.0928357e-06  1.2725572e+08
    256000   7.7695067e-11  100066.95      99990.873      107782.14      3.2833567e-06  1.1902918e-06  2.093065e-06   1.2726081e+08
    257000   7.7998563e-11  100043.93      99970.087      107535.21      3.2833525e-06  1.190769e-06   2.0925834e-06  1.2725264e+08
    258000   7.8302059e-11  100053.24      99983.595      107124.75      3.2834408e-06  1.1906625e-06  2.0927782e-06  1.2726293e+08
    259000   7.8605556e-11  100038.71      99967.047      107312.16      3.2834026e-06  1.1909283e-06  2.0924743e-06  1.2725524e+08
    260000   7.8909052e-11  100058.8       99985.799      107466.34      3.2833589e-06  1.1904643e-06  2.0928945e-06  1.2725665e+08
    261000   7.9212549e-11  100086.26      100012.76      107543.62      3.2833479e-06  1.1898791e-06  2.0934689e-06  1.2726677e+08
    262000   7.9516045e-11  100078.96      100007.54      107327.93      3.2834162e-06  1.1901001e-06  2.0933162e-06  1.2726946e+08
    263000   7.9819541e-11  100037.95      99968.246      107115.24      3.283342e-06   1.1908836e-06  2.0924584e-06  1.2725009e+08
    264000   8.0123038e-11  100046.27      99974.488      107332.17      3.2833326e-06  1.1907e-06     2.0926326e-06  1.2725016e+08
    265000   8.0426534e-11  100084.91      100017.25      106957.21      3.2833389e-06  1.1898983e-06  2.0934406e-06  1.2726512e+08
    266000   8.073003e-11   100059.36      99987.884      107314.21      3.283327e-06   1.1904207e-06  2.0929063e-06  1.2725536e+08
    267000   8.1033527e-11  100099.99      100023.63      107843.93      3.2833481e-06  1.1895919e-06  2.0937562e-06  1.2727123e+08
    268000   8.1337023e-11  100064.94      99990.485      107618.39      3.2833192e-06  1.1902962e-06  2.093023e-06   1.2725596e+08
    269000   8.1640519e-11  100083.47      100008.72      107666.34      3.2832927e-06  1.1898821e-06  2.0934106e-06  1.2726055e+08
    270000   8.1944016e-11  100079.45      100006.9       107442         3.2833189e-06  1.1899924e-06  2.0933266e-06  1.2726148e+08
    271000   8.2247512e-11  100042.82      99973.488      107082.75      3.2833367e-06  1.1907765e-06  2.0925602e-06  1.2725046e+08
    272000   8.2551008e-11  100059.09      99990.304      107045.15      3.2833469e-06  1.1904462e-06  2.0929007e-06  1.2725758e+08
    273000   8.2854505e-11  100059.27      99989.147      107178.52      3.2833485e-06  1.1904442e-06  2.0929043e-06  1.2725731e+08
    274000   8.3158001e-11  100076.2       100004.9       107313.13      3.2834408e-06  1.1901824e-06  2.0932585e-06  1.2726769e+08
    275000   8.3461498e-11  100090.76      100027.46      106527.54      3.2833771e-06  1.189814e-06   2.0935631e-06  1.2726566e+08
    276000   8.3764994e-11  100078.27      100016.62      106349.44      3.2834313e-06  1.1901295e-06  2.0933018e-06  1.2726436e+08
    277000   8.406849e-11   100060.12      99997.726      106406.29      3.2834662e-06  1.190544e-06   2.0929222e-06  1.2726461e+08
    278000   8.4371987e-11  100085.82      100025.11      106263.16      3.2833948e-06  1.189935e-06   2.0934598e-06  1.2726645e+08
    279000   8.4675483e-11  100075.15      100014.68      106227.76      3.2833779e-06  1.1901414e-06  2.0932365e-06  1.2726056e+08
    280000   8.4978979e-11  100061.57      100003.76      105948.73      3.2833789e-06  1.1904263e-06  2.0929526e-06  1.2725745e+08
    281000   8.5282476e-11  100094.95      100040.16      105679.25      3.2833991e-06  1.1897485e-06  2.0936506e-06  1.2726897e+08
    282000   8.5585972e-11  100069.75      100023.88      104761.88      3.2833926e-06  1.1902689e-06  2.0931237e-06  1.2725943e+08
    283000   8.5889468e-11  100082.31      100040.92      104325.28      3.2834202e-06  1.1900338e-06  2.0933863e-06  1.2726536e+08
    284000   8.6192965e-11  100078.47      100037.95      104234.8       3.2834025e-06  1.1900966e-06  2.093306e-06   1.2726458e+08
    285000   8.6496461e-11  100074.37      100025.15      105101.4       3.2834439e-06  1.1902238e-06  2.0932201e-06  1.2726789e+08
    286000   8.6799957e-11  100065.53      100014.38      105285.86      3.2834375e-06  1.1904021e-06  2.0930354e-06  1.2726052e+08
    287000   8.7103454e-11  100092.43      100040.69      105371.54      3.2833278e-06  1.1897298e-06  2.093598e-06   1.272622e+08 
    288000   8.740695e-11   100056.76      100006.46      105192.1       3.2834139e-06  1.190562e-06   2.0928519e-06  1.2725863e+08
    289000   8.7710446e-11  100077.43      100030.29      104896.24      3.2834158e-06  1.1901316e-06  2.0932842e-06  1.2726561e+08
    290000   8.8013943e-11  100056.44      100004.02      105404.16      3.2833971e-06  1.1905518e-06  2.0928453e-06  1.2725716e+08
    291000   8.8317439e-11  100071.21      100014.01      105896.68      3.2833827e-06  1.1902286e-06  2.0931541e-06  1.272596e+08 
    292000   8.8620936e-11  100058.63      100002.86      105742.07      3.2833261e-06  1.1904351e-06  2.0928911e-06  1.2725367e+08
    293000   8.8924432e-11  100059.83      99999.807      106167.85      3.2834127e-06  1.1904967e-06  2.092916e-06   1.2725732e+08
    294000   8.9227928e-11  100063.83      100003.9       106163.46      3.2834532e-06  1.1904534e-06  2.0929998e-06  1.272627e+08 
    295000   8.9531425e-11  100069.55      100009.33      106198         3.2834552e-06  1.1903358e-06  2.0931194e-06  1.2726599e+08
    296000   8.9834921e-11  100070.2       100013.21      105875.05      3.2834296e-06  1.1902965e-06  2.093133e-06   1.2726254e+08
    297000   9.0138417e-11  100074.09      100017.18      105870.36      3.2834252e-06  1.1902109e-06  2.0932143e-06  1.272649e+08 
    298000   9.0441914e-11  100056.03      99997.922      105973.14      3.2834487e-06  1.190612e-06   2.0928367e-06  1.272612e+08 
    299000   9.074541e-11   100089.1       100029.93      106111.9       3.2834185e-06  1.1898903e-06  2.0935282e-06  1.2726886e+08
    300000   9.1048906e-11  100045.8       99979.856      106746.78      3.2833741e-06  1.1907515e-06  2.0926226e-06  1.2725018e+08
    301000   9.1352403e-11  100077.54      100016.84      106254.28      3.2834126e-06  1.190126e-06   2.0932866e-06  1.2726456e+08
    302000   9.1655899e-11  100066.7       100004.09      106433.38      3.283415e-06   1.1903553e-06  2.0930597e-06  1.2726419e+08
    303000   9.1959395e-11  100051.43      99995.4        105759.96      3.283448e-06   1.1907076e-06  2.0927404e-06  1.2726006e+08
    304000   9.2262892e-11  100067.42      100014.18      105496.3       3.2834972e-06  1.1904224e-06  2.0930748e-06  1.2726761e+08
    305000   9.2566388e-11  100076.67      100022.13      105636.84      3.2834082e-06  1.1901398e-06  2.0932684e-06  1.272617e+08 
    306000   9.2869885e-11  100061.28      100009.43      105351.72      3.2833752e-06  1.1904288e-06  2.0929465e-06  1.2725659e+08
    307000   9.3173381e-11  100072.95      100016.21      105852.9       3.2834421e-06  1.1902516e-06  2.0931904e-06  1.2726444e+08
    308000   9.3476877e-11  100060.52      100002.96      105922.24      3.2834373e-06  1.1905069e-06  2.0929305e-06  1.2726006e+08
    309000   9.3780374e-11  100084.91      100032.74      105406.36      3.2833789e-06  1.1899384e-06  2.0934406e-06  1.2726364e+08
    310000   9.408387e-11   100090.17      100038.31      105381.25      3.2833887e-06  1.1898381e-06  2.0935506e-06  1.2726688e+08
    311000   9.4387366e-11  100076.84      100025.15      105351.77      3.2834391e-06  1.1901672e-06  2.093272e-06   1.2726512e+08
    312000   9.4690863e-11  100074.07      100025.17      105068.42      3.2834372e-06  1.1902233e-06  2.0932139e-06  1.2726466e+08
    313000   9.4994359e-11  100059.34      100010.83      105015.3       3.2834507e-06  1.1905449e-06  2.0929058e-06  1.272593e+08 
    314000   9.5297855e-11  100084.53      100032.43      105399.22      3.2833692e-06  1.1899365e-06  2.0934327e-06  1.2726278e+08
    315000   9.5601352e-11  100075.64      100026.76      105068.41      3.2833493e-06  1.1901025e-06  2.0932468e-06  1.2725859e+08
    316000   9.5904848e-11  100070.6       100027.19      104516.02      3.2833838e-06  1.1902425e-06  2.0931413e-06  1.2725922e+08
    317000   9.6208344e-11  100085.42      100040.11      104720.71      3.2834233e-06  1.1899719e-06  2.0934514e-06  1.2726706e+08
    318000   9.6511841e-11  100063.73      100009.35      105607.34      3.2834545e-06  1.1904568e-06  2.0929977e-06  1.2726118e+08
    319000   9.6815337e-11  100067.16      100009.81      105907.31      3.2834306e-06  1.1903613e-06  2.0930693e-06  1.2726099e+08
    320000   9.7118833e-11  100064.16      100002.75      106311.22      3.2833992e-06  1.1903926e-06  2.0930067e-06  1.2725793e+08
    321000   9.742233e-11   100093.94      100031.02      106492.31      3.2834276e-06  1.189798e-06   2.0936295e-06  1.2726948e+08
    322000   9.7725826e-11  100086.32      100027.44      106080.21      3.2834234e-06  1.1899532e-06  2.0934702e-06  1.2726774e+08
    323000   9.8029323e-11  100063.36      100010.92      105412.04      3.2833944e-06  1.1904045e-06  2.0929899e-06  1.272587e+08 
    324000   9.8332819e-11  100050.59      100000.55      105159.85      3.2833871e-06  1.1906643e-06  2.0927228e-06  1.2725386e+08
    325000   9.8636315e-11  100061.81      100009.79      105369.41      3.2833705e-06  1.1904131e-06  2.0929575e-06  1.2725648e+08
    326000   9.8939812e-11  100079.2       100027.06      105399.06      3.2834065e-06  1.1900852e-06  2.0933213e-06  1.2726349e+08
    327000   9.9243308e-11  100080.42      100033.65      104862.81      3.2834048e-06  1.190058e-06   2.0933468e-06  1.2726525e+08
    328000   9.9546804e-11  100062.94      100011.33      105329.45      3.2833967e-06  1.1904156e-06  2.0929811e-06  1.2725842e+08
    329000   9.9850301e-11  100069.06      100017.87      105293.25      3.2834101e-06  1.190301e-06   2.0931091e-06  1.2725946e+08
    330000   1.001538e-10   100031.47      99977.95       105489.16      3.2834211e-06  1.1910982e-06  2.0923229e-06  1.2724844e+08
    331000   1.0045729e-10  100072.93      100021.72      105299.21      3.2834932e-06  1.1903032e-06  2.0931901e-06  1.2726788e+08
    332000   1.0076079e-10  100074.96      100022.76      105401.03      3.2835378e-06  1.1903052e-06  2.0932326e-06  1.2727235e+08
    333000   1.0106429e-10  100077.8       100023.38      105625.38      3.2834151e-06  1.1901231e-06  2.0932919e-06  1.2726601e+08
    334000   1.0136778e-10  100063.85      100008.03      105752.3       3.2833893e-06  1.190389e-06   2.0930003e-06  1.2725748e+08
    335000   1.0167128e-10  100074.8       100020.04      105657.3       3.2834606e-06  1.1902313e-06  2.0932293e-06  1.2726716e+08
    336000   1.0197478e-10  100081.32      100025.26      105792.58      3.2834013e-06  1.1900357e-06  2.0933655e-06  1.2726453e+08
    337000   1.0227827e-10  100067.09      100007.49      106133.78      3.2833404e-06  1.1902724e-06  2.093068e-06   1.2725707e+08
    338000   1.0258177e-10  100083.79      100022.32      106337.7       3.2834059e-06  1.1899885e-06  2.0934173e-06  1.2726343e+08
    339000   1.0288526e-10  100063.17      100006.33      105853.31      3.2834189e-06  1.1904329e-06  2.092986e-06   1.2725794e+08
    340000   1.0318876e-10  100064.19      100003.12      106277.23      3.2834881e-06  1.1904809e-06  2.0930072e-06  1.2726455e+08
    341000   1.0349226e-10  100061.7       99998.126      106525.65      3.2834595e-06  1.1905043e-06  2.0929552e-06  1.2726327e+08
    342000   1.0379575e-10  100072.86      100008.37      106628.21      3.2834781e-06  1.1902895e-06  2.0931886e-06  1.2726767e+08
    343000   1.0409925e-10  100072.53      100011.62      106270.07      3.2834285e-06  1.1902467e-06  2.0931818e-06  1.2726216e+08
    344000   1.0440275e-10  100028.08      99968.023      106140.29      3.2833826e-06  1.1911305e-06  2.0922521e-06  1.2724528e+08
    345000   1.0470624e-10  100092.26      100030.97      106326.85      3.28343e-06    1.1898356e-06  2.0935944e-06  1.2727074e+08
    346000   1.0500974e-10  100065.34      99992.229      107483.39      3.2834807e-06  1.1904494e-06  2.0930312e-06  1.2726432e+08
    347000   1.0531324e-10  100064.47      99987.491      107870.49      3.283458e-06   1.1904448e-06  2.0930132e-06  1.2726199e+08
    348000   1.0561673e-10  100075.87      100004.47      107323.22      3.2834625e-06  1.1902109e-06  2.0932517e-06  1.272654e+08 
    349000   1.0592023e-10  100071.58      100001.44      107193.16      3.283423e-06   1.1902612e-06  2.0931619e-06  1.2726259e+08
    350000   1.0622372e-10  100050.21      99983.023      106875.33      3.2835373e-06  1.1908225e-06  2.0927148e-06  1.2726548e+08
    351000   1.0652722e-10  100073.79      100008.39      106720.55      3.2834805e-06  1.1902724e-06  2.0932081e-06  1.2726906e+08
    352000   1.0683072e-10  100073.94      100011.27      106447.58      3.2834419e-06  1.1902307e-06  2.0932112e-06  1.2726554e+08
    353000   1.0713421e-10  100078.62      100017.1       106336.41      3.2834073e-06  1.1900982e-06  2.0933091e-06  1.2726289e+08
    354000   1.0743771e-10  100080.4       100018.74      106352.82      3.2834315e-06  1.1900852e-06  2.0933463e-06  1.2726519e+08
    355000   1.0774121e-10  100062.48      99995.483      106869.31      3.2833707e-06  1.1903991e-06  2.0929716e-06  1.2725764e+08
    356000   1.080447e-10   100059.96      99993.622      106800.45      3.2834319e-06  1.1905131e-06  2.0929188e-06  1.2725997e+08
    357000   1.083482e-10   100084.12      100020.08      106594.66      3.2834516e-06  1.1900274e-06  2.0934242e-06  1.2727039e+08
    358000   1.0865169e-10  100059.07      99992.406      106832.06      3.2834793e-06  1.1905791e-06  2.0929002e-06  1.2726204e+08
    359000   1.0895519e-10  100053.74      99979.664      107569.17      3.2834706e-06  1.1906819e-06  2.0927888e-06  1.2726176e+08
    360000   1.0925869e-10  100071.58      99991.817      108156.4       3.2834679e-06  1.1903059e-06  2.093162e-06   1.2726711e+08
    361000   1.0956218e-10  100057.42      99976.444      108262.7       3.2833511e-06  1.1904856e-06  2.0928656e-06  1.2725378e+08
    362000   1.0986568e-10  100075.48      99989.884      108743.84      3.2834074e-06  1.190164e-06   2.0932435e-06  1.2726374e+08
    363000   1.1016918e-10  100094.76      100011.2       108558.43      3.2834104e-06  1.1897638e-06  2.0936466e-06  1.2727119e+08
    364000   1.1047267e-10  100075.94      99993.488      108429.12      3.2834362e-06  1.1901832e-06  2.093253e-06   1.2726601e+08
    365000   1.1077617e-10  100077.6       99986.264      109320.58      3.2834098e-06  1.190122e-06   2.0932878e-06  1.2726282e+08
    366000   1.1107967e-10  100061.05      99971.155      109159.13      3.2833321e-06  1.1903906e-06  2.0929415e-06  1.2725223e+08
    367000   1.1138316e-10  100084.07      99998.659      108734         3.2834381e-06  1.190015e-06   2.0934232e-06  1.2726766e+08
    368000   1.1168666e-10  100059.94      99978.712      108290.46      3.2834006e-06  1.1904824e-06  2.0929183e-06  1.2725884e+08
    369000   1.1199015e-10  100075.55      100000.41      107696.58      3.2833784e-06  1.1901335e-06  2.0932449e-06  1.272619e+08 
    370000   1.1229365e-10  100068.47      99988.471      108176.45      3.2833484e-06  1.1902516e-06  2.0930968e-06  1.2725697e+08
    371000   1.1259715e-10  100061.87      99980.543      108302.3       3.2833967e-06  1.190438e-06   2.0929587e-06  1.2725795e+08
    372000   1.1290064e-10  100052.14      99972.077      108166.4       3.2834758e-06  1.1907206e-06  2.0927552e-06  1.2726046e+08
    373000   1.1320414e-10  100092.74      100011.03      108372.43      3.2834173e-06  1.1898128e-06  2.0936045e-06  1.2727138e+08
    374000   1.1350764e-10  100076.04      100000.07      107781.62      3.2833658e-06  1.1901106e-06  2.0932552e-06  1.2725979e+08
    375000   1.1381113e-10  100074.82      100000.31      107633.28      3.2834232e-06  1.1901936e-06  2.0932296e-06  1.27265e+08  
    376000   1.1411463e-10  100057.61      99983.869      107538.79      3.28341e-06    1.1905404e-06  2.0928696e-06  1.2726019e+08
    377000   1.1441813e-10  100062.97      99987.684      107699.54      3.2835004e-06  1.1905186e-06  2.0929818e-06  1.2726559e+08
    378000   1.1472162e-10  100071.25      99993.081      107995.62      3.2835056e-06  1.1903507e-06  2.0931549e-06  1.2727025e+08
    379000   1.1502512e-10  100062.86      99988.177      107638.49      3.283512e-06   1.1905326e-06  2.0929794e-06  1.2726749e+08
    380000   1.1532861e-10  100054.02      99977.542      107810.04      3.2834533e-06  1.1906587e-06  2.0927947e-06  1.2725855e+08
    381000   1.1563211e-10  100091.1       100011.78      108130.62      3.283412e-06   1.189842e-06   2.0935701e-06  1.2726909e+08
    382000   1.1593561e-10  100058.18      99979.299      108054.72      3.2834642e-06  1.1905825e-06  2.0928817e-06  1.2726256e+08
    383000   1.162391e-10   100062.7       99983.65       108075.99      3.283393e-06   1.1904168e-06  2.0929762e-06  1.272588e+08 
    384000   1.165426e-10   100086.37      100012.19      107611.5       3.2833998e-06  1.1899286e-06  2.0934712e-06  1.2726828e+08
    385000   1.168461e-10   100052.81      99979.719      107468.91      3.2834259e-06  1.1906568e-06  2.0927692e-06  1.2725872e+08
    386000   1.1714959e-10  100069.5       99993.628      107764.01      3.2833543e-06  1.190236e-06   2.0931183e-06  1.2725791e+08
    387000   1.1745309e-10  100088.92      100013.29      107760.07      3.2833275e-06  1.1898029e-06  2.0935246e-06  1.2726149e+08
    388000   1.1775659e-10  100076.35      100004.94      107324.74      3.2834102e-06  1.1901486e-06  2.0932616e-06  1.2726194e+08
    389000   1.1806008e-10  100062.67      99990.029      107434.46      3.2833661e-06  1.1903905e-06  2.0929756e-06  1.2725653e+08
    390000   1.1836358e-10  100040.26      99970.658      107107.65      3.2833695e-06  1.1908627e-06  2.0925068e-06  1.2724745e+08
    391000   1.1866707e-10  100066.35      99993.134      107494.98      3.2834177e-06  1.1903654e-06  2.0930524e-06  1.2726091e+08
    392000   1.1897057e-10  100082.34      100009.43      107480.52      3.2834578e-06  1.1900709e-06  2.0933869e-06  1.2726913e+08
    393000   1.1927407e-10  100041.54      99969.602      107342.78      3.2834726e-06  1.190939e-06   2.0925336e-06  1.2725711e+08
    394000   1.1957756e-10  100086.06      100013.25      107473.71      3.283389e-06   1.1899243e-06  2.0934647e-06  1.2726722e+08
    395000   1.1988106e-10  100097.98      100036.08      106393.67      3.2834002e-06  1.1896862e-06  2.093714e-06   1.2727116e+08
    396000   1.2018456e-10  100069.62      100011.29      106009.23      3.2833692e-06  1.1902483e-06  2.0931209e-06  1.2725998e+08
    397000   1.2048805e-10  100061.3       99999.207      106377.16      3.2834299e-06  1.190483e-06   2.0929469e-06  1.2726168e+08
    398000   1.2079155e-10  100045.34      99980.864      106599.24      3.2834394e-06  1.1908265e-06  2.092613e-06   1.2725758e+08
    399000   1.2109505e-10  100057.15      99991.627      106716.31      3.2834735e-06  1.1906134e-06  2.0928601e-06  1.2726229e+08
    400000   1.2139854e-10  100074.92      100013.48      106324.85      3.2834524e-06  1.1902207e-06  2.0932316e-06  1.2726717e+08
    401000   1.2170204e-10  100060.2       100001.18      106067.63      3.2834414e-06  1.1905177e-06  2.0929237e-06  1.2726015e+08
