Job ID:        432871
Host:          daisg111
Start time:    Mon Aug 31 05:29:16 PM CEST 2026
Working dir:   /dais/fs/scratch/kshao/wd/White-Dwarf-Codes/unforced/daisslurm/daisproduction
MPI tasks:     1
CPUs/task:     12
Visible GPU:   0
LAMMPS:        /u/kshao/software/lammps-gpu-cuda12-install/bin/lmp
Input:         unforcedprod_v4.6e+06_c2.in
Currently Loaded Modulefiles:
 1) gcc/14   2) cuda/12.8   3) openmpi/5.0  
name, uuid, driver_version, memory.total [MiB]
NVIDIA H200, GPU-9c7ad031-4252-d657-c2c3-c5963a906db6, 580.173.02, 143771 MiB
Preflight checks passed; launching LAMMPS.
LAMMPS (22 Jul 2025 - Update 4)
  using 1 OpenMP thread(s) per MPI task
Created orthogonal box = (0 0 0) to (2.5694819e-05 2.5694819e-05 2.5694819e-05)
  1 by 1 by 1 MPI processor grid
Created 100000 atoms
  using lattice units in orthogonal box = (0 0 0) to (2.5694819e-05 2.5694819e-05 2.5694819e-05)
  create_atoms CPU = 114.134 seconds
Created 300 atoms
  using lattice units in orthogonal box = (0 0 0) to (2.5694819e-05 2.5694819e-05 2.5694819e-05)
  create_atoms CPU = 0.663 seconds
300 atoms in group Si
100000 atoms in group H

CITE-CITE-CITE-CITE-CITE-CITE-CITE-CITE-CITE-CITE-CITE-CITE-CITE

Your simulation uses code contributions which should be cited:
- GPU package (short-range, long-range and three-body potentials): doi:10.1016/j.cpc.2010.12.021, doi:10.1016/j.cpc.2011.10.012, doi:10.1016/j.cpc.2013.08.002, doi:10.1016/j.commatsci.2014.10.068, doi:10.1016/j.cpc.2016.10.020, doi:10.3233/APC200086
The log file lists these citations in BibTeX format.

CITE-CITE-CITE-CITE-CITE-CITE-CITE-CITE-CITE-CITE-CITE-CITE-CITE


--------------------------------------------------------------------------
- Using acceleration for yukawa:
-  with 1 proc(s) per device.
-  with 1 thread(s) per proc.
-  Horizontal vector operations: ENABLED
-  Shared memory system: No
--------------------------------------------------------------------------
Device 0: NVIDIA H200, 132 CUs, 1.4e+02/1.4e+02 GB, 2 GHZ (Mixed Precision)
--------------------------------------------------------------------------

Initializing Device and compiling on process 0...Done.
Initializing Device 0 on core 0...Done.

Generated 0 of 1 mixed pair_coeff terms from geometric mixing rule
Neighbor list info ...
  update: every = 1 steps, delay = 0 steps, check = yes
  max neighbors/atom: 10000, page size: 100000
  master list distance cutoff = 4.6290089e-06
  ghost atom cutoff = 4.6290089e-06
  binsize = 2.3145045e-06, bins = 12 12 12
  1 neighbor lists, perpetual/occasional/extra = 1 0 0
  (1) pair yukawa/gpu, perpetual
      attributes: full, newton on
      pair build: full/bin/atomonly
      stencil: full/bin/3d
      bin: standard
Setting up Verlet run ...
  Unit style    : cgs
  Current step  : 0
  Time step     : 9.62888511993653e-17
Per MPI rank memory allocation (min/avg/max) = 1085 | 1085 | 1085 Mbytes
   Step          Time           Temp         c_tempH        c_tempSi        TotEng         PotEng         KinEng         Press           v_k0           v_dt        v_collfreq       v_ccs     
         0   0              100000         100011         96653.987      2.5985855e-06  5.214177e-07   2.0771678e-06  1.0662735e+08  1080144.8      9.6288851e-17  2.0070739e+10  3.182331e-16 
      1000   9.6288851e-14  100089.28      100101.3       96404.07       2.598234e-06   5.1921168e-07  2.0790224e-06  1.0665054e+08  1080144.8      9.6288851e-17  2.0070739e+10  3.182331e-16 
      2000   1.925777e-13   99996.927      100009.24      96211.851      2.5953062e-06  5.182022e-07   2.077104e-06   1.0654433e+08  1080144.8      9.6288851e-17  2.0070739e+10  3.182331e-16 
Loop time of 16.7587 on 1 procs for 2000 steps with 100300 atoms

99.3% CPU use with 1 MPI tasks x 1 OpenMP threads

MPI task timing breakdown:
Section |  min time  |  avg time  |  max time  |%varavg| %total
---------------------------------------------------------------
Pair    | 3.2374     | 3.2374     | 3.2374     |   0.0 | 19.32
Neigh   | 10.004     | 10.004     | 10.004     |   0.0 | 59.69
Comm    | 1.0591     | 1.0591     | 1.0591     |   0.0 |  6.32
Output  | 0.0079377  | 0.0079377  | 0.0079377  |   0.0 |  0.05
Modify  | 1.7708     | 1.7708     | 1.7708     |   0.0 | 10.57
Other   |            | 0.6799     |            |       |  4.06

Nlocal:         100300 ave      100300 max      100300 min
Histogram: 1 0 0 0 0 0 0 0 0 0
Nghost:         151920 ave      151920 max      151920 min
Histogram: 1 0 0 0 0 0 0 0 0 0
Neighs:              0 ave           0 max           0 min
Histogram: 1 0 0 0 0 0 0 0 0 0
FullNghs:  2.46352e+08 ave 2.46352e+08 max 2.46352e+08 min
Histogram: 1 0 0 0 0 0 0 0 0 0

Total # of neighbors = 2.4635191e+08
Ave neighs/atom = 2456.1506
Neighbor list builds = 3
Dangerous builds = 0


---------------------------------------------------------------------
      Device Time Info (average): 
---------------------------------------------------------------------
Data Transfer:   0.2759 s.
Neighbor copy:   0.7065 s.
Neighbor unpack: 0.0000 s.
Force calc:      2.0636 s.
Device Overhead: 0.0710 s.
CPU Cast/Pack:   0.8604 s.
CPU Driver_Time: 0.0260 s.
CPU Idle_Time:   1.8061 s.
Average split:   1.0000.
Max Mem / Proc:  1239.66 MB.
Prefetch mode:   None.
Vector width:    32.
Lanes / atom:    4.
Pair block:      256.
Neigh block:     128.
Neigh mode:      Host.
---------------------------------------------------------------------


--------------------------------------------------------------------------
- Using acceleration for yukawa:
-  with 1 proc(s) per device.
-  with 1 thread(s) per proc.
-  Horizontal vector operations: ENABLED
-  Shared memory system: No
--------------------------------------------------------------------------
Device 0: NVIDIA H200, 132 CUs, 1.4e+02/1.4e+02 GB, 2 GHZ (Mixed Precision)
--------------------------------------------------------------------------

Initializing Device and compiling on process 0...Done.
Initializing Device 0 on core 0...Done.

Generated 0 of 1 mixed pair_coeff terms from geometric mixing rule
Setting up Verlet run ...
  Unit style    : cgs
  Current step  : 2000
  Time step     : 9.62888511993653e-17
Per MPI rank memory allocation (min/avg/max) = 1090 | 1090 | 1090 Mbytes
   Step          Time           Temp         c_tempH        c_tempSi        TotEng         PotEng         KinEng         Press     
      2000   1.925777e-13   107398.47      100009.24      2579044.6      2.7490486e-06  5.182022e-07   2.2308464e-06  1.1258612e+08
      3000   2.8886655e-13  107416.79      100034.77      2576652.8      2.7490369e-06  5.1780991e-07  2.2312269e-06  1.1258435e+08
      4000   3.851554e-13   107430.17      100055.74      2574127.8      2.7490261e-06  5.1752124e-07  2.2315048e-06  1.1258449e+08
      5000   4.8144426e-13  107446.63      100088.2       2568794        2.7490233e-06  5.1717647e-07  2.2318469e-06  1.125902e+08 
      6000   5.7773311e-13  107446.54      100101.93      2564169.9      2.7490191e-06  5.1717424e-07  2.2318449e-06  1.1259152e+08
      7000   6.7402196e-13  107442.93      100112.77      2559334.9      2.7490341e-06  5.172642e-07   2.2317699e-06  1.1259287e+08
      8000   7.7031081e-13  107442.96      100130.88      2553289.7      2.7490319e-06  5.1726126e-07  2.2317706e-06  1.1259204e+08
      9000   8.6659966e-13  107429.07      100134.84      2547305.7      2.7490236e-06  5.175415e-07   2.2314821e-06  1.1258511e+08
     10000   9.6288851e-13  107448.17      100171.13      2541579.1      2.7490388e-06  5.1715985e-07  2.2318789e-06  1.1259277e+08
     11000   1.0591774e-12  107439.08      100176.54      2536715.3      2.7490187e-06  5.1732871e-07  2.2316899e-06  1.1258785e+08
     12000   1.1554662e-12  107439.52      100193.55      2531175.1      2.7490165e-06  5.1731733e-07  2.2316991e-06  1.125887e+08 
     13000   1.2517551e-12  107446.61      100210.67      2527829.5      2.7490085e-06  5.1716205e-07  2.2318464e-06  1.1259007e+08
     14000   1.3480439e-12  107463.81      100239.95      2523805.6      2.7489967e-06  5.167931e-07   2.2322036e-06  1.1259461e+08
     15000   1.4443328e-12  107455.77      100245.9       2519120.9      2.7490113e-06  5.1697458e-07  2.2320367e-06  1.1259177e+08
     16000   1.5406216e-12  107464.47      100277.57      2511445.4      2.7490241e-06  5.1680671e-07  2.2322174e-06  1.1259558e+08
     17000   1.6369105e-12  107458.55      100291.51      2504798.6      2.7490298e-06  5.1693535e-07  2.2320944e-06  1.1259538e+08
     18000   1.7331993e-12  107431.66      100278.6       2500094.8      2.749045e-06   5.1750906e-07  2.2315359e-06  1.1258841e+08
     19000   1.8294882e-12  107428.09      100295.9       2493111.9      2.7490469e-06  5.1758523e-07  2.2314617e-06  1.1258822e+08
     20000   1.925777e-12   107435.74      100317.41      2488484.3      2.7490352e-06  5.1741447e-07  2.2316207e-06  1.1258991e+08
     21000   2.0220659e-12  107452.52      100349.7       2483313.6      2.7490206e-06  5.1705145e-07  2.2319691e-06  1.1259462e+08
     22000   2.1183547e-12  107445.02      100366.12      2475308.7      2.7490375e-06  5.17224e-07    2.2318135e-06  1.1259258e+08
     23000   2.2146436e-12  107448.86      100388.85      2468990        2.7490366e-06  5.1714353e-07  2.2318931e-06  1.12594e+08  
     24000   2.3109324e-12  107430.07      100383.54      2464465.8      2.7490319e-06  5.1752906e-07  2.2315029e-06  1.1258561e+08
     25000   2.4072213e-12  107447.09      100410.93      2461013.4      2.7490156e-06  5.171592e-07   2.2318564e-06  1.1259019e+08
     26000   2.5035101e-12  107444.06      100426.83      2454678.4      2.7490095e-06  5.172161e-07   2.2317934e-06  1.125877e+08 
     27000   2.599799e-12   107434.77      100429.99      2450506.2      2.7489986e-06  5.1739814e-07  2.2316005e-06  1.1258186e+08
     28000   2.6960878e-12  107450.62      100462.3       2445017.6      2.7490082e-06  5.1707853e-07  2.2319296e-06  1.1258779e+08
     29000   2.7923767e-12  107460.64      100491.1       2438746.5      2.749009e-06   5.168712e-07   2.2321378e-06  1.1259164e+08
     30000   2.8886655e-12  107464         100512.87      2432594.6      2.7490108e-06  5.1680314e-07  2.2322077e-06  1.1259553e+08
     31000   2.9849544e-12  107449.96      100516.95      2426516.1      2.7490223e-06  5.1710639e-07  2.2319159e-06  1.1259299e+08
     32000   3.0812432e-12  107434.34      100510.79      2423337.6      2.7490217e-06  5.1743025e-07  2.2315915e-06  1.1258836e+08
     33000   3.1775321e-12  107427.27      100518.84      2418274.4      2.7490127e-06  5.1756804e-07  2.2314447e-06  1.1258618e+08
     34000   3.2738209e-12  107423.81      100535.57      2411519        2.7490133e-06  5.176404e-07   2.2313729e-06  1.1258421e+08
     35000   3.3701098e-12  107431.13      100555.97      2407153.3      2.7490101e-06  5.1748529e-07  2.2315249e-06  1.1258465e+08
     36000   3.4663986e-12  107448.06      100587.58      2402258.2      2.7490186e-06  5.1714211e-07  2.2318764e-06  1.1259166e+08
     37000   3.5626875e-12  107432.87      100588.21      2396951.5      2.7490085e-06  5.1744759e-07  2.2315609e-06  1.1258514e+08
     38000   3.6589763e-12  107447.28      100622.16      2390433.8      2.7490119e-06  5.1715154e-07  2.2318603e-06  1.1259098e+08
     39000   3.7552652e-12  107455.58      100646.8       2384977.5      2.749021e-06   5.1698826e-07  2.2320328e-06  1.1259508e+08
     40000   3.851554e-12   107448.63      100656.84      2379287.3      2.7490299e-06  5.1714159e-07  2.2318883e-06  1.1259402e+08
     41000   3.9478429e-12  107437.31      100665.03      2372751.9      2.7490225e-06  5.1736924e-07  2.2316532e-06  1.1258962e+08
     42000   4.0441318e-12  107428.79      100674.87      2366603.7      2.7490171e-06  5.1754074e-07  2.2314763e-06  1.1258547e+08
     43000   4.1404206e-12  107437.22      100701.66      2360469.8      2.7490162e-06  5.1736484e-07  2.2316513e-06  1.1258744e+08
     44000   4.2367095e-12  107441.88      100726.8       2353626        2.7490137e-06  5.1726551e-07  2.2317482e-06  1.1258777e+08
     45000   4.3329983e-12  107452.39      100755.1       2347684.4      2.7490056e-06  5.1703916e-07  2.2319665e-06  1.1258991e+08
     46000   4.4292872e-12  107457.01      100778.77      2341322.1      2.7490121e-06  5.169496e-07   2.2320625e-06  1.1259196e+08
     47000   4.525576e-12   107462.92      100800         2336200        2.7490104e-06  5.1682532e-07  2.2321851e-06  1.1259543e+08
     48000   4.6218649e-12  107444.5       100803.8       2328753.9      2.7490112e-06  5.1720859e-07  2.2318026e-06  1.1258893e+08
     49000   4.7181537e-12  107444.93      100826.59      2321273.1      2.7490142e-06  5.1720264e-07  2.2318116e-06  1.1258851e+08
     50000   4.8144426e-12  107456.35      100849.74      2317362.2      2.7490129e-06  5.1696418e-07  2.2320488e-06  1.1259185e+08
     51000   4.9107314e-12  107461.35      100868.83      2312655        2.749016e-06   5.1686339e-07  2.2321526e-06  1.1259294e+08
     52000   5.0070203e-12  107451.82      100873.58      2307869        2.7490048e-06  5.1705011e-07  2.2319547e-06  1.1259004e+08
     53000   5.1033091e-12  107442.85      100873.48      2304891.5      2.7490127e-06  5.1724445e-07  2.2317682e-06  1.1258862e+08
     54000   5.199598e-12   107440.36      100889.16      2298814.9      2.7490187e-06  5.1730211e-07  2.2317166e-06  1.1258876e+08
     55000   5.2958868e-12  107444.6       100905.6       2294738.7      2.7490194e-06  5.1721484e-07  2.2318046e-06  1.1259065e+08
     56000   5.3921757e-12  107435.28      100915.98      2288142.3      2.7490242e-06  5.1741316e-07  2.2316111e-06  1.1258701e+08
     57000   5.4884645e-12  107441.88      100936.83      2283379.8      2.7490334e-06  5.1728528e-07  2.2317481e-06  1.1259123e+08
     58000   5.5847534e-12  107435.39      100945.3       2278368.4      2.7490316e-06  5.1741835e-07  2.2316132e-06  1.1258956e+08
     59000   5.6810422e-12  107433.4       100961.73      2272208.9      2.7490341e-06  5.1746217e-07  2.2315719e-06  1.1258923e+08
     60000   5.7773311e-12  107434.99      100979.71      2266726.8      2.749032e-06   5.1742705e-07  2.2316049e-06  1.1258864e+08
     61000   5.8736199e-12  107462.16      101023.45      2261213.4      2.7490206e-06  5.1685131e-07  2.2321693e-06  1.1259671e+08
     62000   5.9699088e-12  107442.1       101022.11      2254932.5      2.7490086e-06  5.1725589e-07  2.2317527e-06  1.1258682e+08
     63000   6.0661976e-12  107441.21      101038         2249321.1      2.7489813e-06  5.1724697e-07  2.2317343e-06  1.1258366e+08
     64000   6.1624865e-12  107440.34      101051.82      2244406        2.7490083e-06  5.1729217e-07  2.2317161e-06  1.12586e+08  
     65000   6.2587753e-12  107428.5       101045.89      2242418.1      2.7490222e-06  5.1755196e-07  2.2314702e-06  1.1258399e+08
     66000   6.3550642e-12  107448.05      101084.37      2236109.5      2.7490297e-06  5.1715327e-07  2.2318764e-06  1.1259319e+08
     67000   6.451353e-12   107431.94      101078.58      2232638.9      2.7490416e-06  5.1749996e-07  2.2315416e-06  1.1258956e+08
     68000   6.5476419e-12  107439.36      101093.87      2230016.5      2.7490367e-06  5.1734092e-07  2.2316958e-06  1.1259307e+08
     69000   6.6439307e-12  107438.93      101099.75      2227904        2.749053e-06   5.173662e-07   2.2316868e-06  1.1259449e+08
     70000   6.7402196e-12  107426.99      101100.11      2223777.9      2.7490577e-06  5.1761885e-07  2.2314388e-06  1.1259062e+08
     71000   6.8365084e-12  107425.9       101116.05      2218084.2      2.7490399e-06  5.1762359e-07  2.2314163e-06  1.1258748e+08
     72000   6.9327973e-12  107433.96      101133.88      2214822.7      2.7490393e-06  5.1745564e-07  2.2315837e-06  1.1258982e+08
     73000   7.0290861e-12  107427.64      101137.54      2211479.5      2.7490369e-06  5.1758446e-07  2.2314525e-06  1.1258725e+08
     74000   7.125375e-12   107434.07      101150.77      2209209.8      2.7490325e-06  5.1744648e-07  2.231586e-06   1.1259005e+08
     75000   7.2216638e-12  107424.6       101151.15      2205905.4      2.749018e-06   5.1762885e-07  2.2313892e-06  1.1258449e+08
     76000   7.3179527e-12  107443.79      101186.43      2200544.6      2.7490076e-06  5.1721979e-07  2.2317878e-06  1.1258899e+08
     77000   7.4142415e-12  107450.31      101205.27      2196431.9      2.7489947e-06  5.1707146e-07  2.2319233e-06  1.1258919e+08
     78000   7.5105304e-12  107433.96      101200.63      2192497.5      2.7490012e-06  5.1741753e-07  2.2315836e-06  1.1258394e+08
     79000   7.6068192e-12  107441.37      101226.35      2186383.4      2.7490002e-06  5.1726268e-07  2.2317376e-06  1.1258621e+08
     80000   7.7031081e-12  107452.02      101247.33      2182937.1      2.7490123e-06  5.1705352e-07  2.2319588e-06  1.1259072e+08
     81000   7.7993969e-12  107441.57      101247.18      2179482        2.7490089e-06  5.1726717e-07  2.2317417e-06  1.1258637e+08
     82000   7.8956858e-12  107443.71      101269.12      2172864        2.7490087e-06  5.1722254e-07  2.2317862e-06  1.1258818e+08
     83000   7.9919746e-12  107435.68      101276.65      2167651.6      2.7490161e-06  5.1739666e-07  2.2316195e-06  1.1258777e+08
     84000   8.0882635e-12  107434.28      101286.31      2163948.9      2.7490177e-06  5.1742738e-07  2.2315903e-06  1.1258876e+08
     85000   8.1845524e-12  107441.21      101303.41      2160554.3      2.74902e-06    5.1728581e-07  2.2317342e-06  1.1259236e+08
     86000   8.2808412e-12  107445.17      101316.85      2157387        2.7490379e-06  5.1722148e-07  2.2318164e-06  1.1259367e+08
     87000   8.3771301e-12  107457.01      101334.06      2155608.4      2.7490369e-06  5.1697435e-07  2.2320625e-06  1.1259604e+08
     88000   8.4734189e-12  107446.95      101335.12      2151876.4      2.7490254e-06  5.171719e-07   2.2318535e-06  1.1259166e+08
     89000   8.5697078e-12  107433.89      101340.63      2145652.1      2.749041e-06   5.1745886e-07  2.2315821e-06  1.1258918e+08
     90000   8.6659966e-12  107434.82      101357.68      2140262.3      2.749024e-06   5.1742254e-07  2.2316015e-06  1.1258922e+08
     91000   8.7622855e-12  107408.55      101348.53      2134511.4      2.749042e-06   5.1798614e-07  2.2310558e-06  1.1258212e+08
     92000   8.8585743e-12  107423.78      101376.04      2130417.5      2.7490554e-06  5.1768328e-07  2.2313721e-06  1.1258863e+08
     93000   8.9548632e-12  107443.86      101413.44      2124644.2      2.7490515e-06  5.172623e-07   2.2317892e-06  1.1259448e+08
     94000   9.051152e-12   107449.57      101429.89      2121061.5      2.7490518e-06  5.171438e-07   2.231908e-06   1.1259593e+08
     95000   9.1474409e-12  107439.9       101431.43      2117299.3      2.7490448e-06  5.1733784e-07  2.231707e-06   1.1259197e+08
     96000   9.2437297e-12  107440.88      101441.45      2114280.5      2.7490209e-06  5.172934e-07   2.2317275e-06  1.125899e+08 
     97000   9.3400186e-12  107445.04      101459.01      2109799.5      2.7490371e-06  5.1722336e-07  2.2318137e-06  1.1259143e+08
     98000   9.4363074e-12  107442.28      101476.61      2102990.1      2.7490172e-06  5.1726079e-07  2.2317564e-06  1.1258864e+08
     99000   9.5325963e-12  107442.72      101499.53      2095471.2      2.7490109e-06  5.172452e-07   2.2317657e-06  1.1258916e+08
    100000   9.6288851e-12  107443.99      101510.65      2092179.7      2.7490204e-06  5.1722838e-07  2.231792e-06   1.1259088e+08
    101000   9.725174e-12   107446.78      101521.53      2089476.5      2.749019e-06   5.1716909e-07  2.2318499e-06  1.1259182e+08
    102000   9.8214628e-12  107437.99      101524.15      2085648.7      2.749011e-06   5.1734369e-07  2.2316673e-06  1.1258744e+08
    103000   9.9177517e-12  107454.43      101551.93      2081874.4      2.7490172e-06  5.1700834e-07  2.2320088e-06  1.1259308e+08
    104000   1.0014041e-11  107435.3       101543.75      2078193.1      2.7490165e-06  5.1740507e-07  2.2316114e-06  1.12585e+08  
    105000   1.0110329e-11  107455.44      101577.61      2073625.6      2.7490194e-06  5.1698957e-07  2.2320299e-06  1.1259371e+08
    106000   1.0206618e-11  107444.82      101581.98      2068602.5      2.7490311e-06  5.1722187e-07  2.2318093e-06  1.125919e+08 
    107000   1.0302907e-11  107437.08      101590.44      2063176.5      2.7490207e-06  5.173722e-07   2.2316485e-06  1.1258796e+08
    108000   1.0399196e-11  107441.46      101609.64      2058222.2      2.7490182e-06  5.1727877e-07  2.2317394e-06  1.1258794e+08
    109000   1.0495485e-11  107438.73      101618.71      2054273.2      2.7490207e-06  5.1733797e-07  2.2316827e-06  1.1258719e+08
    110000   1.0591774e-11  107448.38      101645.46      2048565        2.7490222e-06  5.1713905e-07  2.2318832e-06  1.1259033e+08
    111000   1.0688062e-11  107441.71      101649.82      2044869.8      2.7490319e-06  5.1728732e-07  2.2317446e-06  1.1258844e+08
    112000   1.0784351e-11  107452.41      101671.29      2041277.7      2.7490139e-06  5.1704707e-07  2.2319669e-06  1.1259082e+08
    113000   1.088064e-11   107460.03      101693.88      2036275.5      2.7490181e-06  5.1689301e-07  2.2321251e-06  1.1259468e+08
    114000   1.0976929e-11  107445.09      101690.68      2032336.5      2.7490167e-06  5.1720181e-07  2.2318149e-06  1.125901e+08 
    115000   1.1073218e-11  107436.9       101696.39      2027681.3      2.7490309e-06  5.1738612e-07  2.2316447e-06  1.1258866e+08
    116000   1.1169507e-11  107447.55      101721.78      2022762.2      2.7490416e-06  5.1717556e-07  2.231866e-06   1.1259362e+08
    117000   1.1265796e-11  107422.28      101710.74      2017976        2.7490259e-06  5.1768491e-07  2.231341e-06   1.1258333e+08
    118000   1.1362084e-11  107433.97      101733.87      2014161.1      2.7490066e-06  5.1742281e-07  2.2315838e-06  1.1258643e+08
    119000   1.1458373e-11  107452.55      101763.57      2010464.6      2.7490042e-06  5.1703431e-07  2.2319699e-06  1.1259291e+08
    120000   1.1554662e-11  107431.29      101762.32      2003747.8      2.7490131e-06  5.1748486e-07  2.2315282e-06  1.1258533e+08
    121000   1.1650951e-11  107453.71      101797.67      1999445.9      2.7490109e-06  5.1701692e-07  2.231994e-06   1.1259366e+08
    122000   1.174724e-11   107441.47      101795.59      1996035.9      2.7489953e-06  5.1725575e-07  2.2317396e-06  1.1258574e+08
    123000   1.1843529e-11  107462.17      101832.41      1990665.4      2.7490164e-06  5.1684685e-07  2.2321696e-06  1.1259427e+08
    124000   1.1939818e-11  107450.11      101829.33      1987650.3      2.7490381e-06  5.1711897e-07  2.2319191e-06  1.1259338e+08
    125000   1.2036106e-11  107428.24      101818.64      1983890        2.7490371e-06  5.1757219e-07  2.2314649e-06  1.1258664e+08
    126000   1.2132395e-11  107434.56      101842.96      1977875        2.7490267e-06  5.174306e-07   2.231596e-06   1.1258796e+08
    127000   1.2228684e-11  107438.97      101862.85      1972703.2      2.7490362e-06  5.1734843e-07  2.2316878e-06  1.1259013e+08
    128000   1.2324973e-11  107434.25      101866.99      1969734.4      2.7490333e-06  5.1744369e-07  2.2315896e-06  1.1258935e+08
    129000   1.2421262e-11  107431.11      101868.32      1968238.2      2.7490427e-06  5.1751825e-07  2.2315245e-06  1.1258953e+08
    130000   1.2517551e-11  107439.13      101878.9       1967389.5      2.7490334e-06  5.1734235e-07  2.2316911e-06  1.1259018e+08
    131000   1.261384e-11   107443.56      101894.9       1963524.9      2.7490075e-06  5.1722438e-07  2.2317831e-06  1.1258841e+08
    132000   1.2710128e-11  107440.69      101906.51      1958676.1      2.7490131e-06  5.1728976e-07  2.2317234e-06  1.1258883e+08
    133000   1.2806417e-11  107437.37      101917.77      1953799.4      2.749028e-06   5.1737356e-07  2.2316545e-06  1.1258963e+08
    134000   1.2902706e-11  107436.64      101934.54      1947944.6      2.7490404e-06  5.1740113e-07  2.2316392e-06  1.125902e+08 
    135000   1.2998995e-11  107435.69      101950.68      1942226.3      2.7490223e-06  5.1740287e-07  2.2316195e-06  1.12588e+08  
    136000   1.3095284e-11  107439.14      101974.86      1935296.9      2.7490277e-06  5.1733645e-07  2.2316912e-06  1.1258936e+08
    137000   1.3191573e-11  107447.05      101998.68      1929984.3      2.7490152e-06  5.171597e-07   2.2318555e-06  1.1259097e+08
    138000   1.3287861e-11  107446.7       102006.74      1927174.2      2.7490126e-06  5.1716434e-07  2.2318483e-06  1.1258974e+08
    139000   1.338415e-11   107440.17      102017.05      1921532.6      2.748991e-06   5.1727844e-07  2.2317126e-06  1.1258445e+08
    140000   1.3480439e-11  107457.78      102043.92      1918454.2      2.7489996e-06  5.1692115e-07  2.2320784e-06  1.1259096e+08
    141000   1.3576728e-11  107449.5       102048.6       1914113        2.748981e-06   5.1707447e-07  2.2319065e-06  1.1258563e+08
    142000   1.3673017e-11  107447.53      102060.01      1909634.8      2.7489842e-06  5.1711875e-07  2.2318655e-06  1.1258585e+08
    143000   1.3769306e-11  107449.79      102067.27      1907966.3      2.749e-06      5.1708743e-07  2.2319125e-06  1.1258761e+08
    144000   1.3865595e-11  107443.69      102076.75      1902750.2      2.7490081e-06  5.1722228e-07  2.2317858e-06  1.1258595e+08
    145000   1.3961883e-11  107462.21      102108.39      1898378        2.7490002e-06  5.1682983e-07  2.2321703e-06  1.1259207e+08
    146000   1.4058172e-11  107454.13      102111.83      1894516.7      2.7490049e-06  5.170024e-07   2.2320025e-06  1.125893e+08 
    147000   1.4154461e-11  107452.33      102119.6       1891313.5      2.7490168e-06  5.1705171e-07  2.2319651e-06  1.1259051e+08
    148000   1.425075e-11   107428.73      102110.88      1886316.7      2.7490093e-06  5.1753435e-07  2.231475e-06   1.1258305e+08
    149000   1.4347039e-11  107434.26      102126.5       1882948.1      2.7489999e-06  5.1740995e-07  2.23159e-06    1.1258674e+08
    150000   1.4443328e-11  107420.32      102118.79      1880847.9      2.7490168e-06  5.1771646e-07  2.2313004e-06  1.1258386e+08
    151000   1.4539617e-11  107430.62      102148.16      1874479.8      2.7490179e-06  5.1750364e-07  2.2315142e-06  1.1258835e+08
    152000   1.4635905e-11  107431.74      102161.53      1870387.7      2.7490212e-06  5.174836e-07   2.2315376e-06  1.1258813e+08
    153000   1.4732194e-11  107432.23      102173.39      1866582.6      2.7490142e-06  5.1746651e-07  2.2315477e-06  1.1258611e+08
    154000   1.4828483e-11  107452.94      102214.54      1859768.6      2.7490188e-06  5.1704091e-07  2.2319779e-06  1.1259355e+08
    155000   1.4924772e-11  107466.62      102248.83      1852887.1      2.7490158e-06  5.1675383e-07  2.2322619e-06  1.1259887e+08
    156000   1.5021061e-11  107430.4       102227.25      1847955.7      2.7490213e-06  5.1751171e-07  2.2315096e-06  1.1258733e+08
    157000   1.511735e-11   107435.18      102243.3       1844191.3      2.7490277e-06  5.174187e-07   2.231609e-06   1.1258935e+08
    158000   1.5213638e-11  107440.39      102257.23      1841279.8      2.7490315e-06  5.1731423e-07  2.2317172e-06  1.1259026e+08
    159000   1.5309927e-11  107427.54      102257.84      1836765.1      2.749029e-06   5.175787e-07   2.2314503e-06  1.1258529e+08
    160000   1.5406216e-11  107443.72      102289.16      1831716.8      2.749044e-06   5.172577e-07   2.2317863e-06  1.1259357e+08
    161000   1.5502505e-11  107446.82      102308.39      1826325.3      2.7490387e-06  5.1718803e-07  2.2318507e-06  1.1259435e+08
    162000   1.5598794e-11  107439.38      102311.95      1822642.1      2.7490419e-06  5.1734558e-07  2.2316963e-06  1.1259171e+08
    163000   1.5695083e-11  107435.32      102323.56      1817396        2.7490474e-06  5.1743559e-07  2.2316118e-06  1.1259128e+08
    164000   1.5791372e-11  107438.94      102347.84      1810490.9      2.7490279e-06  5.1734079e-07  2.2316871e-06  1.1259234e+08
    165000   1.588766e-11   107432.29      102355.13      1805820.5      2.7490242e-06  5.1747529e-07  2.2315489e-06  1.1258848e+08
    166000   1.5983949e-11  107448.9       102384.51      1801565.4      2.7490257e-06  5.1713178e-07  2.2318939e-06  1.1259126e+08
    167000   1.6080238e-11  107451.71      102395.35      1798883.9      2.7490202e-06  5.1706782e-07  2.2319524e-06  1.1259057e+08
    168000   1.6176527e-11  107448.16      102404.49      1794636.2      2.7490142e-06  5.1713569e-07  2.2318785e-06  1.1259043e+08
    169000   1.6272816e-11  107429.48      102403.15      1788818.6      2.7490206e-06  5.1753004e-07  2.2314906e-06  1.1258627e+08
    170000   1.6369105e-11  107433.62      102421.21      1784168        2.7490349e-06  5.1745823e-07  2.2315767e-06  1.125903e+08 
    171000   1.6465394e-11  107430.51      102438.24      1777427.1      2.7490338e-06  5.1752186e-07  2.2315119e-06  1.1258869e+08
    172000   1.6561682e-11  107425.09      102438.55      1775507.4      2.7490185e-06  5.1761904e-07  2.2313995e-06  1.1258362e+08
    173000   1.6657971e-11  107440.65      102461.11      1773182.1      2.7490125e-06  5.172899e-07   2.2317226e-06  1.1258744e+08
    174000   1.675426e-11   107439.65      102470.31      1769767.8      2.749008e-06   5.173061e-07   2.2317019e-06  1.1258618e+08
    175000   1.6850549e-11  107443.69      102486.39      1765744        2.7489983e-06  5.1721266e-07  2.2317857e-06  1.1258765e+08
    176000   1.6946838e-11  107441.98      102502.98      1759623        2.7490054e-06  5.1725518e-07  2.2317502e-06  1.1258901e+08
    177000   1.7043127e-11  107435.47      102513.59      1753891.2      2.749023e-06   5.1740802e-07  2.231615e-06   1.1258948e+08
    178000   1.7139416e-11  107429.63      102522.78      1748861.5      2.7490267e-06  5.1753292e-07  2.2314938e-06  1.1258695e+08
    179000   1.7235704e-11  107454.85      102561.58      1744342.4      2.7490264e-06  5.1700896e-07  2.2320175e-06  1.125947e+08 
    180000   1.7331993e-11  107441.1       102558.3       1740828.7      2.7490262e-06  5.1729418e-07  2.231732e-06   1.1258906e+08
    181000   1.7428282e-11  107431.57      102551.94      1739758.3      2.7490115e-06  5.1747751e-07  2.231534e-06   1.1258447e+08
    182000   1.7524571e-11  107450.54      102574.88      1738448.1      2.7490138e-06  5.1708578e-07  2.231928e-06   1.1259264e+08
    183000   1.762086e-11   107444.85      102583.55      1733641        2.7490313e-06  5.1722142e-07  2.2318098e-06  1.1259275e+08
    184000   1.7717149e-11  107428.64      102582.57      1728528.6      2.7490307e-06  5.1755766e-07  2.2314731e-06  1.125868e+08 
    185000   1.7813437e-11  107441.5       102611.51      1723166.3      2.7490245e-06  5.1728427e-07  2.2317403e-06  1.1259184e+08
    186000   1.7909726e-11  107445.53      102624.07      1720318.9      2.7490307e-06  5.1720669e-07  2.231824e-06   1.1259251e+08
    187000   1.8006015e-11  107443.8       102631.63      1717207.1      2.749027e-06   5.1723899e-07  2.231788e-06   1.1259076e+08
    188000   1.8102304e-11  107447.14      102643.01      1714523.5      2.7490384e-06  5.1718102e-07  2.2318574e-06  1.1259241e+08
    189000   1.8198593e-11  107454.99      102663.8       1710202.7      2.7490364e-06  5.1701595e-07  2.2320204e-06  1.1259631e+08
    190000   1.8294882e-11  107441.61      102656.24      1708240.6      2.7490342e-06  5.172917e-07   2.2317425e-06  1.1259147e+08
    191000   1.8391171e-11  107428.1       102662.14      1701740.4      2.7490277e-06  5.175657e-07   2.231462e-06   1.1258632e+08
    192000   1.8487459e-11  107428.85      102680.06      1695996.2      2.7490063e-06  5.1752881e-07  2.2314775e-06  1.125836e+08 
    193000   1.8583748e-11  107449.68      102715.45      1691146.6      2.7490049e-06  5.1709479e-07  2.2319101e-06  1.125885e+08 
    194000   1.8680037e-11  107454.43      102732.34      1687092.7      2.7490027e-06  5.1699396e-07  2.2320088e-06  1.1258757e+08
    195000   1.8776326e-11  107466.26      102756.99      1682815.7      2.7490111e-06  5.1675655e-07  2.2322545e-06  1.125939e+08 
    196000   1.8872615e-11  107441.24      102749.46      1676941.9      2.7490125e-06  5.1727776e-07  2.2317348e-06  1.1258663e+08
    197000   1.8968904e-11  107443.44      102769.08      1671119.8      2.7490198e-06  5.172392e-07   2.2317806e-06  1.1258803e+08
    198000   1.9065193e-11  107445.44      102787.45      1665645.9      2.7490303e-06  5.1720814e-07  2.2318221e-06  1.1258955e+08
    199000   1.9161481e-11  107452.98      102806.74      1661721.6      2.7490225e-06  5.1704383e-07  2.2319786e-06  1.1259191e+08
    200000   1.925777e-11   107445.93      102813.52      1657090.8      2.7490239e-06  5.1719157e-07  2.2318323e-06  1.1259089e+08
    201000   1.9354059e-11  107422.27      102800.47      1653517.4      2.7490234e-06  5.1768261e-07  2.2313408e-06  1.1258438e+08
    202000   1.9450348e-11  107423.69      102817.48      1648306.5      2.7490218e-06  5.1765138e-07  2.2313704e-06  1.1258551e+08
    203000   1.9546637e-11  107432.39      102839.17      1643972.3      2.7490287e-06  5.1747759e-07  2.2315511e-06  1.1258758e+08
    204000   1.9642926e-11  107423.63      102845.7       1638847.5      2.7490344e-06  5.1766538e-07  2.231369e-06   1.1258308e+08
    205000   1.9739214e-11  107454.41      102884.59      1636164.8      2.7490403e-06  5.17032e-07    2.2320083e-06  1.1259517e+08
    206000   1.9835503e-11  107424.94      102870.07      1631138.3      2.7490428e-06  5.1764649e-07  2.2313963e-06  1.1258636e+08
    207000   1.9931792e-11  107429.88      102885.62      1627592.8      2.7490476e-06  5.175487e-07   2.2314989e-06  1.1258898e+08
    208000   2.0028081e-11  107435.68      102905.21      1622986.6      2.7490492e-06  5.1742983e-07  2.2316194e-06  1.1259005e+08
    209000   2.012437e-11   107456.89      102936.85      1619520.2      2.7490542e-06  5.1699427e-07  2.2320599e-06  1.1259888e+08
    210000   2.0220659e-11  107430.1       102923.85      1614881.9      2.7490605e-06  5.1755712e-07  2.2315034e-06  1.1259095e+08
    211000   2.0316948e-11  107413.3       102915.73      1611960.2      2.7490629e-06  5.1790844e-07  2.2311544e-06  1.1258643e+08
    212000   2.0413236e-11  107424.55      102935.76      1609037.5      2.7490513e-06  5.1766304e-07  2.2313882e-06  1.1258935e+08
    213000   2.0509525e-11  107433.9       102952.41      1606604.7      2.7490591e-06  5.1747658e-07  2.2315825e-06  1.1259335e+08
    214000   2.0605814e-11  107449.83      102979.46      1602903.7      2.7490568e-06  5.1714339e-07  2.2319134e-06  1.1259841e+08
    215000   2.0702103e-11  107430.96      102971.86      1599113.6      2.7490295e-06  5.175081e-07   2.2315214e-06  1.1258916e+08
    216000   2.0798392e-11  107437.55      102988.86      1595638.8      2.7490081e-06  5.1734982e-07  2.2316583e-06  1.1258914e+08
    217000   2.0894681e-11  107452.51      103017.91      1590941        2.7490182e-06  5.1704915e-07  2.231969e-06   1.1259431e+08
    218000   2.099097e-11   107440.36      103018.76      1586583.8      2.7490321e-06  5.173154e-07   2.2317167e-06  1.1258955e+08
    219000   2.1087258e-11  107436.91      103029.14      1581954.1      2.7490352e-06  5.1739023e-07  2.231645e-06   1.1258754e+08
    220000   2.1183547e-11  107454.97      103052.86      1580079.7      2.7490381e-06  5.1701797e-07  2.2320202e-06  1.1259427e+08
    221000   2.1279836e-11  107464.79      103072.59      1576772.3      2.7490246e-06  5.1680071e-07  2.2322239e-06  1.125952e+08 
    222000   2.1376125e-11  107456.85      103074.38      1573508.4      2.7490099e-06  5.1695085e-07  2.2320591e-06  1.1259094e+08
    223000   2.1472414e-11  107452.25      103083.94      1568770.6      2.749004e-06   5.1704046e-07  2.2319635e-06  1.1259062e+08
    224000   2.1568703e-11  107434.93      103076.78      1565354.4      2.7489978e-06  5.1739401e-07  2.2316038e-06  1.125846e+08 
    225000   2.1664992e-11  107432.47      103084.11      1562078.6      2.7490342e-06  5.1748154e-07  2.2315527e-06  1.1258776e+08
    226000   2.176128e-11   107427.97      103091.77      1558007.8      2.749047e-06   5.1758778e-07  2.2314592e-06  1.1258855e+08
    227000   2.1857569e-11  107419.24      103092.35      1554885.9      2.7490507e-06  5.1777281e-07  2.2312779e-06  1.1258703e+08
    228000   2.1953858e-11  107428.95      103113.63      1551022.1      2.749047e-06   5.175675e-07   2.2314795e-06  1.1258947e+08
    229000   2.2050147e-11  107457.88      103152.6       1547695.8      2.7490479e-06  5.1696732e-07  2.2320806e-06  1.1259779e+08
    230000   2.2146436e-11  107451.13      103150.98      1545975.2      2.7490417e-06  5.1710129e-07  2.2319404e-06  1.1259334e+08
    231000   2.2242725e-11  107447.09      103157.85      1542322        2.7490484e-06  5.1719196e-07  2.2318565e-06  1.1259289e+08
    232000   2.2339013e-11  107440.22      103160.13      1539252.5      2.7490339e-06  5.173202e-07   2.2317137e-06  1.1259028e+08
    233000   2.2435302e-11  107441.64      103176.02      1534415.1      2.7490494e-06  5.1730626e-07  2.2317431e-06  1.1259426e+08
    234000   2.2531591e-11  107421.16      103167.78      1530302.6      2.7490455e-06  5.1772767e-07  2.2313178e-06  1.1258581e+08
    235000   2.262788e-11   107432.95      103190.26      1526736.9      2.7490426e-06  5.1747996e-07  2.2315626e-06  1.1258873e+08
    236000   2.2724169e-11  107444.33      103211.58      1523425.2      2.7490404e-06  5.1724136e-07  2.231799e-06   1.1259261e+08
    237000   2.2820458e-11  107440.08      103220.91      1518878.5      2.749052e-06   5.1734123e-07  2.2317108e-06  1.1259332e+08
    238000   2.2916747e-11  107427.31      103220.78      1514639.2      2.7490407e-06  5.1759507e-07  2.2314456e-06  1.1258776e+08
    239000   2.3013035e-11  107445.49      103253         1509959.9      2.7490398e-06  5.1721675e-07  2.2318231e-06  1.1259404e+08
    240000   2.3109324e-11  107434.21      103253.08      1506150.1      2.749043e-06   5.1745419e-07  2.2315888e-06  1.1259066e+08
    241000   2.3205613e-11  107426.27      103256.9       1502212.2      2.7490342e-06  5.176102e-07   2.231424e-06   1.1258766e+08
    242000   2.3301902e-11  107439.2       103278.24      1499411.2      2.749026e-06   5.1733346e-07  2.2316925e-06  1.1259139e+08
    243000   2.3398191e-11  107441.6       103289.77      1496358.2      2.7490109e-06  5.1726853e-07  2.2317424e-06  1.1258867e+08
    244000   2.349448e-11   107454.33      103306.71      1494965.7      2.7489974e-06  5.1699056e-07  2.2320068e-06  1.1259044e+08
    245000   2.3590769e-11  107456.77      103316.79      1492410.1      2.7490086e-06  5.1695121e-07  2.2320574e-06  1.1259184e+08
    246000   2.3687057e-11  107449.82      103324.29      1487571.4      2.7490104e-06  5.1709743e-07  2.231913e-06   1.125892e+08 
    247000   2.3783346e-11  107442.56      103329.55      1483376.9      2.7490111e-06  5.1724889e-07  2.2317622e-06  1.1258736e+08
    248000   2.3879635e-11  107436.17      103333.42      1479939.6      2.7490013e-06  5.1737175e-07  2.2316296e-06  1.1258603e+08
    249000   2.3975924e-11  107430.99      103332.6       1478474.1      2.749e-06      5.1747814e-07  2.2315219e-06  1.125838e+08 
    250000   2.4072213e-11  107438.35      103346.76      1476207.6      2.7489984e-06  5.173236e-07   2.2316748e-06  1.1258468e+08
    251000   2.4168502e-11  107450.45      103372.78      1471563.8      2.7489996e-06  5.1707347e-07  2.2319261e-06  1.1258831e+08
    252000   2.4264791e-11  107462.22      103398.18      1467019.3      2.7489893e-06  5.1681868e-07  2.2321706e-06  1.1259193e+08
    253000   2.4361079e-11  107454.92      103398.98      1464302.9      2.7490027e-06  5.1698372e-07  2.232019e-06   1.1259169e+08
    254000   2.4457368e-11  107434.88      103394.03      1459235.2      2.7490211e-06  5.1741835e-07  2.2316027e-06  1.1258597e+08
    255000   2.4553657e-11  107438.45      103412.79      1454158.6      2.749034e-06   5.1735715e-07  2.2316769e-06  1.1258916e+08
    256000   2.4649946e-11  107443.05      103435.55      1448091.7      2.7490185e-06  5.172459e-07   2.2317726e-06  1.1259018e+08
    257000   2.4746235e-11  107439.03      103444.8       1443646.9      2.7490153e-06  5.1732636e-07  2.2316889e-06  1.1258916e+08
    258000   2.4842524e-11  107439.83      103458.4       1439368        2.7490264e-06  5.1732092e-07  2.2317055e-06  1.1258988e+08
    259000   2.4938812e-11  107446.78      103478.29      1435046.6      2.7490159e-06  5.1716588e-07  2.23185e-06    1.1259103e+08
    260000   2.5035101e-11  107431.52      103470.72      1432458.4      2.7490175e-06  5.1748451e-07  2.2315329e-06  1.1258501e+08
    261000   2.513139e-11   107441.78      103490.63      1429241.3      2.7490326e-06  5.172865e-07   2.2317461e-06  1.1259121e+08
    262000   2.5227679e-11  107439.65      103495.04      1427052.6      2.7490254e-06  5.1732368e-07  2.2317018e-06  1.1259133e+08
    263000   2.5323968e-11  107432.64      103497.98      1423718.6      2.7490237e-06  5.1746752e-07  2.2315562e-06  1.1258784e+08
    264000   2.5420257e-11  107434.62      103508.9       1420728.4      2.74901e-06    5.1741277e-07  2.2315973e-06  1.1258666e+08
    265000   2.5516546e-11  107442.3       103527.68      1417025.1      2.7490221e-06  5.1726524e-07  2.2317568e-06  1.1258961e+08
    266000   2.5612834e-11  107445.59      103542.35      1413225.9      2.7490158e-06  5.1719049e-07  2.2318253e-06  1.125894e+08 
    267000   2.5709123e-11  107447.99      103557.31      1409024.5      2.7490112e-06  5.1713607e-07  2.2318751e-06  1.1258827e+08
    268000   2.5805412e-11  107447.21      103572.72      1403610.5      2.7490081e-06  5.1714915e-07  2.2318589e-06  1.1258739e+08
    269000   2.5901701e-11  107448.59      103584.34      1400188.7      2.7490012e-06  5.1711363e-07  2.2318876e-06  1.1258875e+08
    270000   2.599799e-11   107442.54      103590.93      1395951.2      2.7490094e-06  5.1724765e-07  2.2317618e-06  1.1258761e+08
    271000   2.6094279e-11  107443.67      103604.92      1391653.8      2.749028e-06   5.1724262e-07  2.2317854e-06  1.1258989e+08
    272000   2.6190568e-11  107432.69      103607.56      1387088.4      2.7490547e-06  5.1749742e-07  2.2315573e-06  1.1258911e+08
    273000   2.6286856e-11  107434.99      103622.56      1382840.3      2.7490526e-06  5.1744764e-07  2.2316049e-06  1.1259198e+08
    274000   2.6383145e-11  107435.37      103630.25      1380399.7      2.7490563e-06  5.1744331e-07  2.231613e-06   1.1259428e+08
    275000   2.6479434e-11  107423.92      103630.73      1376397.4      2.749042e-06   5.1766681e-07  2.2313752e-06  1.125885e+08 
    276000   2.6575723e-11  107434.12      103652.14      1372655.4      2.7490219e-06  5.1743503e-07  2.2315869e-06  1.125896e+08 
    277000   2.6672012e-11  107421.41      103650.77      1368849.5      2.7490216e-06  5.1769869e-07  2.2313229e-06  1.1258377e+08
    278000   2.6768301e-11  107437.56      103675.02      1366159.9      2.7490056e-06  5.1734712e-07  2.2316585e-06  1.1258814e+08
    279000   2.6864589e-11  107428.91      103677.93      1362285.9      2.7490121e-06  5.1753333e-07  2.2314788e-06  1.1258504e+08
    280000   2.6960878e-11  107434.1       103697.27      1357556.6      2.7490176e-06  5.1743103e-07  2.2315865e-06  1.1258548e+08
    281000   2.7057167e-11  107442.2       103715.53      1354167.6      2.7490242e-06  5.1726942e-07  2.2317548e-06  1.125877e+08 
    282000   2.7153456e-11  107437.13      103718.76      1351385        2.7489995e-06  5.1735001e-07  2.2316495e-06  1.1258384e+08
    283000   2.7249745e-11  107451.53      103744.57      1347582.7      2.7490013e-06  5.1705271e-07  2.2319486e-06  1.1258971e+08
    284000   2.7346034e-11  107432.87      103737.34      1343742        2.7490131e-06  5.1745219e-07  2.2315609e-06  1.1258468e+08
    285000   2.7442323e-11  107449.9       103762.52      1341033.1      2.7490126e-06  5.1709789e-07  2.2319147e-06  1.1259089e+08
    286000   2.7538611e-11  107449.2       103774.42      1336818.4      2.7490132e-06  5.1711303e-07  2.2319002e-06  1.1259032e+08
    287000   2.76349e-11    107449.87      103782.25      1334425.8      2.7490209e-06  5.1710682e-07  2.2319141e-06  1.1259128e+08
    288000   2.7731189e-11  107434.59      103775.75      1331474.3      2.7490475e-06  5.1745081e-07  2.2315967e-06  1.1258844e+08
    289000   2.7827478e-11  107419.68      103770.62      1328188.2      2.749031e-06   5.1774392e-07  2.2312871e-06  1.1258247e+08
    290000   2.7923767e-11  107446.04      103808.85      1324244.7      2.7490288e-06  5.1719428e-07  2.2318345e-06  1.1259304e+08
    291000   2.8020056e-11  107420.8       103794.38      1320618.1      2.7490234e-06  5.1771318e-07  2.2313102e-06  1.1258368e+08
    292000   2.8116345e-11  107429.38      103815.53      1316422.4      2.7490314e-06  5.1754279e-07  2.2314886e-06  1.1258825e+08
    293000   2.8212633e-11  107434.74      103833.72      1312135.7      2.7490255e-06  5.1742576e-07  2.2315998e-06  1.1258935e+08
    294000   2.8308922e-11  107448.6       103856.09      1309304.4      2.7490206e-06  5.1713286e-07  2.2318877e-06  1.1259174e+08
    295000   2.8405211e-11  107436.86      103858.11      1304690.5      2.7490337e-06  5.1738982e-07  2.2316439e-06  1.1258836e+08
    296000   2.85015e-11    107419.68      103853.3       1300538        2.7490191e-06  5.1773201e-07  2.231287e-06   1.1258181e+08
    297000   2.8597789e-11  107427.34      103867.9       1298220.9      2.7490151e-06  5.1756895e-07  2.2314461e-06  1.1258598e+08
    298000   2.8694078e-11  107435.62      103884.89      1295319        2.7490016e-06  5.1738349e-07  2.2316181e-06  1.1258864e+08
    299000   2.8790367e-11  107422         103884.29      1290952        2.7490137e-06  5.1767847e-07  2.2313353e-06  1.1258407e+08
    300000   2.8886655e-11  107434.46      103908.03      1287190.2      2.749021e-06   5.1742692e-07  2.2315941e-06  1.1258866e+08
    301000   2.8982944e-11  107443.04      103924.17      1284670.7      2.7490158e-06  5.1724345e-07  2.2317723e-06  1.1259166e+08
    302000   2.9079233e-11  107424.33      103913.82      1281855.6      2.749036e-06   5.1765251e-07  2.2313835e-06  1.125871e+08 
    303000   2.9175522e-11  107422.71      103921.17      1278854.7      2.7490411e-06  5.1769101e-07  2.23135e-06    1.1258831e+08
    304000   2.9271811e-11  107427.25      103929.36      1277638.8      2.7490412e-06  5.1759696e-07  2.2314442e-06  1.1258921e+08
    305000   2.93681e-11    107435.6       103945.37      1275082.8      2.7490359e-06  5.1741825e-07  2.2316176e-06  1.1259074e+08
    306000   2.9464388e-11  107429.2       103946.01      1272723.7      2.7490488e-06  5.1756396e-07  2.2314848e-06  1.1258866e+08
    307000   2.9560677e-11  107433.72      103963.09      1268527.4      2.7490492e-06  5.174704e-07   2.2315788e-06  1.1259016e+08
    308000   2.9656966e-11  107434.86      103970.09      1266568.5      2.7490599e-06  5.1745765e-07  2.2316023e-06  1.1259125e+08
    309000   2.9753255e-11  107450.12      103991.27      1264603.9      2.7490539e-06  5.1713466e-07  2.2319193e-06  1.1259725e+08
    310000   2.9849544e-11  107425.16      103978.64      1260455.3      2.7490488e-06  5.1764798e-07  2.2314008e-06  1.125877e+08 
    311000   2.9945833e-11  107444.73      104008.82      1256926.4      2.7490444e-06  5.1723706e-07  2.2318074e-06  1.1259431e+08
    312000   3.0042122e-11  107437.5       104008.83      1254495.6      2.7490311e-06  5.1737402e-07  2.2316571e-06  1.125902e+08 
    313000   3.013841e-11   107432.87      104012.96      1251564.6      2.7490155e-06  5.1745441e-07  2.2315611e-06  1.125878e+08 
    314000   3.0234699e-11  107434.38      104023.64      1248499.9      2.7490102e-06  5.1741781e-07  2.2315924e-06  1.1258822e+08
    315000   3.0330988e-11  107434.58      104032         1245770.2      2.7490379e-06  5.1744125e-07  2.2315966e-06  1.1259077e+08
    316000   3.0427277e-11  107434.16      104044.02      1241608.7      2.7490262e-06  5.1743829e-07  2.2315879e-06  1.1259018e+08
    317000   3.0523566e-11  107426.25      104040.82      1240026.9      2.7490242e-06  5.1760064e-07  2.2314236e-06  1.125865e+08 
    318000   3.0619855e-11  107441.89      104061.78      1238261.5      2.7490217e-06  5.1727341e-07  2.2317483e-06  1.1259148e+08
    319000   3.0716144e-11  107428.65      104059.65      1234532.2      2.749029e-06   5.1755576e-07  2.2314733e-06  1.1258641e+08
    320000   3.0812432e-11  107448.76      104088.81      1231522.8      2.7490338e-06  5.1714284e-07  2.231891e-06   1.1259432e+08
    321000   3.0908721e-11  107448.05      104099.56      1227692.2      2.7490481e-06  5.1717175e-07  2.2318764e-06  1.12595e+08  
    322000   3.100501e-11   107457.18      104118.57      1224398.5      2.7490348e-06  5.1696888e-07  2.2320659e-06  1.1259701e+08
    323000   3.1101299e-11  107442.54      104114.02      1221008.2      2.749042e-06   5.1728019e-07  2.2317618e-06  1.1259167e+08
    324000   3.1197588e-11  107440.24      104124.18      1216839.7      2.7490291e-06  5.1731497e-07  2.2317141e-06  1.1259068e+08
    325000   3.1293877e-11  107435.99      104130.25      1213382.8      2.7490313e-06  5.1740547e-07  2.2316258e-06  1.1258996e+08
    326000   3.1390165e-11  107437.37      104142.3       1209816.4      2.7490436e-06  5.1738914e-07  2.2316544e-06  1.1259059e+08
    327000   3.1486454e-11  107447.85      104159.93      1207433.8      2.7490283e-06  5.1715622e-07  2.2318721e-06  1.1259379e+08
    328000   3.1582743e-11  107431.65      104149.73      1205414.6      2.7490344e-06  5.1749861e-07  2.2315358e-06  1.1258861e+08
    329000   3.1679032e-11  107441.09      104163.23      1204061.1      2.7490283e-06  5.172966e-07   2.2317317e-06  1.1259037e+08
    330000   3.1775321e-11  107443.71      104173.55      1201490.9      2.7490173e-06  5.1723121e-07  2.2317861e-06  1.1258874e+08
    331000   3.187161e-11   107435.15      104170.1       1199772.6      2.7490265e-06  5.1741813e-07  2.2316084e-06  1.1258711e+08
    332000   3.1967899e-11  107419.28      104164.42      1196348.5      2.7490374e-06  5.177587e-07   2.2312787e-06  1.1258442e+08
    333000   3.2064187e-11  107422.69      104173.62      1194414.5      2.7490352e-06  5.1768571e-07  2.2313495e-06  1.1258774e+08
    334000   3.2160476e-11  107431.61      104194.5       1190426.2      2.7490311e-06  5.1749631e-07  2.2315348e-06  1.125908e+08 
    335000   3.2256765e-11  107436.51      104211.17      1186495.2      2.7490291e-06  5.1739246e-07  2.2316366e-06  1.125917e+08 
    336000   3.2353054e-11  107430.92      104212.8       1184072.5      2.7490398e-06  5.1751934e-07  2.2315204e-06  1.1258879e+08
    337000   3.2449343e-11  107427.98      104215.91      1182046.8      2.7490304e-06  5.1757106e-07  2.2314594e-06  1.1258617e+08
    338000   3.2545632e-11  107419.78      104210.65      1181054.8      2.7490352e-06  5.1774608e-07  2.2312891e-06  1.1258305e+08
    339000   3.2641921e-11  107447.99      104247.11      1178322.4      2.7490244e-06  5.1714944e-07  2.231875e-06   1.1259227e+08
    340000   3.2738209e-11  107439.41      104249.69      1174582.7      2.7490309e-06  5.1733414e-07  2.2316968e-06  1.1258851e+08
    341000   3.2834498e-11  107422.63      104246.17      1170133.9      2.7490317e-06  5.1768329e-07  2.2313484e-06  1.1258345e+08
    342000   3.2930787e-11  107430.63      104264.67      1166626.6      2.7490236e-06  5.1750918e-07  2.2315144e-06  1.125877e+08 
    343000   3.3027076e-11  107436.53      104279.63      1163602.6      2.7490423e-06  5.1740538e-07  2.2316369e-06  1.1259156e+08
    344000   3.3123365e-11  107438.9       104291.94      1160284.8      2.7490312e-06  5.173449e-07   2.2316863e-06  1.125903e+08 
    345000   3.3219654e-11  107443.56      104308.24      1156395.9      2.7490289e-06  5.1724575e-07  2.2317831e-06  1.1259202e+08
    346000   3.3315943e-11  107435.45      104307.96      1153765.1      2.7490482e-06  5.1743369e-07  2.2316145e-06  1.1259033e+08
    347000   3.3412231e-11  107441.38      104320.55      1151545.6      2.7490219e-06  5.1728421e-07  2.2317377e-06  1.1258968e+08
    348000   3.350852e-11   107460         104345.96      1149293.1      2.7490306e-06  5.1690615e-07  2.2321245e-06  1.1259706e+08
    349000   3.3604809e-11  107450.03      104344.2       1146537.8      2.7490351e-06  5.1711771e-07  2.2319174e-06  1.1259396e+08
    350000   3.3701098e-11  107436.67      104340.45      1143313.4      2.7490447e-06  5.1740471e-07  2.23164e-06    1.1259187e+08
    351000   3.3797387e-11  107443.01      104352.25      1141490.7      2.7490502e-06  5.172785e-07   2.2317717e-06  1.1259534e+08
    352000   3.3893676e-11  107442.22      104358.21      1139233.8      2.7490405e-06  5.1728522e-07  2.2317552e-06  1.1259441e+08
    353000   3.3989964e-11  107434.49      104355.69      1137482.3      2.7490451e-06  5.1745047e-07  2.2315946e-06  1.1259208e+08
    354000   3.4086253e-11  107445.64      104372.15      1135715.6      2.7490467e-06  5.1722058e-07  2.2318262e-06  1.1259534e+08
    355000   3.4182542e-11  107447.39      104377.13      1134639.1      2.7490552e-06  5.1719265e-07  2.2318626e-06  1.1259541e+08
    356000   3.4278831e-11  107438.47      104378.26      1131266.7      2.7490394e-06  5.1736217e-07  2.2316772e-06  1.1259111e+08
    357000   3.437512e-11   107451.73      104400.34      1128331.5      2.7490311e-06  5.1707835e-07  2.2319528e-06  1.1259435e+08
    358000   3.4471409e-11  107466.05      104427.46      1124064.2      2.749031e-06   5.1678083e-07  2.2322501e-06  1.1259775e+08
    359000   3.4567698e-11  107458.88      104429.94      1120830        2.7490379e-06  5.1693661e-07  2.2321013e-06  1.1259452e+08
    360000   3.4663986e-11  107452.88      104431.29      1118367.1      2.7490226e-06  5.1704583e-07  2.2319767e-06  1.1259174e+08
    361000   3.4760275e-11  107448.65      104439.21      1114298.2      2.7490107e-06  5.1712193e-07  2.2318887e-06  1.1258992e+08
    362000   3.4856564e-11  107438.09      104436.78      1111567.8      2.7490238e-06  5.1735442e-07  2.2316694e-06  1.1258787e+08
    363000   3.4952853e-11  107438.77      104446.02      1108706.7      2.7490154e-06  5.1733194e-07  2.2316835e-06  1.1258655e+08
    364000   3.5049142e-11  107456.98      104475.99      1104792.5      2.7490251e-06  5.1696333e-07  2.2320617e-06  1.125931e+08 
    365000   3.5145431e-11  107451.51      104478.56      1102098.1      2.7490278e-06  5.1707959e-07  2.2319482e-06  1.1259205e+08
    366000   3.524172e-11   107432.12      104465.03      1100118.5      2.7490147e-06  5.1746924e-07  2.2315455e-06  1.1258448e+08
    367000   3.5338008e-11  107440.5       104473.59      1100069.5      2.7490057e-06  5.1728614e-07  2.2317196e-06  1.1258561e+08
    368000   3.5434297e-11  107453.5       104496.32      1096824.8      2.7490097e-06  5.1702031e-07  2.2319894e-06  1.1259045e+08
    369000   3.5530586e-11  107450.01      104501.69      1093859.5      2.7490058e-06  5.170887e-07   2.2319171e-06  1.1258967e+08
    370000   3.5626875e-11  107432.47      104495.79      1089948.2      2.7490149e-06  5.1746228e-07  2.2315526e-06  1.1258688e+08
    371000   3.5723164e-11  107429.79      104503.95      1086324.1      2.7490261e-06  5.1752896e-07  2.2314971e-06  1.1258865e+08
    372000   3.5819453e-11  107428.97      104509.25      1084273.6      2.7490295e-06  5.1754941e-07  2.2314801e-06  1.1258779e+08
    373000   3.5915741e-11  107434.84      104524.95      1080991.5      2.7490365e-06  5.1743461e-07  2.2316019e-06  1.1258908e+08
    374000   3.601203e-11   107438.59      104535.41      1078748.5      2.7490496e-06  5.1736984e-07  2.2316797e-06  1.1259153e+08
    375000   3.6108319e-11  107428.17      104532.38      1076266.9      2.7490457e-06  5.1758241e-07  2.2314633e-06  1.1258897e+08
    376000   3.6204608e-11  107428.63      104539.13      1074165.6      2.7490409e-06  5.1756809e-07  2.2314729e-06  1.1258908e+08
    377000   3.6300897e-11  107438.88      104557.22      1071554.1      2.7490434e-06  5.1735754e-07  2.2316858e-06  1.1259256e+08
    378000   3.6397186e-11  107432.4       104557.04      1069439.9      2.7490316e-06  5.1748031e-07  2.2315513e-06  1.1258837e+08
    379000   3.6493475e-11  107437.15      104566.01      1068034.2      2.749036e-06   5.1738608e-07  2.2316499e-06  1.1259036e+08
    380000   3.6589763e-11  107430.07      104561.94      1067020.9      2.7490386e-06  5.1753581e-07  2.2315028e-06  1.1258931e+08
    381000   3.6686052e-11  107432.05      104570.46      1064834        2.749048e-06   5.1750411e-07  2.2315439e-06  1.1259075e+08
    382000   3.6782341e-11  107440.04      104586.39      1062188.9      2.7490448e-06  5.173348e-07   2.23171e-06    1.1259245e+08
    383000   3.687863e-11   107447.29      104601.19      1059669.6      2.7490283e-06  5.1716779e-07  2.2318605e-06  1.1259358e+08
    384000   3.6974919e-11  107442.49      104600.42      1058318        2.7490328e-06  5.1727205e-07  2.2317608e-06  1.1259304e+08
    385000   3.7071208e-11  107433.2       104594.88      1057052.6      2.7490211e-06  5.1745326e-07  2.2315678e-06  1.1258837e+08
    386000   3.7167497e-11  107456.41      104625.77      1054506.7      2.7490305e-06  5.1698059e-07  2.2320499e-06  1.1259666e+08
    387000   3.7263785e-11  107437.12      104616.69      1051073.7      2.7490212e-06  5.17372e-07    2.2316492e-06  1.1258861e+08
    388000   3.7360074e-11  107436.98      104621.83      1049309.3      2.7490223e-06  5.1737587e-07  2.2316464e-06  1.1258873e+08
    389000   3.7456363e-11  107440.67      104631.16      1047423.2      2.7490168e-06  5.1729383e-07  2.2317229e-06  1.1258966e+08
    390000   3.7552652e-11  107445.7       104639.42      1046351        2.7490091e-06  5.1718162e-07  2.2318274e-06  1.1258984e+08
    391000   3.7648941e-11  107448.48      104647.07      1044725        2.7490049e-06  5.1711964e-07  2.2318853e-06  1.1258873e+08
    392000   3.774523e-11   107446.24      104649.1       1043292.5      2.7490072e-06  5.1716858e-07  2.2318387e-06  1.1258683e+08
    393000   3.7841519e-11  107444.48      104655.94      1040417        2.7490017e-06  5.1719958e-07  2.2318021e-06  1.1258648e+08
    394000   3.7937807e-11  107443.96      104660.72      1038640.8      2.7490055e-06  5.1721422e-07  2.2317913e-06  1.1258782e+08
    395000   3.8034096e-11  107441.44      104662.94      1037057.1      2.7490196e-06  5.1728057e-07  2.231739e-06   1.1258733e+08
    396000   3.8130385e-11  107454.13      104679.08      1035914.8      2.7490309e-06  5.1702825e-07  2.2320027e-06  1.1259303e+08
    397000   3.8226674e-11  107450.04      104684.55      1032714.5      2.7490469e-06  5.1712928e-07  2.2319176e-06  1.1259504e+08
    398000   3.8322963e-11  107434.83      104678.41      1029663.8      2.7490444e-06  5.1744279e-07  2.2316016e-06  1.1259011e+08
    399000   3.8419252e-11  107442.83      104692.69      1027571.4      2.7490449e-06  5.1727709e-07  2.2317678e-06  1.1259209e+08
    400000   3.851554e-11   107434.85      104693.94      1024478.6      2.7490084e-06  5.1740624e-07  2.2316021e-06  1.1258519e+08
    401000   3.8611829e-11  107455.2       104723.15      1021535.3      2.7490082e-06  5.1698332e-07  2.2320248e-06  1.1259236e+08
    402000   3.8708118e-11  107428.8       104701.57      1019894.9      2.7490299e-06  5.1755346e-07  2.2314765e-06  1.1258401e+08
    403000   3.8804407e-11  107445.87      104724.77      1017862        2.7490276e-06  5.1719666e-07  2.231831e-06   1.1259004e+08
    404000   3.8900696e-11  107445.44      104731.01      1015630.9      2.749038e-06   5.1721584e-07  2.2318221e-06  1.1259079e+08
    405000   3.8996985e-11  107455.3       104745.37      1014138        2.7490456e-06  5.1701866e-07  2.2320269e-06  1.1259563e+08
    406000   3.9093274e-11  107444.08      104745.55      1010315        2.7490364e-06  5.1724255e-07  2.2317939e-06  1.1259136e+08
    407000   3.9189562e-11  107431.25      104733.41      1010066.1      2.7490348e-06  5.175075e-07   2.2315272e-06  1.125872e+08 
    408000   3.9285851e-11  107453.37      104759.87      1008640.3      2.7490309e-06  5.1704412e-07  2.2319867e-06  1.1259558e+08
    409000   3.938214e-11   107431.62      104744.22      1006577.3      2.7490246e-06  5.1748952e-07  2.2315351e-06  1.1258686e+08
    410000   3.9478429e-11  107444.48      104767.89      1002974.2      2.7490373e-06  5.1723516e-07  2.2318022e-06  1.1259192e+08
    411000   3.9574718e-11  107430.21      104761.5       1000326.3      2.7490295e-06  5.1752372e-07  2.2315058e-06  1.1258582e+08
    412000   3.9671007e-11  107431.69      104766.41      999182.6       2.7490122e-06  5.1747563e-07  2.2315366e-06  1.1258591e+08
    413000   3.9767296e-11  107437.24      104778.61      996963.51      2.7490107e-06  5.1735885e-07  2.2316519e-06  1.125869e+08 
    414000   3.9863584e-11  107458.56      104808.58      994090.08      2.7490084e-06  5.1691373e-07  2.2320947e-06  1.1259363e+08
    415000   3.9959873e-11  107464.47      104822.37      991461.2       2.7490179e-06  5.1680052e-07  2.2322173e-06  1.1259665e+08
    416000   4.0056162e-11  107438.11      104801.4       989633.99      2.7490236e-06  5.1735363e-07  2.2316699e-06  1.1258806e+08
    417000   4.0152451e-11  107441.06      104811.95      987093.04      2.7490321e-06  5.1730097e-07  2.2317311e-06  1.1259056e+08
    418000   4.024874e-11   107449.53      104829.6       984032.12      2.7490248e-06  5.1711766e-07  2.2319071e-06  1.1259174e+08
    419000   4.0345029e-11  107465.55      104854.49      981081.13      2.7490097e-06  5.1676985e-07  2.2322399e-06  1.1259534e+08
    420000   4.0441318e-11  107453.37      104847.94      979184.58      2.7490117e-06  5.1702488e-07  2.2319868e-06  1.1259076e+08
    421000   4.0537606e-11  107444.35      104849.1       975770.89      2.7490154e-06  5.1721604e-07  2.2317994e-06  1.1258851e+08
    422000   4.0633895e-11  107454.92      104864.46      974179.12      2.7490169e-06  5.1699797e-07  2.2320189e-06  1.1259366e+08
    423000   4.0730184e-11  107449.81      104863.03      972941.65      2.7490222e-06  5.1710944e-07  2.2319128e-06  1.1259213e+08
    424000   4.0826473e-11  107437.26      104853.85      971805.73      2.7490301e-06  5.1737789e-07  2.2316522e-06  1.1258828e+08
    425000   4.0922762e-11  107442.98      104865.88      969701.03      2.7490328e-06  5.1726171e-07  2.2317711e-06  1.1259147e+08
    426000   4.1019051e-11  107444.67      104873.99      967554.2       2.74905e-06    5.1724394e-07  2.231806e-06   1.1259344e+08
    427000   4.1115339e-11  107437.08      104873.02      965331.81      2.7490362e-06  5.1738779e-07  2.2316484e-06  1.1259002e+08
    428000   4.1211628e-11  107449.23      104893.82      962454.87      2.749049e-06   5.1714807e-07  2.2319009e-06  1.1259709e+08
    429000   4.1307917e-11  107447.31      104899.25      959991.41      2.7490328e-06  5.1717189e-07  2.2318609e-06  1.1259484e+08
    430000   4.1404206e-11  107448.03      104903.27      958887.51      2.7490249e-06  5.1714903e-07  2.2318759e-06  1.1259344e+08
    431000   4.1500495e-11  107433.41      104892.62      957546.47      2.7490219e-06  5.1744973e-07  2.2315721e-06  1.125859e+08 
    432000   4.1596784e-11  107445.07      104908.06      956294.1       2.7490191e-06  5.1720481e-07  2.2318143e-06  1.1258803e+08
    433000   4.1693073e-11  107459.03      104930.44      953492.91      2.7490285e-06  5.1692417e-07  2.2321044e-06  1.1259534e+08
    434000   4.1789361e-11  107440.19      104922.53      949819.08      2.7490336e-06  5.1732047e-07  2.2317131e-06  1.1259064e+08
    435000   4.188565e-11   107442.84      104929.52      948367.42      2.7490557e-06  5.1728767e-07  2.2317681e-06  1.1259353e+08
    436000   4.1981939e-11  107457.78      104949.67      946642.35      2.7490559e-06  5.169775e-07   2.2320784e-06  1.1259902e+08
    437000   4.2078228e-11  107441.46      104940.48      944241         2.7490392e-06  5.1729978e-07  2.2317394e-06  1.1259054e+08
    438000   4.2174517e-11  107449.66      104954.4       942335.32      2.7490274e-06  5.1711757e-07  2.2319098e-06  1.12592e+08  
    439000   4.2270806e-11  107450.43      104961.8       940119.33      2.7490025e-06  5.1707674e-07  2.2319258e-06  1.1259065e+08
    440000   4.2367095e-11  107447.53      104966.92      937435.23      2.7489938e-06  5.1712833e-07  2.2318655e-06  1.1258804e+08
    441000   4.2463383e-11  107450.18      104973.36      936166.68      2.7490118e-06  5.1709133e-07  2.2319205e-06  1.125897e+08 
    442000   4.2559672e-11  107458.99      104987.88      934266.83      2.7489996e-06  5.1689611e-07  2.2321035e-06  1.1259164e+08
    443000   4.2655961e-11  107453.84      104987.44      932689.79      2.7490057e-06  5.170091e-07   2.2319966e-06  1.125906e+08 
    444000   4.275225e-11   107448.28      104988.2       930569.76      2.7490087e-06  5.1712751e-07  2.2318812e-06  1.1258928e+08
    445000   4.2848539e-11  107433.76      104981.18      928045.13      2.7490184e-06  5.1743899e-07  2.2315794e-06  1.125853e+08 
    446000   4.2944828e-11  107428.29      104981.69      926040.52      2.7489922e-06  5.1752635e-07  2.2314659e-06  1.1258276e+08
    447000   4.3041116e-11  107429.78      104988.48      924270.2       2.7490066e-06  5.1750967e-07  2.2314969e-06  1.1258534e+08
    448000   4.3137405e-11  107417.7       104981.77      922462.24      2.7490187e-06  5.1777283e-07  2.2312459e-06  1.1258112e+08
    449000   4.3233694e-11  107432.92      105005.36      919676.66      2.7490196e-06  5.1745748e-07  2.2315621e-06  1.1258616e+08
    450000   4.3329983e-11  107433.37      105014.08      916911.02      2.7490242e-06  5.174529e-07   2.2315713e-06  1.1258635e+08
    451000   4.3426272e-11  107441.41      105028.52      914780.92      2.7490197e-06  5.172813e-07   2.2317384e-06  1.1258933e+08
    452000   4.3522561e-11  107434.23      105027.49      912717.93      2.7490095e-06  5.1742014e-07  2.2315893e-06  1.1258555e+08
    453000   4.361885e-11   107440.64      105045.42      908867.93      2.7489963e-06  5.1727398e-07  2.2317224e-06  1.1258631e+08
    454000   4.3715138e-11  107440.45      105055.43      905458.51      2.7490205e-06  5.1730201e-07  2.2317185e-06  1.1258802e+08
    455000   4.3811427e-11  107428.63      105052.62      902431.93      2.7490084e-06  5.1753549e-07  2.2314729e-06  1.1258392e+08
    456000   4.3907716e-11  107434.93      105072.94      897749.26      2.7490199e-06  5.1741611e-07  2.2316038e-06  1.1258856e+08
    457000   4.4004005e-11  107435.63      105081.46      895137.28      2.7490278e-06  5.1740942e-07  2.2316184e-06  1.1258928e+08
    458000   4.4100294e-11  107441.05      105092.95      893107.21      2.7490429e-06  5.1731207e-07  2.2317308e-06  1.1259216e+08
    459000   4.4196583e-11  107443.17      105098.39      892003.31      2.7490406e-06  5.1726558e-07  2.231775e-06   1.1259341e+08
    460000   4.4292872e-11  107427.81      105088.99      889991.12      2.7490437e-06  5.1758789e-07  2.2314559e-06  1.1258823e+08
    461000   4.438916e-11   107438.78      105102.72      889083.35      2.7490429e-06  5.1735908e-07  2.2316838e-06  1.1259281e+08
    462000   4.4485449e-11  107430.83      105102.43      886513.82      2.7490383e-06  5.1751961e-07  2.2315187e-06  1.1258988e+08
    463000   4.4581738e-11  107437.06      105119.77      882802.26      2.7490109e-06  5.1736289e-07  2.231648e-06   1.1258948e+08
    464000   4.4678027e-11  107430.21      105118.3       880997.21      2.7490236e-06  5.1751779e-07  2.2315058e-06  1.1258701e+08
    465000   4.4774316e-11  107429.05      105121.15      879650.96      2.7490133e-06  5.1753174e-07  2.2314816e-06  1.1258532e+08
    466000   4.4870605e-11  107431.72      105128.63      878044.94      2.7490207e-06  5.1748366e-07  2.231537e-06   1.1258578e+08
    467000   4.4966894e-11  107442.53      105144.66      876314.06      2.7490025e-06  5.1724076e-07  2.2317617e-06  1.1258839e+08
    468000   4.5063182e-11  107440.76      105150.83      873657.21      2.7490023e-06  5.1727735e-07  2.2317249e-06  1.1258867e+08
    469000   4.5159471e-11  107441.51      105152.84      873234.38      2.749018e-06   5.1727756e-07  2.2317404e-06  1.1259037e+08
    470000   4.525576e-11   107431.36      105150.76      870528.13      2.749019e-06   5.1748932e-07  2.2315297e-06  1.1258622e+08
    471000   4.5352049e-11  107432.21      105154.41      869591.41      2.7490093e-06  5.1746197e-07  2.2315473e-06  1.1258536e+08
    472000   4.5448338e-11  107458         105181.79      869084.84      2.7490144e-06  5.1693131e-07  2.2320831e-06  1.1259559e+08
    473000   4.5544627e-11  107455.09      105187.02      866361.86      2.7490211e-06  5.1699846e-07  2.2320226e-06  1.1259539e+08
    474000   4.5640915e-11  107417.35      105149.47      866255.16      2.7490129e-06  5.1777435e-07  2.2312385e-06  1.1258261e+08
    475000   4.5737204e-11  107414         105148.23      865548.12      2.7490272e-06  5.1785818e-07  2.231169e-06   1.1258403e+08
    476000   4.5833493e-11  107446.79      105185.75      863997.84      2.7490265e-06  5.1717644e-07  2.2318501e-06  1.1259309e+08
    477000   4.5929782e-11  107447.09      105197.18      860276.62      2.7490216e-06  5.171653e-07   2.2318563e-06  1.1259054e+08
    478000   4.6026071e-11  107449.66      105205.79      858260.98      2.7490203e-06  5.1711058e-07  2.2319098e-06  1.1259221e+08
    479000   4.612236e-11   107431.02      105192.57      856427.36      2.7490201e-06  5.1749752e-07  2.2315225e-06  1.1258607e+08
    480000   4.6218649e-11  107438.34      105204.38      854932.25      2.7490218e-06  5.1734729e-07  2.2316745e-06  1.1259049e+08
    481000   4.6314937e-11  107442.88      105211.93      853931.09      2.7490316e-06  5.1726266e-07  2.2317689e-06  1.1259207e+08
    482000   4.6411226e-11  107445.94      105218.82      852655.66      2.7490235e-06  5.1719093e-07  2.2318326e-06  1.1259163e+08
    483000   4.6507515e-11  107452.13      105229.27      851233.29      2.7490014e-06  5.1704037e-07  2.231961e-06   1.1259081e+08
    484000   4.6603804e-11  107450.26      105231.41      849892.9       2.749004e-06   5.1708183e-07  2.2319222e-06  1.1258985e+08
    485000   4.6700093e-11  107455.91      105242.55      848061.03      2.7490029e-06  5.1696325e-07  2.2320396e-06  1.125918e+08 
    486000   4.6796382e-11  107456.59      105245         847472.08      2.7490125e-06  5.1695875e-07  2.2320537e-06  1.1259211e+08
    487000   4.6892671e-11  107460.07      105251.24      846549.98      2.7490146e-06  5.1688864e-07  2.2321259e-06  1.1259372e+08
    488000   4.6988959e-11  107449.83      105246.71      844631.15      2.7490106e-06  5.1709722e-07  2.2319134e-06  1.1259043e+08
    489000   4.7085248e-11  107441.07      105246.8       841662.58      2.7490118e-06  5.1728043e-07  2.2317314e-06  1.1258819e+08
    490000   4.7181537e-11  107439.69      105251.69      839562.26      2.7490251e-06  5.1732247e-07  2.2317026e-06  1.1259092e+08
    491000   4.7277826e-11  107435.75      105254.59      837272.65      2.7490448e-06  5.1742406e-07  2.2316208e-06  1.1259073e+08
    492000   4.7374115e-11  107435.13      105256.28      836498.87      2.7490356e-06  5.1742759e-07  2.231608e-06   1.1258913e+08
    493000   4.7470404e-11  107438.62      105261.86      835805.54      2.7490325e-06  5.173521e-07   2.2316804e-06  1.1259022e+08
    494000   4.7566692e-11  107445.19      105271.62      834745.26      2.749008e-06   5.1719102e-07  2.2318169e-06  1.1258985e+08
    495000   4.7662981e-11  107451.66      105282.25      833361.58      2.7490199e-06  5.1706852e-07  2.2319514e-06  1.1259145e+08
    496000   4.775927e-11   107452         105287.56      831696.19      2.7490185e-06  5.1706009e-07  2.2319584e-06  1.1259157e+08
    497000   4.7855559e-11  107443.79      105286.7       829231.45      2.7490046e-06  5.1721682e-07  2.2317878e-06  1.1258977e+08
    498000   4.7951848e-11  107448.34      105296.52      827472.32      2.7490271e-06  5.1714482e-07  2.2318823e-06  1.1259383e+08
    499000   4.8048137e-11  107433.69      105288.26      825321.09      2.7490115e-06  5.1743352e-07  2.231578e-06   1.1258632e+08
    500000   4.8144426e-11  107453.32      105311.14      824253.44      2.7490021e-06  5.1701645e-07  2.2319857e-06  1.125911e+08 
    501000   4.8240714e-11  107456.93      105318.52      822995.28      2.7490023e-06  5.1694158e-07  2.2320607e-06  1.1259111e+08
    502000   4.8337003e-11  107456.69      105323.64      821202.6       2.7490161e-06  5.1696032e-07  2.2320558e-06  1.1259237e+08
    503000   4.8433292e-11  107440.13      105311.39      819745.53      2.7490049e-06  5.1729321e-07  2.2317117e-06  1.1258573e+08
    504000   4.8529581e-11  107433.64      105310.18      817973.48      2.7490133e-06  5.1743629e-07  2.231577e-06   1.1258436e+08
    505000   4.862587e-11   107447.03      105327.31      816734.07      2.7490263e-06  5.1717123e-07  2.2318551e-06  1.1259041e+08
    506000   4.8722159e-11  107461.75      105347.78      814830.03      2.7490017e-06  5.1684077e-07  2.232161e-06   1.1259295e+08
    507000   4.8818448e-11  107446.01      105335.07      813797.18      2.7490283e-06  5.1719441e-07  2.2318339e-06  1.1258911e+08
    508000   4.8914736e-11  107435.6       105326.83      813060.73      2.7490107e-06  5.1739303e-07  2.2316176e-06  1.1258449e+08
    509000   4.9011025e-11  107439.19      105335.91      811228.22      2.7490112e-06  5.1731894e-07  2.2316922e-06  1.1258684e+08
    510000   4.9107314e-11  107435.02      105335.18      810077.28      2.7490063e-06  5.1740054e-07  2.2316057e-06  1.1258496e+08
    511000   4.9203603e-11  107443.28      105351.74      807306.58      2.7490151e-06  5.1723779e-07  2.2317773e-06  1.1258847e+08
    512000   4.9299892e-11  107445.94      105360.21      805366.2       2.7490062e-06  5.1717381e-07  2.2318324e-06  1.1258796e+08
    513000   4.9396181e-11  107459.58      105379.44      803509.46      2.7490121e-06  5.1689634e-07  2.2321157e-06  1.1259307e+08
    514000   4.949247e-11   107454.19      105379.14      801800.81      2.7490152e-06  5.1701144e-07  2.2320038e-06  1.1259134e+08
    515000   4.9588758e-11  107429.54      105359.04      800258.66      2.7490085e-06  5.1751663e-07  2.2314919e-06  1.1258283e+08
    516000   4.9685047e-11  107444.72      105380.75      798087.59      2.7490042e-06  5.171972e-07   2.231807e-06   1.1258763e+08
    517000   4.9781336e-11  107450.47      105393.77      795663.45      2.7490119e-06  5.170853e-07   2.2319266e-06  1.1258772e+08
    518000   4.9877625e-11  107465.67      105415.2       793595.03      2.7490177e-06  5.167753e-07   2.2322424e-06  1.1259353e+08
    519000   4.9973914e-11  107456.98      105411.2       792015.87      2.7490277e-06  5.1696597e-07  2.2320618e-06  1.1259244e+08
    520000   5.0070203e-11  107445.67      105405.64      790082.1       2.749016e-06   5.1718908e-07  2.2318269e-06  1.1258917e+08
    521000   5.0166491e-11  107448.57      105412.79      788664.31      2.7490169e-06  5.171297e-07   2.2318872e-06  1.1259038e+08
    522000   5.026278e-11   107449.01      105417.96      787080.47      2.7490289e-06  5.1713273e-07  2.2318962e-06  1.1259295e+08
    523000   5.0359069e-11  107437.95      105413.08      785006.33      2.7490332e-06  5.1736664e-07  2.2316665e-06  1.1259168e+08
    524000   5.0455358e-11  107428.59      105414.12      781515.22      2.7490374e-06  5.1756535e-07  2.231472e-06   1.1258876e+08
    525000   5.0551647e-11  107403.19      105397         778723.63      2.7490228e-06  5.1807828e-07  2.2309445e-06  1.1257605e+08
    526000   5.0647936e-11  107437.45      105441.23      775420.15      2.7490176e-06  5.1736151e-07  2.2316561e-06  1.1258855e+08
    527000   5.0744225e-11  107444.3       105453.2       773716.09      2.7490321e-06  5.1723373e-07  2.2317983e-06  1.1259275e+08
    528000   5.0840513e-11  107423.06      105442.18      770276.95      2.7490299e-06  5.1767263e-07  2.2313573e-06  1.1258529e+08
    529000   5.0936802e-11  107424.53      105449.19      768426.5       2.7490413e-06  5.1765351e-07  2.2313878e-06  1.1258815e+08
    530000   5.1033091e-11  107432.03      105463.72      766083.55      2.7490393e-06  5.1749572e-07  2.2315436e-06  1.1258965e+08
    531000   5.112938e-11   107430.87      105470.98      763263.01      2.7490524e-06  5.1753297e-07  2.2315194e-06  1.1258937e+08
    532000   5.1225669e-11  107442.08      105486.25      761918.02      2.7490454e-06  5.1729302e-07  2.2317524e-06  1.1259368e+08
    533000   5.1321958e-11  107427.25      105475.04      760690.14      2.7490501e-06  5.1760591e-07  2.2314442e-06  1.1258992e+08
    534000   5.1418247e-11  107415.24      105467.93      759044.04      2.7490591e-06  5.1786417e-07  2.2311949e-06  1.1258785e+08
    535000   5.1514535e-11  107416.58      105474.42      757323.29      2.7490563e-06  5.1783361e-07  2.2312227e-06  1.1258869e+08
    536000   5.1610824e-11  107443.15      105506.08      755642.99      2.7490604e-06  5.1728591e-07  2.2317745e-06  1.1259654e+08
    537000   5.1707113e-11  107448.97      105515.23      754535.27      2.7490578e-06  5.1716245e-07  2.2318953e-06  1.1259687e+08
    538000   5.1803402e-11  107426.75      105498.22      752774.64      2.7490542e-06  5.1762019e-07  2.231434e-06   1.1259025e+08
    539000   5.1899691e-11  107415.81      105493.39      750718.02      2.7490361e-06  5.1782952e-07  2.2312066e-06  1.1258509e+08
    540000   5.199598e-11   107418.99      105500.61      749370.68      2.7490512e-06  5.1777855e-07  2.2312726e-06  1.1258505e+08
    541000   5.2092268e-11  107438.72      105521.74      748922.99      2.7490303e-06  5.1734785e-07  2.2316825e-06  1.1259029e+08
    542000   5.2188557e-11  107429.53      105515.67      747871.33      2.7490263e-06  5.1753465e-07  2.2314917e-06  1.1258684e+08
    543000   5.2284846e-11  107420.04      105508.57      747059.71      2.7490376e-06  5.1774314e-07  2.2312945e-06  1.125846e+08 
    544000   5.2381135e-11  107428.66      105520.42      745989.48      2.7490338e-06  5.1756025e-07  2.2314735e-06  1.1258901e+08
    545000   5.2477424e-11  107414.65      105510.49      744613.47      2.7490315e-06  5.1784889e-07  2.2311826e-06  1.1258322e+08
    546000   5.2573713e-11  107433.16      105528.53      744786.73      2.7490337e-06  5.1746667e-07  2.231567e-06   1.1258909e+08
    547000   5.2670002e-11  107449.1       105545.91      744320.56      2.7490391e-06  5.1714088e-07  2.2318982e-06  1.1259486e+08
    548000   5.276629e-11   107441.86      105540.16      743815.08      2.7490293e-06  5.1728167e-07  2.2317477e-06  1.1259123e+08
    549000   5.2862579e-11  107455.85      105553.98      743887.09      2.7490309e-06  5.1699252e-07  2.2320383e-06  1.1259527e+08
    550000   5.2958868e-11  107435.17      105537.99      742295.32      2.7490292e-06  5.1742044e-07  2.2316088e-06  1.1258737e+08
    551000   5.3055157e-11  107437.74      105544.96      740828.21      2.7490134e-06  5.1735121e-07  2.2316621e-06  1.1258946e+08
    552000   5.3151446e-11  107413.98      105526.46      739047.52      2.7490234e-06  5.1785466e-07  2.2311687e-06  1.1258204e+08
    553000   5.3247735e-11  107428.06      105543.34      738123.34      2.7490242e-06  5.175631e-07   2.2314611e-06  1.1258685e+08
    554000   5.3344024e-11  107432.48      105551.51      736871.81      2.7490172e-06  5.1746427e-07  2.2315529e-06  1.1258723e+08
    555000   5.3440312e-11  107425.98      105551.16      734810.07      2.7490185e-06  5.1760057e-07  2.231418e-06   1.1258408e+08
    556000   5.3536601e-11  107435.1       105562.56      734054.69      2.7490291e-06  5.1742174e-07  2.2316073e-06  1.1258705e+08
    557000   5.363289e-11   107446.36      105574.38      733880.76      2.7490265e-06  5.171853e-07   2.2318412e-06  1.1258932e+08
    558000   5.3729179e-11  107447.28      105581.83      731697.17      2.7490086e-06  5.1714818e-07  2.2318604e-06  1.1258827e+08
    559000   5.3825468e-11  107445.43      105582.12      730977.07      2.7490088e-06  5.1718692e-07  2.2318218e-06  1.1258788e+08
    560000   5.3921757e-11  107463.91      105604.56      729673.64      2.7490159e-06  5.1681015e-07  2.2322058e-06  1.1259488e+08
    561000   5.4018046e-11  107451.08      105594.36      728781.63      2.7490084e-06  5.1706916e-07  2.2319392e-06  1.1259061e+08
    562000   5.4114334e-11  107441.12      105587.92      727593.41      2.7490318e-06  5.1729951e-07  2.2317323e-06  1.1259105e+08
    563000   5.4210623e-11  107436.05      105588.01      725863.87      2.7490346e-06  5.174075e-07   2.2316271e-06  1.1259101e+08
    564000   5.4306912e-11  107434.61      105593.15      723661.53      2.7490276e-06  5.1743045e-07  2.2315971e-06  1.1259076e+08
    565000   5.4403201e-11  107435.51      105599.83      721726.03      2.7490177e-06  5.1740191e-07  2.2316158e-06  1.1259082e+08
    566000   5.449949e-11   107423.1       105592.66      719963.03      2.7490229e-06  5.1766477e-07  2.2313581e-06  1.1258623e+08
    567000   5.4595779e-11  107439.4       105614.29      718198.94      2.7490378e-06  5.173412e-07   2.2316966e-06  1.1259177e+08
    568000   5.4692067e-11  107431.88      105611         716776.22      2.7490153e-06  5.1747476e-07  2.2315405e-06  1.1258534e+08
    569000   5.4788356e-11  107448.42      105632.88      715006.28      2.7490158e-06  5.1713171e-07  2.2318841e-06  1.1259081e+08
    570000   5.4884645e-11  107434.35      105624         713252.95      2.749006e-06   5.1741438e-07  2.2315917e-06  1.1258342e+08
    571000   5.4980934e-11  107447.05      105644.99      710495.09      2.7490168e-06  5.1716129e-07  2.2318555e-06  1.12589e+08  
    572000   5.5077223e-11  107439.93      105643.77      708515.94      2.7490139e-06  5.173062e-07   2.2317077e-06  1.1258685e+08
    573000   5.5173512e-11  107437.19      105649.26      705761.46      2.7490283e-06  5.1737757e-07  2.2316507e-06  1.1258758e+08
    574000   5.5269801e-11  107444.81      105662.66      703834.71      2.7490356e-06  5.1722671e-07  2.2318089e-06  1.1259172e+08
    575000   5.5366089e-11  107426.25      105652.88      700880.9       2.7490408e-06  5.1761728e-07  2.2314235e-06  1.1258599e+08
    576000   5.5462378e-11  107424.4       105659.43      698069.22      2.749052e-06   5.1766693e-07  2.2313851e-06  1.1258609e+08
    577000   5.5558667e-11  107430.45      105671.41      696092.47      2.7490299e-06  5.1751912e-07  2.2315108e-06  1.1258714e+08
    578000   5.5654956e-11  107431.86      105678.51      694191.14      2.7490211e-06  5.1748104e-07  2.2315401e-06  1.1258771e+08
    579000   5.5751245e-11  107444.71      105696.2       692583.1       2.7490025e-06  5.171956e-07   2.2318069e-06  1.1259009e+08
    580000   5.5847534e-11  107433.76      105691.28      690558.28      2.7490036e-06  5.1742406e-07  2.2315795e-06  1.1258494e+08
    581000   5.5943823e-11  107446.35      105707.74      689275.98      2.7490064e-06  5.1716534e-07  2.2318411e-06  1.1258862e+08
    582000   5.6040111e-11  107466.36      105732.2       687808.78      2.7490116e-06  5.1675492e-07  2.2322567e-06  1.1259602e+08
    583000   5.61364e-11    107449.88      105719.18      686635.42      2.7490173e-06  5.1710293e-07  2.2319144e-06  1.1259102e+08
    584000   5.6232689e-11  107439.08      105706.43      687271.14      2.7490017e-06  5.1731176e-07  2.2316899e-06  1.125859e+08 
    585000   5.6328978e-11  107455.54      105723.5       687089.83      2.7490007e-06  5.1696868e-07  2.232032e-06   1.1259114e+08
    586000   5.6425267e-11  107450.03      105719.75      686490.62      2.7489968e-06  5.170794e-07   2.2319174e-06  1.1258865e+08
    587000   5.6521556e-11  107437.22      105708.15      686075.89      2.7489997e-06  5.1734827e-07  2.2316515e-06  1.1258517e+08
    588000   5.6617845e-11  107447.01      105717.83      686120.37      2.7489839e-06  5.1712922e-07  2.2318547e-06  1.1258718e+08
    589000   5.6714133e-11  107446.98      105722.86      684428.39      2.7490077e-06  5.1715367e-07  2.2318541e-06  1.1258771e+08
    590000   5.6810422e-11  107448.33      105727.67      683271.6       2.7490208e-06  5.1713873e-07  2.2318821e-06  1.1258797e+08
    591000   5.6906711e-11  107459.18      105739.3       683024.48      2.7490342e-06  5.169267e-07   2.2321075e-06  1.125943e+08 
    592000   5.7003e-11     107448.13      105729.46      682607.51      2.7490304e-06  5.1715235e-07  2.231878e-06   1.1259227e+08
    593000   5.7099289e-11  107449.13      105732.81      681821.94      2.7490349e-06  5.1713624e-07  2.2318987e-06  1.1259403e+08
    594000   5.7195578e-11  107456.39      105741.14      681473.46      2.7490386e-06  5.1698901e-07  2.2320495e-06  1.1259713e+08
    595000   5.7291866e-11  107437.52      105725.81      680271.1       2.7490408e-06  5.1738317e-07  2.2316576e-06  1.1259045e+08
    596000   5.7388155e-11  107421.82      105714.62      678746.21      2.7490386e-06  5.177071e-07   2.2313315e-06  1.1258566e+08
    597000   5.7484444e-11  107437.22      105734.08      677401.52      2.7490511e-06  5.1739973e-07  2.2316514e-06  1.1259342e+08
    598000   5.7580733e-11  107432.84      105736.03      675282.78      2.7490623e-06  5.1750186e-07  2.2315604e-06  1.125928e+08 
    599000   5.7677022e-11  107411.78      105719.76      673657.65      2.7490454e-06  5.1792257e-07  2.2311228e-06  1.125838e+08 
    600000   5.7773311e-11  107425.8       105746.45      669435.13      2.7490395e-06  5.176254e-07   2.2314141e-06  1.125881e+08 
    601000   5.78696e-11    107430.69      105758.63      667002.19      2.7490429e-06  5.1752727e-07  2.2315157e-06  1.1259044e+08
    602000   5.7965888e-11  107433.07      105764.9       665705.56      2.7490483e-06  5.174831e-07   2.2315652e-06  1.1259165e+08
    603000   5.8062177e-11  107438.09      105773.74      664430.12      2.7490412e-06  5.1737171e-07  2.2316695e-06  1.1259218e+08
    604000   5.8158466e-11  107432.65      105771.77      663264.56      2.7490547e-06  5.1749821e-07  2.2315564e-06  1.1259082e+08
    605000   5.8254755e-11  107434.46      105777.9       661821.21      2.7490504e-06  5.174564e-07   2.231594e-06   1.1259157e+08
    606000   5.8351044e-11  107442.9       105786.81      661674.19      2.7490404e-06  5.1727102e-07  2.2317693e-06  1.1259292e+08
    607000   5.8447333e-11  107441.97      105790.41      660155.44      2.7490377e-06  5.1728772e-07  2.23175e-06    1.1259018e+08
    608000   5.8543622e-11  107452.08      105807.07      657975.77      2.7490294e-06  5.1706944e-07  2.2319599e-06  1.1259306e+08
    609000   5.863991e-11   107434.33      105794.58      656197.5       2.7490142e-06  5.174229e-07   2.2315913e-06  1.125853e+08 
    610000   5.8736199e-11  107431.27      105790.78      656445.86      2.7490211e-06  5.1749326e-07  2.2315278e-06  1.1258494e+08
    611000   5.8832488e-11  107436.94      105798.1       655896.16      2.7490074e-06  5.1736188e-07  2.2316455e-06  1.1258683e+08
    612000   5.8928777e-11  107429.95      105800.09      652886.62      2.7490159e-06  5.1751548e-07  2.2315004e-06  1.1258558e+08
    613000   5.9025066e-11  107435.19      105814.04      649979.56      2.7490157e-06  5.1740645e-07  2.2316092e-06  1.1258729e+08
    614000   5.9121355e-11  107448.25      105831.06      648667.11      2.7490214e-06  5.17141e-07    2.2318804e-06  1.1259232e+08
    615000   5.9217643e-11  107431.92      105819.94      646909.23      2.7490262e-06  5.1748492e-07  2.2315413e-06  1.1258741e+08
    616000   5.9313932e-11  107440.27      105829.17      646623.5       2.7490252e-06  5.1731045e-07  2.2317148e-06  1.125902e+08 
    617000   5.9410221e-11  107439.05      105830.7       645702.98      2.7490169e-06  5.173275e-07   2.2316894e-06  1.12589e+08  
    618000   5.950651e-11   107423.23      105820.62      643765.05      2.7490238e-06  5.1766312e-07  2.2313607e-06  1.1258353e+08
    619000   5.9602799e-11  107431.32      105831.13      642966.46      2.7490097e-06  5.1748086e-07  2.2315289e-06  1.1258665e+08
    620000   5.9699088e-11  107429.73      105833.38      641680.78      2.7490242e-06  5.1752843e-07  2.2314958e-06  1.1258687e+08
    621000   5.9795377e-11  107447.47      105852.63      641193.24      2.7490343e-06  5.1717003e-07  2.2318643e-06  1.1259427e+08
    622000   5.9891665e-11  107423.34      105835.66      638772.5       2.7490419e-06  5.1767893e-07  2.231363e-06   1.1258562e+08
    623000   5.9987954e-11  107428.64      105842.94      638115.55      2.7490384e-06  5.1756535e-07  2.2314731e-06  1.1258622e+08
    624000   6.0084243e-11  107442.83      105857.02      638167.28      2.7490418e-06  5.1727397e-07  2.2317678e-06  1.1259286e+08
    625000   6.0180532e-11  107446.82      105863.88      637215.18      2.7490375e-06  5.1718664e-07  2.2318508e-06  1.125941e+08 
    626000   6.0276821e-11  107443.93      105863.18      636475.39      2.7490364e-06  5.1724579e-07  2.2317906e-06  1.1259183e+08
    627000   6.037311e-11   107444.97      105869.58      634683.4       2.7490355e-06  5.1722326e-07  2.2318122e-06  1.1259219e+08
    628000   6.0469399e-11  107453.72      105884.07      632775.89      2.7490342e-06  5.1704003e-07  2.2319942e-06  1.125952e+08 
    629000   6.0565687e-11  107446.3       105878.01      632311.97      2.7490424e-06  5.1720246e-07  2.23184e-06    1.1259398e+08
    630000   6.0661976e-11  107450.54      105888.57      630204.21      2.749033e-06   5.1710493e-07  2.2319281e-06  1.1259631e+08
    631000   6.0758265e-11  107428.96      105875.42      627361.84      2.7490288e-06  5.1754892e-07  2.2314799e-06  1.1258841e+08
    632000   6.0854554e-11  107435.2       105885.56      626063.97      2.7490488e-06  5.1743949e-07  2.2316094e-06  1.1259143e+08
    633000   6.0950843e-11  107433.76      105888.52      624589.64      2.7490224e-06  5.1744304e-07  2.2315794e-06  1.1258891e+08
    634000   6.1047132e-11  107436.62      105896.43      622903.6       2.7490243e-06  5.1738545e-07  2.2316389e-06  1.1259077e+08
    635000   6.1143421e-11  107428.94      105893.06      621456.03      2.7490425e-06  5.1756309e-07  2.2314794e-06  1.1258909e+08
    636000   6.1239709e-11  107424.72      105893.96      619740.48      2.7490206e-06  5.1762883e-07  2.2313918e-06  1.1258411e+08
    637000   6.1335998e-11  107444.4       105917.89      618335.1       2.7490249e-06  5.1722442e-07  2.2318004e-06  1.1259246e+08
    638000   6.1432287e-11  107419.2       105902.85      614915.05      2.7490358e-06  5.1775865e-07  2.2312771e-06  1.1258456e+08
    639000   6.1528576e-11  107420.02      105909.87      612841.6       2.749033e-06   5.1773882e-07  2.2312942e-06  1.1258374e+08
    640000   6.1624865e-11  107443.47      105939.23      610886         2.7490125e-06  5.1723134e-07  2.2317811e-06  1.125896e+08 
    641000   6.1721154e-11  107453.63      105953.1       609656.79      2.7490341e-06  5.1704198e-07  2.2319922e-06  1.1259401e+08
    642000   6.1817442e-11  107456.31      105959.5       608415.78      2.7490329e-06  5.1698506e-07  2.2320478e-06  1.1259458e+08
    643000   6.1913731e-11  107441.27      105952.04      605866.47      2.7490311e-06  5.172955e-07   2.2317356e-06  1.1258995e+08
    644000   6.201002e-11   107449.65      105965.69      604113.41      2.749028e-06   5.1711838e-07  2.2319096e-06  1.1259291e+08
    645000   6.2106309e-11  107438.51      105957.54      603099.98      2.7490318e-06  5.1735357e-07  2.2316782e-06  1.1258877e+08
    646000   6.2202598e-11  107452.74      105971.74      603126.35      2.7490121e-06  5.1703837e-07  2.2319737e-06  1.1259286e+08
    647000   6.2298887e-11  107431.27      105953.33      602081.09      2.7490106e-06  5.1748279e-07  2.2315278e-06  1.1258538e+08
    648000   6.2395176e-11  107421.65      105948.38      600510.34      2.749012e-06   5.1768393e-07  2.231328e-06   1.1258282e+08
    649000   6.2491464e-11  107435.47      105966.37      599126.97      2.7490163e-06  5.1740131e-07  2.2316149e-06  1.1258784e+08
    650000   6.2587753e-11  107450.18      105982.96      598512.49      2.7490301e-06  5.1710961e-07  2.2319205e-06  1.12594e+08  
    651000   6.2684042e-11  107435.18      105972.96      596825.53      2.7490416e-06  5.1743259e-07  2.231609e-06   1.125889e+08 
    652000   6.2780331e-11  107453.21      105991.98      596513.88      2.7490353e-06  5.1705175e-07  2.2319836e-06  1.1259547e+08
    653000   6.287662e-11   107426.79      105968.34      595556.69      2.7490421e-06  5.1760737e-07  2.2314347e-06  1.1258579e+08
    654000   6.2972909e-11  107437.92      105983.74      594142.85      2.7490371e-06  5.1737112e-07  2.231666e-06   1.1258952e+08
    655000   6.3069198e-11  107444.82      105992.75      593440.07      2.749033e-06   5.1722382e-07  2.2318092e-06  1.1259093e+08
    656000   6.3165486e-11  107435.17      105988.02      591788.01      2.7490261e-06  5.1741723e-07  2.2316088e-06  1.1258656e+08
    657000   6.3261775e-11  107432.5       105987.65      591016.94      2.7490349e-06  5.1748152e-07  2.2315534e-06  1.1258734e+08
    658000   6.3358064e-11  107431.41      105992.12      589153.83      2.7490011e-06  5.1747043e-07  2.2315307e-06  1.1258355e+08
    659000   6.3454353e-11  107438.19      106001.4       588326.22      2.7490062e-06  5.1733464e-07  2.2316716e-06  1.1258516e+08
    660000   6.3550642e-11  107442.01      106009.24      586984.53      2.7490041e-06  5.1725329e-07  2.2317509e-06  1.1258652e+08
    661000   6.3646931e-11  107451.04      106022.56      585558.95      2.7490044e-06  5.1706588e-07  2.2319385e-06  1.1259058e+08
    662000   6.3743219e-11  107431.3       106011.75      582550.37      2.7490168e-06  5.1748843e-07  2.2315284e-06  1.1258432e+08
    663000   6.3839508e-11  107431.46      106019.04      580166.9       2.7490256e-06  5.174939e-07   2.2315317e-06  1.125854e+08 
    664000   6.3935797e-11  107435.16      106027.62      578540.02      2.7490141e-06  5.1740556e-07  2.2316086e-06  1.1258628e+08
    665000   6.4032086e-11  107438.5       106039.51      575681         2.7490158e-06  5.1733792e-07  2.2316779e-06  1.125878e+08 
    666000   6.4128375e-11  107438.07      106044.46      573882.37      2.7490208e-06  5.1735173e-07  2.231669e-06   1.125887e+08 
    667000   6.4224664e-11  107425.53      106035.89      572543.16      2.7490289e-06  5.1762039e-07  2.2314085e-06  1.1258433e+08
    668000   6.4320953e-11  107436.09      106051.26      570945.24      2.7490206e-06  5.1739279e-07  2.2316278e-06  1.1258723e+08
    669000   6.4417241e-11  107471.96      106089.78      570093.54      2.749025e-06   5.1665202e-07  2.232373e-06   1.1259995e+08
    670000   6.451353e-11   107444.93      106061.61      570449.07      2.7490208e-06  5.172093e-07   2.2318115e-06  1.1258812e+08
    671000   6.4609819e-11  107451.52      106071.3       569416.14      2.7489929e-06  5.1704454e-07  2.2319483e-06  1.12589e+08  
    672000   6.4706108e-11  107441.96      106063.82      568712.86      2.7490037e-06  5.1725396e-07  2.2317497e-06  1.125875e+08 
    673000   6.4802397e-11  107435.31      106058.11      568389.43      2.7490027e-06  5.1739114e-07  2.2316116e-06  1.1258501e+08
    674000   6.4898686e-11  107442.99      106069.95      567010.01      2.7490213e-06  5.1725008e-07  2.2317713e-06  1.125887e+08 
    675000   6.4994975e-11  107443.43      106073.84      565857.27      2.7490261e-06  5.1724568e-07  2.2317804e-06  1.1258948e+08
    676000   6.5091263e-11  107440.63      106075.31      564425.66      2.749029e-06   5.1730681e-07  2.2317222e-06  1.1258948e+08
    677000   6.5187552e-11  107452.41      106090.85      563178.68      2.7490306e-06  5.1706366e-07  2.2319669e-06  1.1259428e+08
    678000   6.5283841e-11  107432.49      106076.53      561284.93      2.7490316e-06  5.1747862e-07  2.231553e-06   1.1258842e+08
    679000   6.538013e-11   107423.7       106072.86      559562.43      2.749015e-06   5.1764451e-07  2.2313705e-06  1.1258467e+08
    680000   6.5476419e-11  107412.98      106067.64      557715.89      2.7490147e-06  5.1786678e-07  2.2311479e-06  1.1257931e+08
    681000   6.5572708e-11  107435.57      106091.12      557439.14      2.7490108e-06  5.1739366e-07  2.2316171e-06  1.1258498e+08
    682000   6.5668997e-11  107442.96      106099.23      557206.35      2.7490028e-06  5.1723212e-07  2.2317707e-06  1.1258523e+08
    683000   6.5765285e-11  107446.76      106107.37      555756.53      2.7490103e-06  5.1716077e-07  2.2318495e-06  1.1258789e+08
    684000   6.5861574e-11  107447.49      106113.06      554101.62      2.7490167e-06  5.1715198e-07  2.2318647e-06  1.1258965e+08
    685000   6.5957863e-11  107430.25      106097.29      553589.68      2.7490263e-06  5.1751977e-07  2.2315066e-06  1.1258523e+08
    686000   6.6054152e-11  107437.91      106105.66      553361.09      2.7490313e-06  5.1736568e-07  2.2316656e-06  1.1259029e+08
    687000   6.6150441e-11  107442.13      106114.48      551825.73      2.7490408e-06  5.1728754e-07  2.2317533e-06  1.1259201e+08
    688000   6.624673e-11   107447.82      106118.5       552391.86      2.7490161e-06  5.1714462e-07  2.2318715e-06  1.1259156e+08
    689000   6.6343018e-11  107444.35      106117.31      551624.78      2.7490224e-06  5.1722294e-07  2.2317994e-06  1.1258962e+08
    690000   6.6439307e-11  107459.21      106134.6       550829.25      2.7490222e-06  5.1691404e-07  2.2321082e-06  1.1259575e+08
    691000   6.6535596e-11  107417.79      106092.35      551062.1       2.7490297e-06  5.1778195e-07  2.2312477e-06  1.1258293e+08
    692000   6.6631885e-11  107429.1       106104.23      550883.24      2.7490317e-06  5.1754903e-07  2.2314827e-06  1.1258744e+08
    693000   6.6728174e-11  107448.03      106126.07      549929.37      2.7490237e-06  5.1714784e-07  2.2318758e-06  1.1259206e+08
    694000   6.6824463e-11  107450.12      106129.47      549495.65      2.7490443e-06  5.1712488e-07  2.2319194e-06  1.1259463e+08
    695000   6.6920752e-11  107455.24      106136.28      548933.07      2.7490291e-06  5.170034e-07   2.2320257e-06  1.1259429e+08
    696000   6.701704e-11   107459.03      106144.35      547508.41      2.7490265e-06  5.1692204e-07  2.2321045e-06  1.1259563e+08
    697000   6.7113329e-11  107440.77      106126.22      547444.4       2.7490358e-06  5.1731069e-07  2.2317251e-06  1.1259128e+08
    698000   6.7209618e-11  107426.23      106109.88      548033.71      2.7490262e-06  5.1760305e-07  2.2314232e-06  1.125872e+08 
    699000   6.7305907e-11  107424.57      106106.6       548572.24      2.7490319e-06  5.1764317e-07  2.2313887e-06  1.1258581e+08
    700000   6.7402196e-11  107439.82      106124.55      547685.42      2.7490459e-06  5.1734059e-07  2.2317054e-06  1.1259155e+08
    701000   6.7498485e-11  107427.67      106113.97      547148.58      2.7490298e-06  5.1757675e-07  2.231453e-06   1.125867e+08 
    702000   6.7594774e-11  107432.16      106125.25      544881.34      2.7490242e-06  5.1747795e-07  2.2315462e-06  1.1258985e+08
    703000   6.7691062e-11  107422.36      106119.65      543466.23      2.7490349e-06  5.1769217e-07  2.2313427e-06  1.125857e+08 
    704000   6.7787351e-11  107435.17      106136.6       542095.46      2.7490263e-06  5.174175e-07   2.2316088e-06  1.1258886e+08
    705000   6.788364e-11   107448.31      106149.46      542203.83      2.74904e-06    5.1715824e-07  2.2318818e-06  1.125938e+08 
    706000   6.7979929e-11  107450.54      106154.05      541414.45      2.7490426e-06  5.1711459e-07  2.2319281e-06  1.1259507e+08
    707000   6.8076218e-11  107425.61      106133.28      539997.05      2.7490184e-06  5.1760817e-07  2.2314102e-06  1.1258437e+08
    708000   6.8172507e-11  107431.26      106140.78      539386.39      2.7490326e-06  5.1750499e-07  2.2315276e-06  1.1258819e+08
    709000   6.8268796e-11  107429.51      106141.42      538583.25      2.7490385e-06  5.1754732e-07  2.2314912e-06  1.1258749e+08
    710000   6.8365084e-11  107436.97      106153.47      537055.13      2.7490252e-06  5.1737912e-07  2.2316461e-06  1.1258788e+08
    711000   6.8461373e-11  107436.61      106155.89      536128.05      2.7490249e-06  5.1738614e-07  2.2316388e-06  1.1258696e+08
    712000   6.8557662e-11  107437.74      106160.87      534838.2       2.7490257e-06  5.1736358e-07  2.2316621e-06  1.1258685e+08
    713000   6.8653951e-11  107433.91      106158.78      534255.39      2.7490221e-06  5.1743948e-07  2.2315826e-06  1.125862e+08 
    714000   6.875024e-11   107433.14      106160.05      533569.32      2.7490114e-06  5.1744491e-07  2.2315665e-06  1.1258659e+08
    715000   6.8846529e-11  107421.04      106149.22      533132.98      2.7490141e-06  5.1769885e-07  2.2313153e-06  1.1258241e+08
    716000   6.8942817e-11  107425.33      106157.86      531682.98      2.7490257e-06  5.1762144e-07  2.2314043e-06  1.1258503e+08
    717000   6.9039106e-11  107438.08      106173.1       530861.1       2.749023e-06   5.1735388e-07  2.2316691e-06  1.1258932e+08
    718000   6.9135395e-11  107445.76      106183.57      529939.15      2.7490176e-06  5.1718882e-07  2.2318288e-06  1.1259028e+08
    719000   6.9231684e-11  107467.27      106208.85      528699.77      2.7490111e-06  5.1673553e-07  2.2322756e-06  1.1259603e+08
    720000   6.9327973e-11  107448.44      106193.35      527567.86      2.7490179e-06  5.1713342e-07  2.2318845e-06  1.1258895e+08
    721000   6.9424262e-11  107444.2       106190.84      526984.22      2.7490227e-06  5.1722638e-07  2.2317964e-06  1.1258879e+08
    722000   6.9520551e-11  107440.99      106190.08      526163.11      2.7490248e-06  5.1729508e-07  2.2317297e-06  1.1258943e+08
    723000   6.9616839e-11  107428.53      106181.38      524888.43      2.7490153e-06  5.1754459e-07  2.2314708e-06  1.1258496e+08
    724000   6.9713128e-11  107416.65      106170.34      524596         2.7490172e-06  5.1779324e-07  2.231224e-06   1.1258218e+08
    725000   6.9809417e-11  107435.8       106191         524112.69      2.7490298e-06  5.1740791e-07  2.2316219e-06  1.1259204e+08
    726000   6.9905706e-11  107425.12      106179.83      524265.14      2.7490332e-06  5.1763323e-07  2.2313999e-06  1.1258886e+08
    727000   7.0001995e-11  107430.25      106187.75      523338.22      2.7490235e-06  5.1751689e-07  2.2315066e-06  1.1258975e+08
    728000   7.0098284e-11  107426.63      106188.71      521801.48      2.7490407e-06  5.1760936e-07  2.2314313e-06  1.1259125e+08
    729000   7.0194573e-11  107441.13      106204.14      521506.33      2.7490551e-06  5.1732259e-07  2.2317325e-06  1.1259685e+08
    730000   7.0290861e-11  107428.71      106192.99      521066.69      2.7490435e-06  5.1756892e-07  2.2314745e-06  1.1258892e+08
    731000   7.038715e-11   107446.16      106211.38      520772.83      2.7490375e-06  5.1720042e-07  2.2318371e-06  1.1259373e+08
    732000   7.0483439e-11  107425.53      106193.01      519997.13      2.7490291e-06  5.1762046e-07  2.2314086e-06  1.1258617e+08
    733000   7.0579728e-11  107431.2       106203.12      518517.03      2.7490307e-06  5.1750436e-07  2.2315263e-06  1.1258879e+08
    734000   7.0676017e-11  107425.42      106200.38      517495.01      2.7490474e-06  5.1764109e-07  2.2314063e-06  1.1258848e+08
    735000   7.0772306e-11  107441.98      106219.9       516521.8       2.7490387e-06  5.1728841e-07  2.2317503e-06  1.1259321e+08
    736000   7.0868594e-11  107441.19      106224.05      514867.77      2.7490506e-06  5.1731673e-07  2.2317339e-06  1.1259275e+08
    737000   7.0964883e-11  107437.01      106222.53      513975.04      2.7490354e-06  5.1738841e-07  2.231647e-06   1.1259096e+08
    738000   7.1061172e-11  107433.03      106223.11      512445.32      2.7490229e-06  5.1745849e-07  2.2315644e-06  1.1258803e+08
    739000   7.1157461e-11  107436.28      106228.91      511594.23      2.7490143e-06  5.1738256e-07  2.2316318e-06  1.1258869e+08
    740000   7.125375e-11   107443.33      106241.36      509794.52      2.7490253e-06  5.1724704e-07  2.2317783e-06  1.1259173e+08
    741000   7.1350039e-11  107419.25      106221.98      508196.59      2.7490389e-06  5.1776088e-07  2.231278e-06   1.1258568e+08
    742000   7.1446328e-11  107415.18      106221.22      507089.84      2.7490229e-06  5.1782931e-07  2.2311936e-06  1.1258276e+08
    743000   7.1542616e-11  107436.02      106243.81      506526.23      2.7490214e-06  5.1739494e-07  2.2316265e-06  1.1258818e+08
    744000   7.1638905e-11  107454.53      106263.92      506006.03      2.7490082e-06  5.169973e-07   2.2320109e-06  1.1259332e+08
    745000   7.1735194e-11  107436.64      106253.62      503451.31      2.7489768e-06  5.1733748e-07  2.2316394e-06  1.1258356e+08
    746000   7.1831483e-11  107429.72      106249.07      502648.6       2.7489968e-06  5.175013e-07   2.2314955e-06  1.12584e+08  
    747000   7.1927772e-11  107435.89      106258.42      501593.39      2.7490003e-06  5.1737663e-07  2.2316237e-06  1.125861e+08 
    748000   7.2024061e-11  107464.49      106291.06      500270.03      2.7490055e-06  5.1678768e-07  2.2322178e-06  1.1259569e+08
    749000   7.212035e-11   107442.28      106274.42      498388.95      2.7489922e-06  5.1723567e-07  2.2317565e-06  1.1258633e+08
    750000   7.2216638e-11  107442.11      106279.72      496555.64      2.7489942e-06  5.1724131e-07  2.2317529e-06  1.125876e+08 
    751000   7.2312927e-11  107429.05      106273.13      494377.87      2.7490022e-06  5.1752059e-07  2.2314816e-06  1.125834e+08 
    752000   7.2409216e-11  107434.09      106280.53      493594.67      2.7490219e-06  5.1743555e-07  2.2315863e-06  1.1258671e+08
    753000   7.2505505e-11  107443.92      106292.74      492810.88      2.7490077e-06  5.1721721e-07  2.2317905e-06  1.1258866e+08
    754000   7.2601794e-11  107446.02      106295.38      492633.36      2.7490164e-06  5.171822e-07   2.2318342e-06  1.1258956e+08
    755000   7.2698083e-11  107454         106306.04      491743.02      2.7490127e-06  5.170128e-07   2.2319999e-06  1.1259166e+08
    756000   7.2794372e-11  107448.67      106304.03      490627.87      2.7490155e-06  5.1712622e-07  2.2318893e-06  1.1258924e+08
    757000   7.289066e-11   107468.59      106328.44      489145.44      2.7490126e-06  5.1670974e-07  2.2323029e-06  1.1259508e+08
    758000   7.2986949e-11  107453.53      106318.72      487345.85      2.7490256e-06  5.1703546e-07  2.2319902e-06  1.1259035e+08
    759000   7.3083238e-11  107438.41      106305.39      486731.52      2.7490252e-06  5.1734914e-07  2.2316761e-06  1.125867e+08 
    760000   7.3179527e-11  107453.4       106321.87      486246.86      2.7490099e-06  5.1702237e-07  2.2319875e-06  1.1259146e+08
    761000   7.3275816e-11  107450.45      106319.98      485888.78      2.749026e-06   5.1709993e-07  2.2319261e-06  1.1259162e+08
    762000   7.3372105e-11  107439.01      106313.03      484376.83      2.7490268e-06  5.1733824e-07  2.2316886e-06  1.1258799e+08
    763000   7.3468393e-11  107439.22      106319.37      482326.72      2.7490336e-06  5.1734079e-07  2.2316928e-06  1.1258954e+08
    764000   7.3564682e-11  107442.05      106329.53      479877.72      2.7490258e-06  5.1727421e-07  2.2317516e-06  1.1259112e+08
    765000   7.3660971e-11  107428.01      106320.18      478296.69      2.7490357e-06  5.1757562e-07  2.23146e-06    1.125876e+08 
    766000   7.375726e-11   107440.17      106332.66      478201.93      2.7490456e-06  5.1733297e-07  2.2317127e-06  1.1259204e+08
    767000   7.3853549e-11  107436.83      106332.17      477242.8       2.7490413e-06  5.1739798e-07  2.2316433e-06  1.125895e+08 
    768000   7.3949838e-11  107444.04      106342.86      476088.19      2.749032e-06   5.172389e-07   2.2317931e-06  1.1259214e+08
    769000   7.4046127e-11  107430.1       106333.65      474490.59      2.7490237e-06  5.175203e-07   2.2315034e-06  1.1258643e+08
    770000   7.4142415e-11  107441.15      106348.05      473380.54      2.7490184e-06  5.1728543e-07  2.2317329e-06  1.1258899e+08
    771000   7.4238704e-11  107441.19      106349.71      472838.89      2.7490178e-06  5.1728412e-07  2.2317337e-06  1.1258746e+08
    772000   7.4334993e-11  107458.12      106367.32      472626.82      2.7490087e-06  5.1692327e-07  2.2320854e-06  1.1259324e+08
    773000   7.4431282e-11  107439.73      106349.75      472338.07      2.7490091e-06  5.1730563e-07  2.2317035e-06  1.1258566e+08
    774000   7.4527571e-11  107442.81      106355.83      471338.43      2.7490118e-06  5.1724427e-07  2.2317675e-06  1.1258663e+08
    775000   7.462386e-11   107439.42      106356.41      470003.81      2.7490129e-06  5.1731591e-07  2.231697e-06   1.1258692e+08
    776000   7.4720149e-11  107440.91      106361.83      468694.35      2.7490192e-06  5.172912e-07   2.231728e-06   1.1258873e+08
    777000   7.4816437e-11  107437.58      106361.35      467737.45      2.7490054e-06  5.1734663e-07  2.2316588e-06  1.1258715e+08
    778000   7.4912726e-11  107426.06      106352.72      466758.64      2.7490131e-06  5.1759342e-07  2.2314196e-06  1.1258513e+08
    779000   7.5009015e-11  107438.86      106368.97      465618.13      2.7490061e-06  5.1732068e-07  2.2316854e-06  1.1258824e+08
    780000   7.5105304e-11  107451         106383.99      464666.12      2.7490191e-06  5.1708148e-07  2.2319377e-06  1.1259142e+08
    781000   7.5201593e-11  107456.74      106392.84      463633.65      2.7490074e-06  5.1695054e-07  2.2320569e-06  1.1259183e+08
    782000   7.5297882e-11  107442.65      106384.11      461823.35      2.7490088e-06  5.1724466e-07  2.2317641e-06  1.1258716e+08
    783000   7.539417e-11   107437.33      106382.16      460691.7       2.7490045e-06  5.1735092e-07  2.2316536e-06  1.1258643e+08
    784000   7.5490459e-11  107447.38      106394.73      459859.44      2.7490256e-06  5.171632e-07   2.2318624e-06  1.1259249e+08
    785000   7.5586748e-11  107453.13      106402.95      459042.06      2.7490218e-06  5.1703986e-07  2.2319819e-06  1.1259353e+08
    786000   7.5683037e-11  107445.03      106396.18      458588.16      2.7490005e-06  5.1718693e-07  2.2318136e-06  1.1258745e+08
    787000   7.5779326e-11  107463.62      106418.33      457414.51      2.7489966e-06  5.1679675e-07  2.2321998e-06  1.1259164e+08
    788000   7.5875615e-11  107473.49      106434.73      455240.53      2.7489869e-06  5.1658224e-07  2.2324047e-06  1.1259396e+08
    789000   7.5971904e-11  107462.96      106425.47      454803.29      2.7490056e-06  5.1681967e-07  2.232186e-06   1.1259298e+08
    790000   7.6068192e-11  107439.11      106403.1       454288.45      2.748999e-06   5.1730832e-07  2.2316906e-06  1.1258558e+08
    791000   7.6164481e-11  107434         106398.16      454225.09      2.7489988e-06  5.1741434e-07  2.2315845e-06  1.1258531e+08
    792000   7.626077e-11   107424.49      106394.91      452119.34      2.7489972e-06  5.1761035e-07  2.2313869e-06  1.125816e+08 
    793000   7.6357059e-11  107427.6       106400.32      451355.04      2.7490127e-06  5.1756123e-07  2.2314514e-06  1.1258214e+08
    794000   7.6453348e-11  107444.03      106419.24      450540.27      2.749016e-06   5.1722316e-07  2.2317928e-06  1.1258797e+08
    795000   7.6549637e-11  107444.27      106421.94      449715.67      2.7490194e-06  5.1722158e-07  2.2317978e-06  1.1258865e+08
    796000   7.6645926e-11  107444.58      106422.89      449502.03      2.7490123e-06  5.1720806e-07  2.2318042e-06  1.1258767e+08
    797000   7.6742214e-11  107457.14      106431.98      450678.83      2.7490246e-06  5.1695934e-07  2.2320652e-06  1.1259278e+08
    798000   7.6838503e-11  107447.71      106423.53      450339.56      2.7490042e-06  5.1713482e-07  2.2318693e-06  1.1258889e+08
    799000   7.6934792e-11  107445.03      106421.62      450080.36      2.7489923e-06  5.1717872e-07  2.2318136e-06  1.125882e+08 
    800000   7.7031081e-11  107443.89      106422.04      449556.84      2.7489978e-06  5.1720783e-07  2.23179e-06    1.1258851e+08
    801000   7.712737e-11   107439.41      106418.89      449105.12      2.7490128e-06  5.173159e-07   2.2316969e-06  1.1258722e+08
    802000   7.7223659e-11  107443.66      106422.13      449449.05      2.7490249e-06  5.1723975e-07  2.2317851e-06  1.1258879e+08
    803000   7.7319948e-11  107455.11      106432.97      449664.51      2.7490208e-06  5.1699785e-07  2.2320229e-06  1.1259331e+08
    804000   7.7416236e-11  107434.28      106409.5       450526.32      2.7490149e-06  5.1742461e-07  2.2315903e-06  1.1258553e+08
    805000   7.7512525e-11  107435.08      106413.88      449328.85      2.7490054e-06  5.1739845e-07  2.2316069e-06  1.1258476e+08
    806000   7.7608814e-11  107472.16      106451.13      449310.45      2.7490188e-06  5.1664173e-07  2.2323771e-06  1.1259878e+08
    807000   7.7705103e-11  107444.38      106424.47      448906.15      2.7490185e-06  5.1721848e-07  2.2318e-06     1.1258902e+08
    808000   7.7801392e-11  107428.08      106413.54      447097.48      2.7490169e-06  5.1755532e-07  2.2314616e-06  1.1258452e+08
    809000   7.7897681e-11  107431.6       106416.61      447250.5       2.7490259e-06  5.1749123e-07  2.2315347e-06  1.1258732e+08
    810000   7.7993969e-11  107434.81      106423.36      446069.97      2.7490209e-06  5.1741948e-07  2.2316014e-06  1.1258687e+08
    811000   7.8090258e-11  107448.34      106439.5       445206.49      2.7490335e-06  5.1715122e-07  2.2318823e-06  1.125923e+08 
    812000   7.8186547e-11  107444.46      106437.13      444700.24      2.7490217e-06  5.1721995e-07  2.2318017e-06  1.1258973e+08
    813000   7.8282836e-11  107428.11      106421.69      444378.91      2.7490235e-06  5.1756132e-07  2.2314622e-06  1.1258509e+08
    814000   7.8379125e-11  107435.16      106428.67      444408.6       2.7490303e-06  5.1742181e-07  2.2316085e-06  1.1258863e+08
    815000   7.8475414e-11  107430.95      106424         444559.61      2.7490315e-06  5.175103e-07   2.2315212e-06  1.12588e+08  
    816000   7.8571703e-11  107429.74      106423.16      444433.35      2.749023e-06   5.1752698e-07  2.231496e-06   1.1258727e+08
    817000   7.8667991e-11  107433.12      106430.43      443135.02      2.7490242e-06  5.1745806e-07  2.2315662e-06  1.1258704e+08
    818000   7.876428e-11   107439         106442.45      441087.15      2.7490108e-06  5.173225e-07   2.2316883e-06  1.125874e+08 
    819000   7.8860569e-11  107441.64      106449.24      439704.18      2.7490148e-06  5.1727167e-07  2.2317431e-06  1.1258874e+08
    820000   7.8956858e-11  107437.82      106450.04      438156.5       2.7490277e-06  5.1736384e-07  2.2316639e-06  1.1258861e+08
    821000   7.9053147e-11  107434.71      106452.3       436357.84      2.7490437e-06  5.1744436e-07  2.2315993e-06  1.1258853e+08
    822000   7.9149436e-11  107430.38      106450.43      435527.67      2.7490327e-06  5.1752343e-07  2.2315092e-06  1.1258665e+08
    823000   7.9245725e-11  107441.35      106466.53      433821.31      2.749031e-06   5.1729399e-07  2.2317371e-06  1.1259126e+08
    824000   7.9342013e-11  107412.43      106442.34      432214.21      2.7490305e-06  5.1789404e-07  2.2311364e-06  1.1258081e+08
    825000   7.9438302e-11  107415.11      106446.68      431662.1       2.7490409e-06  5.1784879e-07  2.2311921e-06  1.1258256e+08
    826000   7.9534591e-11  107437.03      106471.7       430648.03      2.7490299e-06  5.173824e-07   2.2316475e-06  1.1258954e+08
    827000   7.963088e-11   107430.74      106468.24      429693.55      2.7490302e-06  5.1751345e-07  2.2315167e-06  1.1258637e+08
    828000   7.9727169e-11  107443.01      106480.63      429664.34      2.7490287e-06  5.1725718e-07  2.2317715e-06  1.1259115e+08
    829000   7.9823458e-11  107450.11      106490.08      428888.15      2.7490353e-06  5.1711614e-07  2.2319191e-06  1.1259384e+08
    830000   7.9919746e-11  107429.65      106472.71      427832.54      2.7490307e-06  5.175367e-07   2.231494e-06   1.1258494e+08
    831000   8.0016035e-11  107443.78      106493.34      425671.82      2.7490315e-06  5.1724391e-07  2.2317876e-06  1.1258999e+08
    832000   8.0112324e-11  107444.51      106496.03      425017.61      2.7490125e-06  5.1720968e-07  2.2318028e-06  1.125904e+08 
    833000   8.0208613e-11  107425.85      106483.79      422850.23      2.7490062e-06  5.1759114e-07  2.2314151e-06  1.1258409e+08
    834000   8.0304902e-11  107436.65      106496.7       422156.45      2.7490045e-06  5.1736509e-07  2.2316394e-06  1.1258614e+08
    835000   8.0401191e-11  107449.12      106509.87      421935.22      2.7490224e-06  5.1712387e-07  2.2318985e-06  1.1258967e+08
    836000   8.049748e-11   107447.11      106510         421217.86      2.7490163e-06  5.1715955e-07  2.2318568e-06  1.1258876e+08
    837000   8.0593768e-11  107433.83      106499.24      420362.31      2.7490079e-06  5.1742696e-07  2.2315809e-06  1.1258634e+08
    838000   8.0690057e-11  107434.74      106503.86      419124.39      2.7490195e-06  5.1741955e-07  2.2315999e-06  1.1259088e+08
    839000   8.0786346e-11  107417.88      106491.15      417718.4       2.7490335e-06  5.1778378e-07  2.2312497e-06  1.1258713e+08
    840000   8.0882635e-11  107443.11      106518.44      417054.85      2.7490545e-06  5.1728079e-07  2.2317737e-06  1.1259738e+08
    841000   8.0978924e-11  107443.65      106521         416381.01      2.7490644e-06  5.1727937e-07  2.231785e-06   1.1259665e+08
    842000   8.1075213e-11  107438.35      106516.85      415988.27      2.7490587e-06  5.1738389e-07  2.2316748e-06  1.125946e+08 
    843000   8.1171502e-11  107430.43      106511.02      415281.49      2.7490382e-06  5.1752788e-07  2.2315103e-06  1.125899e+08 
    844000   8.126779e-11   107433.26      106517.04      414216.25      2.7490314e-06  5.1746243e-07  2.231569e-06   1.1259116e+08
    845000   8.1364079e-11  107424.22      106512.2       412804.5       2.7490376e-06  5.1765626e-07  2.2313814e-06  1.1258907e+08
    846000   8.1460368e-11  107418.33      106509.39      411769.01      2.7490481e-06  5.1778914e-07  2.231259e-06   1.1258784e+08
    847000   8.1556657e-11  107416.55      106513.52      409790.75      2.7490315e-06  5.178095e-07   2.231222e-06   1.1258568e+08
    848000   8.1652946e-11  107420.8       106518.27      409625.96      2.7490432e-06  5.1773296e-07  2.2313102e-06  1.1258645e+08
    849000   8.1749235e-11  107433.95      106532.9       409144.93      2.749042e-06   5.1745849e-07  2.2315835e-06  1.1259049e+08
    850000   8.1845524e-11  107442.63      106546.29      407580.64      2.7490439e-06  5.1728012e-07  2.2317638e-06  1.1259354e+08
    851000   8.1941812e-11  107434.54      106542.09      406268.2       2.7490426e-06  5.1744695e-07  2.2315957e-06  1.1259017e+08
    852000   8.2038101e-11  107436.19      106547.39      405049.95      2.7490338e-06  5.1740381e-07  2.23163e-06    1.1258982e+08
    853000   8.213439e-11   107445.05      106558.34      404362.21      2.7490298e-06  5.1721569e-07  2.2318141e-06  1.1259277e+08
    854000   8.2230679e-11  107436.22      106552.47      403362.56      2.749042e-06   5.1741143e-07  2.2316306e-06  1.1259066e+08
    855000   8.2326968e-11  107436.48      106553         403269.92      2.7490413e-06  5.1740529e-07  2.231636e-06   1.1259076e+08
    856000   8.2423257e-11  107451.83      106569.99      402737.76      2.7490377e-06  5.1708291e-07  2.2319548e-06  1.1259528e+08
    857000   8.2519545e-11  107439.71      106557.87      402726.47      2.7490243e-06  5.173212e-07   2.2317031e-06  1.1258958e+08
    858000   8.2615834e-11  107421.45      106541.74      401995.37      2.749031e-06   5.1770724e-07  2.2313237e-06  1.1258522e+08
    859000   8.2712123e-11  107418.56      106543.33      400494.88      2.7490314e-06  5.1776767e-07  2.2312637e-06  1.1258509e+08
    860000   8.2808412e-11  107418.53      106546.8       399323.61      2.7490316e-06  5.177684e-07   2.2312632e-06  1.1258462e+08
    861000   8.2904701e-11  107420.16      106552.34      398015.78      2.7490156e-06  5.177187e-07   2.2312969e-06  1.125829e+08 
    862000   8.300099e-11   107430.97      106565.5       397241.06      2.749019e-06   5.174975e-07   2.2315215e-06  1.1258624e+08
    863000   8.3097279e-11  107448.97      106580.6       398230.22      2.7490157e-06  5.1712027e-07  2.2318954e-06  1.1259289e+08
    864000   8.3193567e-11  107435.44      106565.63      398699.5       2.7490277e-06  5.1741328e-07  2.2316144e-06  1.1258896e+08
    865000   8.3289856e-11  107437.9       106571.3       397628.08      2.7490321e-06  5.1736664e-07  2.2316655e-06  1.1258967e+08
    866000   8.3386145e-11  107436.88      106572.52      396877.85      2.7490241e-06  5.1737973e-07  2.2316444e-06  1.125903e+08 
    867000   8.3482434e-11  107419.59      106556.7       396368.93      2.7490198e-06  5.1773459e-07  2.2312852e-06  1.1258486e+08
    868000   8.3578723e-11  107431.31      106570.67      395627.14      2.7490207e-06  5.1749219e-07  2.2315285e-06  1.1258947e+08
    869000   8.3675012e-11  107420.74      106560.24      395570.78      2.7490161e-06  5.1770707e-07  2.231309e-06   1.1258409e+08
    870000   8.3771301e-11  107424.84      106567.38      394555.04      2.7490131e-06  5.1761898e-07  2.2313941e-06  1.125839e+08 
    871000   8.3867589e-11  107434.68      106580.36      393516.3       2.7490085e-06  5.1740992e-07  2.2315986e-06  1.1258497e+08
    872000   8.3963878e-11  107459.54      106607.87      392654.08      2.7490103e-06  5.1689536e-07  2.232115e-06   1.1259188e+08
    873000   8.4060167e-11  107464.81      106615.63      391827.44      2.7490114e-06  5.1678703e-07  2.2322244e-06  1.1259286e+08
    874000   8.4156456e-11  107464.18      106616.2       391425.24      2.749024e-06   5.1681271e-07  2.2322113e-06  1.1259473e+08
    875000   8.4252745e-11  107458.43      106610.89      391273.41      2.7490266e-06  5.1693463e-07  2.232092e-06   1.1259445e+08
    876000   8.4349034e-11  107455.48      106608.73      391007.1       2.7490306e-06  5.1699994e-07  2.2320307e-06  1.1259516e+08
    877000   8.4445323e-11  107449.02      106605.91      389781.7       2.7490325e-06  5.1713598e-07  2.2318965e-06  1.1259304e+08
    878000   8.4541611e-11  107444.35      106605.21      388449.45      2.7490332e-06  5.1723367e-07  2.2317995e-06  1.1259173e+08
    879000   8.46379e-11    107430.97      106594.18      387649.77      2.7490367e-06  5.1751528e-07  2.2315215e-06  1.1258733e+08
    880000   8.4734189e-11  107445.99      106611.17      387007.75      2.7490394e-06  5.172058e-07   2.2318336e-06  1.125934e+08 
    881000   8.4830478e-11  107426.87      106596.14      385619.74      2.7490524e-06  5.1761602e-07  2.2314363e-06  1.1258757e+08
    882000   8.4926767e-11  107432.39      106604.67      384616.57      2.7490361e-06  5.1748518e-07  2.231551e-06   1.125889e+08 
    883000   8.5023056e-11  107436.4       106610.08      384154.34      2.7490406e-06  5.174062e-07   2.2316344e-06  1.1259058e+08
    884000   8.5119344e-11  107435.91      106614.51      382508.87      2.7490387e-06  5.1741452e-07  2.2316242e-06  1.125902e+08 
    885000   8.5215633e-11  107433.2       106613.5       381938.39      2.7490297e-06  5.1746186e-07  2.2315679e-06  1.1258716e+08
    886000   8.5311922e-11  107436.14      106618.15      381369.37      2.7490169e-06  5.1738798e-07  2.231629e-06   1.1258664e+08
    887000   8.5408211e-11  107433.7       106617.31      380830.7       2.7490173e-06  5.1743897e-07  2.2315783e-06  1.1258581e+08
    888000   8.55045e-11    107440.46      106626.66      379973.04      2.7490119e-06  5.1729322e-07  2.2317187e-06  1.1258754e+08
    889000   8.5600789e-11  107457.28      106645.53      379303.86      2.7490059e-06  5.1693782e-07  2.2320681e-06  1.1259379e+08
    890000   8.5697078e-11  107448.2       106637.76      378856.4       2.7490212e-06  5.171418e-07   2.2318794e-06  1.125922e+08 
    891000   8.5793366e-11  107439.3       106632.21      377726.56      2.7490184e-06  5.1732378e-07  2.2316947e-06  1.1258982e+08
    892000   8.5889655e-11  107435.11      106628.73      377481.94      2.749021e-06   5.1741353e-07  2.2316075e-06  1.1258863e+08
    893000   8.5985944e-11  107435.48      106632.92      376208.11      2.7490085e-06  5.1739328e-07  2.2316152e-06  1.1258721e+08
    894000   8.6082233e-11  107432.43      106634.42      374682.64      2.7490022e-06  5.1745022e-07  2.2315519e-06  1.1258391e+08
    895000   8.6178522e-11  107443.18      106645.32      374642.72      2.7490137e-06  5.1723846e-07  2.2317752e-06  1.1258781e+08
    896000   8.6274811e-11  107448.77      106652.65      374066.15      2.7490186e-06  5.1712719e-07  2.2318914e-06  1.1259102e+08
    897000   8.63711e-11    107443.75      106648.08      373913.32      2.7490177e-06  5.1723065e-07  2.2317871e-06  1.1259047e+08
    898000   8.6467388e-11  107440.07      106646.15      373322.05      2.7490087e-06  5.1729821e-07  2.2317105e-06  1.1258966e+08
    899000   8.6563677e-11  107447.87      106655.17      372921.17      2.7490169e-06  5.1714426e-07  2.2318726e-06  1.1259086e+08
    900000   8.6659966e-11  107466.34      106677.21      371746.41      2.7490155e-06  5.1675935e-07  2.2322562e-06  1.1259604e+08
    901000   8.6756255e-11  107451.22      106663.64      371213.71      2.7490211e-06  5.1707894e-07  2.2319422e-06  1.1259097e+08
    902000   8.6852544e-11  107459.48      106673.4       370719.38      2.7490318e-06  5.1691811e-07  2.2321137e-06  1.1259627e+08
    903000   8.6948833e-11  107449.52      106666.3       369754.62      2.7490197e-06  5.1711278e-07  2.2319069e-06  1.1259268e+08
    904000   8.7045121e-11  107446.27      106663.8       369499.1       2.7490111e-06  5.1717173e-07  2.2318393e-06  1.1259151e+08
    905000   8.714141e-11   107434.94      106655.66      368419.26      2.7490091e-06  5.1740509e-07  2.231604e-06   1.1258754e+08
    906000   8.7237699e-11  107443.86      106668.06      367266.84      2.7490064e-06  5.1721705e-07  2.2317893e-06  1.1258912e+08
    907000   8.7333988e-11  107451.95      106676.61      367118.21      2.7490214e-06  5.1706415e-07  2.2319572e-06  1.1259156e+08
    908000   8.7430277e-11  107448.4       106675.32      366361.34      2.7490122e-06  5.1712867e-07  2.2318836e-06  1.1258717e+08
    909000   8.7526566e-11  107444.41      106672.02      366123.16      2.7490114e-06  5.172108e-07   2.2318007e-06  1.1258661e+08
    910000   8.7622855e-11  107444.87      106675.66      365064.28      2.7490131e-06  5.1720275e-07  2.2318103e-06  1.1258879e+08
    911000   8.7719143e-11  107426.66      106660.64      363977.17      2.7490282e-06  5.1759615e-07  2.2314321e-06  1.1258346e+08
    912000   8.7815432e-11  107442.28      106678.35      363292.1       2.7490127e-06  5.1725633e-07  2.2317564e-06  1.1258938e+08
    913000   8.7911721e-11  107429.82      106668.94      362260.63      2.7490359e-06  5.1753825e-07  2.2314977e-06  1.1258742e+08
    914000   8.800801e-11   107426.87      106669.48      361090.69      2.7490252e-06  5.1758881e-07  2.2314364e-06  1.1258568e+08
    915000   8.8104299e-11  107434.15      106679.53      360169.99      2.7490196e-06  5.1743212e-07  2.2315875e-06  1.1258818e+08
    916000   8.8200588e-11  107442.73      106689.37      359761.04      2.7490343e-06  5.1726845e-07  2.2317658e-06  1.1259184e+08
    917000   8.8296877e-11  107433.27      106680.94      359405.56      2.7490327e-06  5.1746333e-07  2.2315693e-06  1.125874e+08 
    918000   8.8393165e-11  107447.62      106696.19      359118.41      2.7490478e-06  5.1718038e-07  2.2318674e-06  1.1259378e+08
    919000   8.8489454e-11  107434.09      106685.27      358233.85      2.7490459e-06  5.1745948e-07  2.2315864e-06  1.1258993e+08
    920000   8.8585743e-11  107437.87      106691.66      357363.47      2.7490684e-06  5.1740346e-07  2.2316649e-06  1.1259415e+08
    921000   8.8682032e-11  107434.8       106694.82      355278.12      2.7490488e-06  5.1744756e-07  2.2316012e-06  1.125927e+08 
    922000   8.8778321e-11  107417.62      106681.99      353807.22      2.7490432e-06  5.1779889e-07  2.2312443e-06  1.1258503e+08
    923000   8.887461e-11   107431.24      106698.85      352734.2       2.7490345e-06  5.175074e-07   2.2315271e-06  1.1258819e+08
    924000   8.8970899e-11  107439.89      106710.96      351584.15      2.7490294e-06  5.173226e-07   2.2317068e-06  1.1259076e+08
    925000   8.9067187e-11  107417.83      106693.16      350138.15      2.7490146e-06  5.1776603e-07  2.2312486e-06  1.1258267e+08
    926000   8.9163476e-11  107424.97      106700.87      349957.56      2.7490269e-06  5.1762997e-07  2.2313969e-06  1.1258661e+08
    927000   8.9259765e-11  107446.24      106722.61      349819.32      2.7490279e-06  5.1718911e-07  2.2318388e-06  1.125925e+08 
    928000   8.9356054e-11  107446.97      106723.84      349653.58      2.7490158e-06  5.1716188e-07  2.2318539e-06  1.125902e+08 
    929000   8.9452343e-11  107441.93      106719.11      349546.69      2.749022e-06   5.1727275e-07  2.2317493e-06  1.1258922e+08
    930000   8.9548632e-11  107436.31      106716.23      348620.93      2.7490221e-06  5.1738971e-07  2.2316324e-06  1.1258783e+08
    931000   8.964492e-11   107439.3       106719.9       348396.45      2.7490297e-06  5.1733522e-07  2.2316945e-06  1.1259069e+08
    932000   8.9741209e-11  107436.31      106718.69      347798.06      2.7490385e-06  5.1740611e-07  2.2316324e-06  1.1259123e+08
    933000   8.9837498e-11  107430.12      106715.28      346863.84      2.7490473e-06  5.1754333e-07  2.231504e-06   1.1259024e+08
    934000   8.9933787e-11  107428.76      106716.69      345937.07      2.749038e-06   5.1756239e-07  2.2314756e-06  1.1258857e+08
    935000   9.0030076e-11  107430.4       106719.03      345704.32      2.7490196e-06  5.175099e-07   2.2315097e-06  1.1258691e+08
    936000   9.0126365e-11  107434.13      106720.7       346395.92      2.7490145e-06  5.1742728e-07  2.2315872e-06  1.125873e+08 
    937000   9.0222654e-11  107429.59      106714.04      347099.79      2.7490148e-06  5.1752202e-07  2.2314928e-06  1.1258307e+08
    938000   9.0318942e-11  107463.09      106750.45      346160.25      2.7490212e-06  5.1683252e-07  2.2321887e-06  1.1259542e+08
    939000   9.0415231e-11  107441.78      106731.25      345431.78      2.7490164e-06  5.1727043e-07  2.231746e-06   1.1258836e+08
    940000   9.051152e-11   107448.99      106740.17      344870.38      2.749025e-06   5.1712907e-07  2.2318959e-06  1.1259435e+08
    941000   9.0607809e-11  107423.5       106717.41      343928.05      2.7490336e-06  5.176673e-07   2.2313663e-06  1.1258569e+08
    942000   9.0704098e-11  107442.74      106738.1       343463.75      2.7490394e-06  5.1727346e-07  2.231766e-06   1.1259207e+08
    943000   9.0800387e-11  107445.3       106743.91      342380.22      2.7490279e-06  5.1720882e-07  2.2318191e-06  1.1259102e+08
    944000   9.0896676e-11  107444.52      106745.06      341734.37      2.7490282e-06  5.1722522e-07  2.231803e-06   1.1259195e+08
    945000   9.0992964e-11  107439.53      106741.64      341203.72      2.7490325e-06  5.173332e-07   2.2316993e-06  1.1259296e+08
    946000   9.1089253e-11  107416.94      106722.08      340168.37      2.7490314e-06  5.1780122e-07  2.2312302e-06  1.1258664e+08
    947000   9.1185542e-11  107431.14      106737.04      339929.26      2.74904e-06    5.1751491e-07  2.2315251e-06  1.1259202e+08
    948000   9.1281831e-11  107421.56      106729.66      339180.75      2.7490524e-06  5.1772642e-07  2.231326e-06   1.1258821e+08
    949000   9.137812e-11   107425.53      106735.03      338720.77      2.7490491e-06  5.1764051e-07  2.2314086e-06  1.1258982e+08
    950000   9.1474409e-11  107448.3       106759.06      338320.65      2.7490411e-06  5.1715955e-07  2.2318816e-06  1.1259685e+08
    951000   9.1570697e-11  107436.33      106751.7       336769.6       2.749047e-06   5.1741402e-07  2.231633e-06   1.1259161e+08
    952000   9.1666986e-11  107441.5       106757.05      336711.92      2.7490494e-06  5.1730909e-07  2.2317403e-06  1.1259248e+08
    953000   9.1763275e-11  107448.83      106764.84      336565.99      2.7490282e-06  5.1713573e-07  2.2318925e-06  1.1259235e+08
    954000   9.1859564e-11  107447.33      106763.83      336399.38      2.7490207e-06  5.1715934e-07  2.2318613e-06  1.1259229e+08
    955000   9.1955853e-11  107438.36      106757.29      335579.04      2.7490359e-06  5.1736075e-07  2.2316751e-06  1.125906e+08 
    956000   9.2052142e-11  107440.78      106761.08      335125.04      2.749031e-06   5.1730557e-07  2.2317254e-06  1.1259076e+08
    957000   9.2148431e-11  107441.92      106764.12      334489.36      2.7490197e-06  5.1727065e-07  2.231749e-06   1.1258983e+08
    958000   9.2244719e-11  107426.52      106748.83      334436.44      2.7490279e-06  5.1759876e-07  2.2314291e-06  1.1258512e+08
    959000   9.2341008e-11  107440.08      106765.48      333415.24      2.7490345e-06  5.1732378e-07  2.2317107e-06  1.1259027e+08
    960000   9.2437297e-11  107443.44      106771.12      332655.49      2.749014e-06   5.1723349e-07  2.2317805e-06  1.1258892e+08
    961000   9.2533586e-11  107446.98      106776.61      332009.17      2.7490111e-06  5.1715703e-07  2.2318541e-06  1.1258943e+08
    962000   9.2629875e-11  107454.05      106784.9       331606         2.7489988e-06  5.1699788e-07  2.232001e-06   1.1259105e+08
    963000   9.2726164e-11  107432.06      106763.32      331448.52      2.7490029e-06  5.1745859e-07  2.2315443e-06  1.1258327e+08
    964000   9.2822453e-11  107434.28      106765.83      331353.34      2.7490135e-06  5.1742322e-07  2.2315903e-06  1.1258608e+08
    965000   9.2918741e-11  107427.38      106757.63      331782         2.7490025e-06  5.1755556e-07  2.231447e-06   1.1258351e+08
    966000   9.301503e-11   107427.04      106760.53      330699.39      2.7490184e-06  5.1757849e-07  2.2314399e-06  1.1258314e+08
    967000   9.3111319e-11  107442.84      106779.93      329507.53      2.7490221e-06  5.172541e-07   2.231768e-06   1.1258901e+08
    968000   9.3207608e-11  107451.22      106789.41      329152.46      2.7490136e-06  5.1707138e-07  2.2319422e-06  1.1259216e+08
    969000   9.3303897e-11  107445.14      106782.78      329329.1       2.7490105e-06  5.1719451e-07  2.231816e-06   1.1259082e+08
    970000   9.3400186e-11  107425.45      106764.44      328855.45      2.749012e-06   5.1760512e-07  2.2314068e-06  1.1258366e+08
    971000   9.3496475e-11  107438.09      106776.47      329071.88      2.7490274e-06  5.1735795e-07  2.2316694e-06  1.1259016e+08
    972000   9.3592763e-11  107432.28      106770.69      329057.9       2.7490227e-06  5.1747385e-07  2.2315488e-06  1.1258757e+08
    973000   9.3689052e-11  107430.97      106770.76      328594.72      2.749017e-06   5.1749542e-07  2.2315216e-06  1.1258631e+08
    974000   9.3785341e-11  107438.25      106781.11      327574.48      2.7490291e-06  5.1735627e-07  2.2316728e-06  1.125894e+08 
    975000   9.388163e-11   107433.86      106777.61      327272.38      2.749015e-06   5.1743343e-07  2.2315816e-06  1.1258703e+08
    976000   9.3977919e-11  107440.55      106785.48      326884.3       2.7490106e-06  5.1729013e-07  2.2317204e-06  1.1259023e+08
    977000   9.4074208e-11  107430.97      106774.94      327198.75      2.7490088e-06  5.1748715e-07  2.2315216e-06  1.1258654e+08
    978000   9.4170496e-11  107429.27      106774.4       326806.34      2.7490089e-06  5.1752268e-07  2.2314863e-06  1.1258445e+08
    979000   9.4266785e-11  107438.67      106784.56      326561.98      2.7490363e-06  5.1735494e-07  2.2316814e-06  1.1258984e+08
    980000   9.4363074e-11  107440.35      106788.45      325825.87      2.7490242e-06  5.1730777e-07  2.2317164e-06  1.125905e+08 
    981000   9.4459363e-11  107439.94      106788.27      325747.72      2.7490228e-06  5.1731498e-07  2.2317078e-06  1.1258992e+08
    982000   9.4555652e-11  107450.64      106799.23      325670.51      2.748996e-06   5.170658e-07   2.2319302e-06  1.1259025e+08
    983000   9.4651941e-11  107440.12      106790.53      325051.59      2.7490042e-06  5.1729264e-07  2.2317115e-06  1.1258606e+08
    984000   9.474823e-11   107443.67      106799.15      323357.39      2.749e-06      5.1721465e-07  2.2317853e-06  1.1258784e+08
    985000   9.4844518e-11  107444.8       106802.66      322564.85      2.7490056e-06  5.1719668e-07  2.2318089e-06  1.1258913e+08
    986000   9.4940807e-11  107441.71      106801         322083.13      2.7490237e-06  5.1727912e-07  2.2317445e-06  1.1258985e+08
    987000   9.5037096e-11  107427.44      106789.08      321283.46      2.7490287e-06  5.1758048e-07  2.2314482e-06  1.1258631e+08
    988000   9.5133385e-11  107432.9       106796.69      320566.66      2.7490406e-06  5.1747904e-07  2.2315615e-06  1.1259067e+08
    989000   9.5229674e-11  107447.45      106813.65      319777.63      2.749045e-06   5.1718121e-07  2.2318638e-06  1.1259675e+08
    990000   9.5325963e-11  107434.66      106803         319048.3       2.7490335e-06  5.1743531e-07  2.2315982e-06  1.1259112e+08
    991000   9.5422252e-11  107428.29      106797.24      318838.1       2.7490327e-06  5.1756691e-07  2.2314658e-06  1.1258713e+08
    992000   9.551854e-11   107455.01      106821.56      319667.23      2.7490317e-06  5.1701082e-07  2.2320209e-06  1.1259434e+08
    993000   9.5614829e-11  107460.12      106827.05      319546.84      2.7490212e-06  5.1689408e-07  2.2321271e-06  1.1259309e+08
    994000   9.5711118e-11  107441.99      106813.16      318108.03      2.7490111e-06  5.1726071e-07  2.2317504e-06  1.1258588e+08
    995000   9.5807407e-11  107443.06      106814.9       317889         2.7490078e-06  5.172351e-07   2.2317727e-06  1.1258846e+08
    996000   9.5903696e-11  107434.71      106807.59      317529.46      2.7490364e-06  5.1743718e-07  2.2315992e-06  1.1258952e+08
    997000   9.5999985e-11  107444.17      106815.84      317947.84      2.749036e-06   5.1724019e-07  2.2317958e-06  1.1259383e+08
    998000   9.6096273e-11  107432.98      106806.63      317271.27      2.7490246e-06  5.1746124e-07  2.2315633e-06  1.1258896e+08
    999000   9.6192562e-11  107436.15      106811.38      316747.9       2.7490261e-06  5.1739691e-07  2.2316292e-06  1.1259e+08   
   1000000   9.6288851e-11  107435.34      106813.02      315923.76      2.7490253e-06  5.1741312e-07  2.2316122e-06  1.1258843e+08
   1001000   9.638514e-11   107445.81      106824.03      315754.13      2.7490177e-06  5.1718793e-07  2.2318297e-06  1.1259108e+08
   1002000   9.6481429e-11  107450.72      106831.25      314989.37      2.7490226e-06  5.170907e-07   2.2319318e-06  1.125925e+08 
   1003000   9.6577718e-11  107431.04      106814.13      314112.74      2.749016e-06   5.1749294e-07  2.2315231e-06  1.1258539e+08
   1004000   9.6674007e-11  107430.67      106813.7       314131.7       2.7489985e-06  5.1748315e-07  2.2315153e-06  1.1258349e+08
   1005000   9.6770295e-11  107444.68      106826.02      314711.45      2.749021e-06   5.172148e-07   2.2318062e-06  1.1258932e+08
   1006000   9.6866584e-11  107438.42      106817.44      315481.27      2.7490175e-06  5.1734132e-07  2.2316762e-06  1.1258737e+08
   1007000   9.6962873e-11  107422.84      106799.85      316137.17      2.7490138e-06  5.1766113e-07  2.2313526e-06  1.125827e+08 
   1008000   9.7059162e-11  107445.71      106824         315731.19      2.7489983e-06  5.171707e-07   2.2318277e-06  1.1258923e+08
   1009000   9.7155451e-11  107448.41      106828.49      315134.63      2.7489997e-06  5.1711598e-07  2.2318837e-06  1.1258917e+08
   1010000   9.725174e-11   107443.89      106825.31      314686.66      2.7490223e-06  5.1723232e-07  2.23179e-06    1.1258897e+08
   1011000   9.7348029e-11  107450.49      106833.15      314276.86      2.749036e-06   5.17109e-07    2.231927e-06   1.1259349e+08
   1012000   9.7444317e-11  107443.09      106827.96      313529.43      2.7490215e-06  5.1724816e-07  2.2317733e-06  1.1259042e+08
   1013000   9.7540606e-11  107445.65      106832.58      312842.88      2.7490389e-06  5.1721238e-07  2.2318265e-06  1.1259278e+08
   1014000   9.7636895e-11  107458.83      106846.85      312491.52      2.7490349e-06  5.169347e-07   2.2321002e-06  1.1259754e+08
   1015000   9.7733184e-11  107453.12      106841.59      312335.91      2.7490221e-06  5.1704048e-07  2.2319816e-06  1.125952e+08 
   1016000   9.7829473e-11  107449.15      106840.78      311274.78      2.7490324e-06  5.1713321e-07  2.2318992e-06  1.1259424e+08
   1017000   9.7925762e-11  107432.11      106825.59      310639.21      2.7490342e-06  5.1748897e-07  2.2315452e-06  1.1258896e+08
   1018000   9.8022051e-11  107417.3       106813.85      309598.74      2.7490366e-06  5.1779897e-07  2.2312376e-06  1.1258545e+08
   1019000   9.8118339e-11  107411.96      106809.66      309209.21      2.7490325e-06  5.1790579e-07  2.2311267e-06  1.1258292e+08
   1020000   9.8214628e-11  107435.34      106833.64      309030.86      2.7490184e-06  5.1740598e-07  2.2316124e-06  1.1258882e+08
   1021000   9.8310917e-11  107431.58      106831.73      308407.14      2.7489967e-06  5.1746244e-07  2.2315342e-06  1.1258458e+08
   1022000   9.8407206e-11  107425.69      106826.59      308152.6       2.749013e-06   5.1760105e-07  2.2314119e-06  1.1258333e+08
   1023000   9.8503495e-11  107424.83      106826.28      307965.87      2.7490012e-06  5.1760726e-07  2.231394e-06   1.1258193e+08
   1024000   9.8599784e-11  107424.62      106827.81      307384.37      2.7490006e-06  5.1761089e-07  2.2313897e-06  1.1258123e+08
   1025000   9.8696072e-11  107447.94      106853.04      306770.32      2.7490142e-06  5.1714014e-07  2.2318741e-06  1.1259098e+08
   1026000   9.8792361e-11  107440.27      106846.55      306366.85      2.749026e-06   5.1731122e-07  2.2317148e-06  1.1259024e+08
   1027000   9.888865e-11   107430.16      106839.18      305440.79      2.7490184e-06  5.1751362e-07  2.2315048e-06  1.1258663e+08
   1028000   9.8984939e-11  107443.27      106853.54      305034.85      2.749023e-06   5.1724605e-07  2.2317769e-06  1.1259127e+08
   1029000   9.9081228e-11  107439.2       106847.26      305771.27      2.7490206e-06  5.173281e-07   2.2316925e-06  1.1258783e+08
   1030000   9.9177517e-11  107443.15      106850.47      306021.64      2.7490162e-06  5.1724159e-07  2.2317746e-06  1.1258844e+08
   1031000   9.9273806e-11  107447.54      106856.61      305440.37      2.7490038e-06  5.1713808e-07  2.2318657e-06  1.1258927e+08
   1032000   9.9370094e-11  107454.23      106865.19      304813.68      2.7490169e-06  5.1701229e-07  2.2320047e-06  1.1259256e+08
   1033000   9.9466383e-11  107449.48      106862.37      304162.98      2.7490057e-06  5.170997e-07   2.231906e-06   1.1258983e+08
   1034000   9.9562672e-11  107436.4       106851.07      303554.74      2.7490265e-06  5.1739219e-07  2.2316343e-06  1.1258718e+08
   1035000   9.9658961e-11  107453.02      106869.04      303118.75      2.7490212e-06  5.1704173e-07  2.2319795e-06  1.1259392e+08
   1036000   9.975525e-11   107447.07      106865.22      302404.32      2.749035e-06   5.17179e-07    2.231856e-06   1.1259309e+08
   1037000   9.9851539e-11  107448.27      106866.54      302362.75      2.749028e-06   5.1714714e-07  2.2318809e-06  1.1259188e+08
   1038000   9.9947828e-11  107456.49      106874.08      302601.02      2.7490261e-06  5.1697444e-07  2.2320517e-06  1.1259425e+08
   1039000   1.0004412e-10  107435.46      106854.58      302066.34      2.7490222e-06  5.1740745e-07  2.2316147e-06  1.1258638e+08
   1040000   1.0014041e-10  107440.11      106864.3       300377.54      2.7490386e-06  5.173272e-07   2.2317114e-06  1.1258971e+08
   1041000   1.0023669e-10  107442.29      106869.93      299223.12      2.7490193e-06  5.1726265e-07  2.2317567e-06  1.1258798e+08
   1042000   1.0033298e-10  107442.53      106871.86      298659.43      2.7490019e-06  5.1724023e-07  2.2317616e-06  1.1258664e+08
   1043000   1.0042927e-10  107458.08      106889.04      298130.07      2.7490129e-06  5.1692828e-07  2.2320846e-06  1.1259385e+08
   1044000   1.0052556e-10  107444.59      106876.4       297829.76      2.7490281e-06  5.1722373e-07  2.2318044e-06  1.1259141e+08
   1045000   1.0062185e-10  107426.55      106857.87      297977         2.7490251e-06  5.175953e-07   2.2314298e-06  1.125855e+08 
   1046000   1.0071814e-10  107423.34      106854.02      298188.95      2.7490167e-06  5.1765357e-07  2.2313631e-06  1.1258399e+08
   1047000   1.0081443e-10  107447.58      106879.3       297866.04      2.7490194e-06  5.1715286e-07  2.2318665e-06  1.1259075e+08
   1048000   1.0091072e-10  107466.8       106899.49      297561.8       2.7490222e-06  5.1675632e-07  2.2322659e-06  1.1259598e+08
   1049000   1.01007e-10    107447.17      106880.89      297196.22      2.749036e-06   5.1717799e-07  2.231858e-06   1.125908e+08 
   1050000   1.0110329e-10  107432.67      106867.37      296854.81      2.7490208e-06  5.1746387e-07  2.2315569e-06  1.1258531e+08
   1051000   1.0119958e-10  107438.15      106876.15      295755.43      2.7490055e-06  5.1733489e-07  2.2316706e-06  1.1258826e+08
   1052000   1.0129587e-10  107425.47      106864.35      295448.15      2.7490147e-06  5.1760737e-07  2.2314073e-06  1.1258602e+08
   1053000   1.0139216e-10  107437.45      106875.83      295626.26      2.7490148e-06  5.1735877e-07  2.2316561e-06  1.1259161e+08
   1054000   1.0148845e-10  107437.27      106876.36      295390.26      2.7490282e-06  5.173758e-07   2.2316524e-06  1.1259314e+08
   1055000   1.0158474e-10  107426.96      106865.88      295436.05      2.7490439e-06  5.1760557e-07  2.2314383e-06  1.1258953e+08
   1056000   1.0168103e-10  107446.27      106885.31      295414.56      2.7490526e-06  5.1721331e-07  2.2318393e-06  1.1259541e+08
   1057000   1.0177732e-10  107453.72      106894.53      294831.6       2.7490421e-06  5.1704807e-07  2.231994e-06   1.1259497e+08
   1058000   1.018736e-10   107446.28      106889.11      294149.17      2.7490348e-06  5.171953e-07   2.2318395e-06  1.1259129e+08
   1059000   1.0196989e-10  107450.6       106893.46      294141.11      2.7490321e-06  5.1710292e-07  2.2319292e-06  1.1259383e+08
   1060000   1.0206618e-10  107441.33      106883.14      294485.03      2.7490314e-06  5.1729471e-07  2.2317367e-06  1.125909e+08 
   1061000   1.0216247e-10  107450.43      106892.4       294442.7       2.7490302e-06  5.1710433e-07  2.2319259e-06  1.1259481e+08
   1062000   1.0225876e-10  107428.74      106870.04      294643.61      2.7490374e-06  5.1756215e-07  2.2314752e-06  1.1258777e+08
   1063000   1.0235505e-10  107449.43      106892.24      294158.4       2.7490459e-06  5.1714088e-07  2.231905e-06   1.1259567e+08
   1064000   1.0245134e-10  107452.88      106896.87      293765.12      2.7490454e-06  5.1706888e-07  2.2319766e-06  1.1259581e+08
   1065000   1.0254763e-10  107448.46      106893.25      293494.54      2.7490235e-06  5.1713868e-07  2.2318848e-06  1.1259137e+08
   1066000   1.0264392e-10  107454.13      106896.98      294148.57      2.7490167e-06  5.1701408e-07  2.2320026e-06  1.125924e+08 
   1067000   1.027402e-10   107455.21      106898.31      294065.91      2.7490172e-06  5.1699222e-07  2.232025e-06   1.1259372e+08
   1068000   1.0283649e-10  107440.44      106885.6       293363.06      2.749021e-06   5.173027e-07   2.2317183e-06  1.1259019e+08
   1069000   1.0293278e-10  107421.08      106867.39      292957.55      2.7490269e-06  5.1771089e-07  2.231316e-06   1.1258488e+08
   1070000   1.0302907e-10  107416.28      106864.89      292186.96      2.7490337e-06  5.1781731e-07  2.2312164e-06  1.1258353e+08
   1071000   1.0312536e-10  107423.82      106875.78      291071         2.749027e-06   5.1765404e-07  2.231373e-06   1.1258529e+08
   1072000   1.0322165e-10  107428.73      106882.62      290432.23      2.7490085e-06  5.1753348e-07  2.231475e-06   1.1258559e+08
   1073000   1.0331794e-10  107412.51      106867.5       290044.89      2.7490109e-06  5.1787288e-07  2.231138e-06   1.1257825e+08
   1074000   1.0341423e-10  107442.18      106901.02      288790.65      2.7489963e-06  5.1724192e-07  2.2317544e-06  1.1258772e+08
   1075000   1.0351052e-10  107455.37      106919.13      287156.82      2.7490117e-06  5.1698329e-07  2.2320284e-06  1.1259369e+08
   1076000   1.036068e-10   107444.14      106908.53      286933.79      2.7490081e-06  5.1721307e-07  2.231795e-06   1.1258793e+08
   1077000   1.0370309e-10  107456.67      106924.86      285678.75      2.7490167e-06  5.1696127e-07  2.2320555e-06  1.1259223e+08
   1078000   1.0379938e-10  107453.15      106923.21      285048.02      2.7490143e-06  5.1703208e-07  2.2319822e-06  1.125914e+08 
   1079000   1.0389567e-10  107438.9       106910.99      284356.09      2.7490289e-06  5.1734261e-07  2.2316863e-06  1.1258951e+08
   1080000   1.0399196e-10  107441.97      106916.36      283587.24      2.7490456e-06  5.1729571e-07  2.2317499e-06  1.1259364e+08
   1081000   1.0408825e-10  107443.36      106917.01      283835.14      2.7490411e-06  5.1726226e-07  2.2317788e-06  1.1259429e+08
   1082000   1.0418454e-10  107436.63      106911.21      283519.38      2.7490285e-06  5.1738936e-07  2.2316391e-06  1.1259185e+08
   1083000   1.0428083e-10  107420.84      106896.65      283092.3       2.7490286e-06  5.1771745e-07  2.2313111e-06  1.1258666e+08
   1084000   1.0437711e-10  107439.11      106915.7       282851.05      2.7490329e-06  5.1734228e-07  2.2316906e-06  1.1259194e+08
   1085000   1.044734e-10   107433.24      106909.37      282998.28      2.74903e-06    5.1746133e-07  2.2315686e-06  1.1258834e+08
   1086000   1.0456969e-10  107430.55      106904.78      283631.29      2.7490207e-06  5.1750784e-07  2.2315129e-06  1.1258733e+08
   1087000   1.0466598e-10  107432.73      106905.04      284276.06      2.7490165e-06  5.1745841e-07  2.2315581e-06  1.1258851e+08
   1088000   1.0476227e-10  107437.22      106908.82      284518.41      2.7490023e-06  5.1735096e-07  2.2316514e-06  1.1258871e+08
   1089000   1.0485856e-10  107420.97      106893.76      284103.45      2.749013e-06   5.1769918e-07  2.2313138e-06  1.1258246e+08
   1090000   1.0495485e-10  107428.99      106901.27      284282         2.7490111e-06  5.1753071e-07  2.2314804e-06  1.125846e+08 
   1091000   1.0505114e-10  107432.73      106904.93      284312.34      2.7490224e-06  5.1746431e-07  2.2315581e-06  1.1258843e+08
   1092000   1.0514743e-10  107441.84      106917.3       283231.08      2.7490204e-06  5.1727311e-07  2.2317473e-06  1.1259266e+08
   1093000   1.0524371e-10  107438.83      106914.09      283295.92      2.7490263e-06  5.1734148e-07  2.2316849e-06  1.1259094e+08
   1094000   1.0534e-10     107419.78      106896.97      282631.17      2.7490098e-06  5.1772069e-07  2.2312891e-06  1.1258096e+08
   1095000   1.0543629e-10  107447.32      106925.14      282446.05      2.7490125e-06  5.1715133e-07  2.2318612e-06  1.1258923e+08
   1096000   1.0553258e-10  107443.86      106923.02      281996.14      2.7490185e-06  5.1722929e-07  2.2317892e-06  1.1258716e+08
   1097000   1.0562887e-10  107459.27      106941.18      281093.76      2.7490104e-06  5.1690094e-07  2.2321095e-06  1.1259245e+08
   1098000   1.0572516e-10  107447.33      106930.16      280770.83      2.7490099e-06  5.1714854e-07  2.2318613e-06  1.1258931e+08
   1099000   1.0582145e-10  107436.79      106919.72      280726.65      2.7489858e-06  5.1734339e-07  2.2316424e-06  1.125844e+08 
   1100000   1.0591774e-10  107446.88      106930.97      280348.53      2.7490008e-06  5.1714875e-07  2.231852e-06   1.1258835e+08
   1101000   1.0601403e-10  107451.55      106934.94      280587.47      2.7490053e-06  5.170563e-07   2.231949e-06   1.1258863e+08
   1102000   1.0611031e-10  107465.04      106950.26      279989.13      2.7490096e-06  5.1678036e-07  2.2322292e-06  1.1259383e+08
   1103000   1.062066e-10   107433.33      106919         279809.68      2.749013e-06   5.1744243e-07  2.2315706e-06  1.125849e+08 
   1104000   1.0630289e-10  107437.78      106924.57      279437.85      2.7490227e-06  5.173597e-07   2.231663e-06   1.1258943e+08
   1105000   1.0639918e-10  107424.49      106913.06      278828.47      2.7490292e-06  5.1764228e-07  2.2313869e-06  1.1258729e+08
   1106000   1.0649547e-10  107435.84      106925.66      278422.06      2.7490344e-06  5.1741168e-07  2.2316227e-06  1.1259276e+08
   1107000   1.0659176e-10  107444.43      106937.14      277464.09      2.7490456e-06  5.1724454e-07  2.231801e-06   1.1259753e+08
   1108000   1.0668805e-10  107438.47      106933.9       276547.16      2.7490333e-06  5.1735604e-07  2.2316773e-06  1.1259275e+08
   1109000   1.0678434e-10  107439.92      106934.77      276741.79      2.7490149e-06  5.173075e-07   2.2317074e-06  1.1258951e+08
   1110000   1.0688062e-10  107425.75      106923.35      275811.13      2.7490045e-06  5.1759133e-07  2.2314132e-06  1.1258335e+08
   1111000   1.0697691e-10  107436.15      106937.44      274588.39      2.7489902e-06  5.1736098e-07  2.2316292e-06  1.1258692e+08
   1112000   1.070732e-10   107438.41      106941         274153.52      2.7490155e-06  5.173395e-07   2.231676e-06   1.1258896e+08
   1113000   1.0716949e-10  107435.05      106940.28      273267.95      2.7490152e-06  5.1740896e-07  2.2316062e-06  1.1258642e+08
   1114000   1.0726578e-10  107434.47      106937.88      273875.63      2.749016e-06   5.1742177e-07  2.2315942e-06  1.1258505e+08
   1115000   1.0736207e-10  107436.88      106939.13      274268.97      2.749014e-06   5.1736965e-07  2.2316444e-06  1.1258624e+08
   1116000   1.0745836e-10  107439.54      106940.39      274735.32      2.7490123e-06  5.1731284e-07  2.2316995e-06  1.1258792e+08
   1117000   1.0755465e-10  107442.17      106942.89      274784.34      2.7490019e-06  5.172477e-07   2.2317542e-06  1.1258893e+08
   1118000   1.0765094e-10  107409.75      106909.44      275093.54      2.7489907e-06  5.1790998e-07  2.2310807e-06  1.1257526e+08
   1119000   1.0774722e-10  107433.05      106932.23      275288.92      2.7490061e-06  5.1744144e-07  2.2315647e-06  1.1258469e+08
   1120000   1.0784351e-10  107423.9       106923.43      275164.47      2.7490175e-06  5.1764277e-07  2.2313747e-06  1.1258291e+08
   1121000   1.079398e-10   107441.18      106941.48      274922.08      2.7490156e-06  5.17282e-07    2.2317336e-06  1.1258999e+08
   1122000   1.0803609e-10  107440.29      106942.64      274235.54      2.749009e-06   5.1729379e-07  2.2317152e-06  1.1258818e+08
   1123000   1.0813238e-10  107440.93      106945.48      273501.8       2.7490008e-06  5.1727225e-07  2.2317285e-06  1.1258688e+08
   1124000   1.0822867e-10  107440.37      106948.11      272432.33      2.7490246e-06  5.1730791e-07  2.2317167e-06  1.1258871e+08
   1125000   1.0832496e-10  107446.75      106956.54      271756.14      2.7490316e-06  5.1718223e-07  2.2318493e-06  1.1259276e+08
   1126000   1.0842125e-10  107427.16      106937.24      271639.65      2.7490419e-06  5.1759944e-07  2.2314424e-06  1.1258916e+08
   1127000   1.0851754e-10  107439.4       106951.43      270999.72      2.7490338e-06  5.1733718e-07  2.2316967e-06  1.1259469e+08
   1128000   1.0861382e-10  107425.51      106938.57      270637.14      2.749027e-06   5.1761897e-07  2.2314081e-06  1.1258713e+08
   1129000   1.0871011e-10  107439.46      106955.04      269812.03      2.7490248e-06  5.173268e-07   2.231698e-06   1.1259053e+08
   1130000   1.088064e-10   107432.73      106950.47      269080.51      2.7490319e-06  5.1747388e-07  2.2315581e-06  1.1258727e+08
   1131000   1.0890269e-10  107439.96      106959.28      268559.84      2.7490116e-06  5.1730338e-07  2.2317082e-06  1.1258824e+08
   1132000   1.0899898e-10  107426.38      106948.96      267454.42      2.7490122e-06  5.1758599e-07  2.2314262e-06  1.1258403e+08
   1133000   1.0909527e-10  107416.48      106943.09      266098.09      2.749031e-06   5.1781041e-07  2.2312206e-06  1.1258231e+08
   1134000   1.0919156e-10  107429.9       106958.19      265551.01      2.7490237e-06  5.1752435e-07  2.2314994e-06  1.1258715e+08
   1135000   1.0928785e-10  107429.09      106959.89      264709.83      2.749038e-06   5.1755554e-07  2.2314825e-06  1.1258804e+08
   1136000   1.0938413e-10  107433.97      106968.29      263537.39      2.7490375e-06  5.1745364e-07  2.2315838e-06  1.125901e+08 
   1137000   1.0948042e-10  107431.58      106969.85      262213.34      2.7490414e-06  5.1750717e-07  2.2315342e-06  1.1259127e+08
   1138000   1.0957671e-10  107416.02      106955.79      261696.23      2.7490499e-06  5.1783901e-07  2.2312109e-06  1.1258632e+08
   1139000   1.09673e-10    107416.68      106958.4       261046.09      2.7490419e-06  5.1781717e-07  2.2312248e-06  1.1258512e+08
   1140000   1.0976929e-10  107422.8       106965.23      260811.36      2.7490304e-06  5.1767868e-07  2.2313517e-06  1.1258423e+08
   1141000   1.0986558e-10  107438.39      106982.65      260217.02      2.7490092e-06  5.1733361e-07  2.2316756e-06  1.1258669e+08
   1142000   1.0996187e-10  107439.33      106985.17      259690.06      2.7490163e-06  5.1732115e-07  2.2316951e-06  1.1258859e+08
   1143000   1.1005816e-10  107410.49      106959.52      258594.49      2.7490108e-06  5.1791464e-07  2.2310961e-06  1.1257974e+08
   1144000   1.1015445e-10  107427.16      106980.34      257222.68      2.749019e-06   5.1757655e-07  2.2314424e-06  1.1258576e+08
   1145000   1.1025073e-10  107440.03      106996.05      256284.64      2.7490112e-06  5.1730154e-07  2.2317097e-06  1.1258819e+08
   1146000   1.1034702e-10  107434.51      106990.9       256155.07      2.7490037e-06  5.1740869e-07  2.2315951e-06  1.1258465e+08
   1147000   1.1044331e-10  107435.35      106992.36      255948.7       2.7490304e-06  5.1741792e-07  2.2316125e-06  1.1258795e+08
   1148000   1.105396e-10   107440.67      106997.59      255984.86      2.7490364e-06  5.1731339e-07  2.231723e-06   1.1259191e+08
   1149000   1.1063589e-10  107441.34      106998.17      256016.95      2.7490309e-06  5.1729398e-07  2.2317369e-06  1.1259269e+08
   1150000   1.1073218e-10  107420.57      106980.33      255017.3       2.7490143e-06  5.1770872e-07  2.2313055e-06  1.1258446e+08
   1151000   1.1082847e-10  107434.11      106995.98      254321.78      2.7490114e-06  5.1742472e-07  2.2315867e-06  1.1258797e+08
   1152000   1.1092476e-10  107459.51      107025.16      253087.19      2.7490386e-06  5.169241e-07   2.2321145e-06  1.1259624e+08
   1153000   1.1102105e-10  107453.72      107018.85      253255.67      2.7490315e-06  5.1703736e-07  2.2319942e-06  1.1259285e+08
   1154000   1.1111733e-10  107441.74      107008.39      252734.4       2.7490339e-06  5.1728854e-07  2.2317453e-06  1.1259073e+08
   1155000   1.1121362e-10  107435.73      107002.72      252610.87      2.7490471e-06  5.1742681e-07  2.2316203e-06  1.1259108e+08
   1156000   1.1130991e-10  107434.83      107004.58      251690.78      2.7490292e-06  5.174275e-07   2.2316017e-06  1.1259068e+08
   1157000   1.114062e-10   107433.41      107004.41      251271.84      2.7490442e-06  5.1747191e-07  2.2315723e-06  1.1259066e+08
   1158000   1.1150249e-10  107439.82      107009.17      251826.81      2.7490439e-06  5.1733861e-07  2.2317053e-06  1.1259045e+08
   1159000   1.1159878e-10  107462.04      107032.61      251442.62      2.749038e-06   5.1687098e-07  2.232167e-06   1.1259684e+08
   1160000   1.1169507e-10  107450.07      107021.42      251172.28      2.7490231e-06  5.1710469e-07  2.2319184e-06  1.1259255e+08
   1161000   1.1179136e-10  107440.21      107012.97      250688.92      2.7490147e-06  5.173011e-07   2.2317136e-06  1.1259029e+08
   1162000   1.1188765e-10  107425.57      106999.79      250184.22      2.7490022e-06  5.1759284e-07  2.2314093e-06  1.1258443e+08
   1163000   1.1198393e-10  107421.58      106995.77      250190.26      2.7490097e-06  5.1768327e-07  2.2313264e-06  1.1258339e+08
   1164000   1.1208022e-10  107429.2       107004.95      249675.52      2.7490176e-06  5.1753289e-07  2.2314847e-06  1.1258704e+08
   1165000   1.1217651e-10  107427.2       107005.75      248738.03      2.7490124e-06  5.1756925e-07  2.2314431e-06  1.1258597e+08
   1166000   1.122728e-10   107447.18      107029.5       247497.72      2.7490105e-06  5.1715221e-07  2.2318583e-06  1.1259284e+08
   1167000   1.1236909e-10  107428.74      107012.49      247000.01      2.7490191e-06  5.1754398e-07  2.2314752e-06  1.1258636e+08
   1168000   1.1246538e-10  107429.28      107013.39      246881.81      2.7490256e-06  5.175391e-07   2.2314865e-06  1.1258753e+08
   1169000   1.1256167e-10  107455.11      107040.83      246369.26      2.7490247e-06  5.1700167e-07  2.2320231e-06  1.1259736e+08
   1170000   1.1265796e-10  107422.78      107011.37      245375.55      2.749034e-06   5.1768265e-07  2.2313514e-06  1.1258633e+08
   1171000   1.1275424e-10  107429.51      107019.62      244873.52      2.7490318e-06  5.1754069e-07  2.2314911e-06  1.1258967e+08
   1172000   1.1285053e-10  107435.19      107026.24      244565.65      2.7490267e-06  5.1741748e-07  2.2316092e-06  1.1259033e+08
   1173000   1.1294682e-10  107422.03      107012.96      244593.98      2.7490276e-06  5.1769174e-07  2.2313359e-06  1.1258218e+08
   1174000   1.1304311e-10  107455.08      107045.59      244764.85      2.7490143e-06  5.1699204e-07  2.2320223e-06  1.125918e+08 
   1175000   1.131394e-10   107441.23      107032.12      244626.37      2.7490061e-06  5.1727137e-07  2.2317347e-06  1.1258702e+08
   1176000   1.1323569e-10  107441.46      107034.48      243912.8       2.7490098e-06  5.1727035e-07  2.2317395e-06  1.1258842e+08
   1177000   1.1333198e-10  107431.15      107024.58      243763.77      2.7490056e-06  5.1748041e-07  2.2315252e-06  1.1258474e+08
   1178000   1.1342827e-10  107425.69      107017.52      244293.36      2.7490041e-06  5.1759226e-07  2.2314118e-06  1.1258381e+08
   1179000   1.1352456e-10  107410.93      107003.04      244188.47      2.7490132e-06  5.1790792e-07  2.2311053e-06  1.1257891e+08
   1180000   1.1362084e-10  107447.31      107040.02      244023         2.7490371e-06  5.1717603e-07  2.231861e-06   1.1259368e+08
   1181000   1.1371713e-10  107432.2       107026.78      243382.34      2.7490305e-06  5.1748352e-07  2.231547e-06   1.12586e+08  
   1182000   1.1381342e-10  107436.5       107031.91      243107.3       2.7490378e-06  5.1740145e-07  2.2316364e-06  1.1258798e+08
   1183000   1.1390971e-10  107452.7       107046.65      243611.43      2.7490287e-06  5.1705586e-07  2.2319728e-06  1.1259426e+08
   1184000   1.14006e-10    107440.45      107034.7       243500.5       2.7490262e-06  5.1730786e-07  2.2317184e-06  1.1258934e+08
   1185000   1.1410229e-10  107436.34      107029.9       243728.1       2.7490196e-06  5.1738648e-07  2.2316331e-06  1.125876e+08 
   1186000   1.1419858e-10  107435.52      107029.4       243620.71      2.7490151e-06  5.1739901e-07  2.2316161e-06  1.1258869e+08
   1187000   1.1429487e-10  107441.32      107037.34      242911.99      2.7490293e-06  5.1729273e-07  2.2317366e-06  1.1259346e+08
   1188000   1.1439116e-10  107432.93      107029.06      242864.22      2.7490222e-06  5.1745997e-07  2.2315622e-06  1.1258934e+08
   1189000   1.1448744e-10  107441.77      107038.66      242619.31      2.7490271e-06  5.1728117e-07  2.2317459e-06  1.1259192e+08
   1190000   1.1458373e-10  107432.31      107030.25      242258.94      2.7490214e-06  5.1747197e-07  2.2315494e-06  1.1258679e+08
   1191000   1.1468002e-10  107445.61      107045.29      241689.65      2.7490266e-06  5.1720088e-07  2.2318257e-06  1.1259144e+08
   1192000   1.1477631e-10  107441.52      107042.97      241092.35      2.7490441e-06  5.1730342e-07  2.2317407e-06  1.1259082e+08
   1193000   1.148726e-10   107434.52      107037.39      240609.63      2.7490428e-06  5.1744759e-07  2.2315952e-06  1.1258915e+08
   1194000   1.1496889e-10  107438.25      107041.24      240573.77      2.7490425e-06  5.1736986e-07  2.2316727e-06  1.1259137e+08
   1195000   1.1506518e-10  107452.2       107057.37      239860.44      2.7490349e-06  5.1707245e-07  2.2319624e-06  1.1259547e+08
   1196000   1.1516147e-10  107441.4       107047.69      239472.39      2.7490245e-06  5.1728637e-07  2.2317381e-06  1.1258971e+08
   1197000   1.1525775e-10  107436.45      107044.53      238871.68      2.7490247e-06  5.1738929e-07  2.2316354e-06  1.1258812e+08
   1198000   1.1535404e-10  107444.11      107052.55      238756.96      2.7490297e-06  5.1723521e-07  2.2317945e-06  1.1259271e+08
   1199000   1.1545033e-10  107434.34      107042.09      238978.38      2.7490421e-06  5.1745059e-07  2.2315915e-06  1.1258972e+08
   1200000   1.1554662e-10  107452.65      107061.16      238742.9       2.7490422e-06  5.170704e-07   2.2319718e-06  1.1259676e+08
   1201000   1.1564291e-10  107434.83      107043.42      238699.47      2.7490292e-06  5.1742761e-07  2.2316016e-06  1.1258893e+08
   1202000   1.157392e-10   107438.57      107047.28      238662.75      2.7490203e-06  5.1734092e-07  2.2316793e-06  1.1258909e+08
   1203000   1.1583549e-10  107438.51      107049.35      237948.54      2.74902e-06    5.1734184e-07  2.2316781e-06  1.1258789e+08
   1204000   1.1593178e-10  107441.69      107052.17      238074.66      2.7490046e-06  5.1726032e-07  2.2317443e-06  1.1258722e+08
   1205000   1.1602807e-10  107450.9       107062.77      237617.03      2.7490084e-06  5.1707295e-07  2.2319355e-06  1.125901e+08 
   1206000   1.1612435e-10  107448.06      107060.44      237445.06      2.7490225e-06  5.1714608e-07  2.2318765e-06  1.1259041e+08
   1207000   1.1622064e-10  107450.98      107064.39      237105.19      2.7490227e-06  5.170855e-07   2.2319372e-06  1.1259244e+08
   1208000   1.1631693e-10  107433.6       107048.69      236522.27      2.749037e-06   5.1746093e-07  2.2315761e-06  1.1258703e+08
   1209000   1.1641322e-10  107450.16      107064.51      236787.82      2.7490345e-06  5.1711425e-07  2.2319202e-06  1.1259355e+08
   1210000   1.1650951e-10  107444.93      107060.16      236488.45      2.7490268e-06  5.1721537e-07  2.2318114e-06  1.1259123e+08
   1211000   1.166058e-10   107431.38      107046.41      236542.88      2.7490296e-06  5.1749953e-07  2.23153e-06    1.1258792e+08
   1212000   1.1670209e-10  107420.48      107035.11      236664.46      2.7490289e-06  5.1772524e-07  2.2313037e-06  1.1258535e+08
   1213000   1.1679838e-10  107433.24      107047.16      236914.35      2.7490226e-06  5.1745385e-07  2.2315687e-06  1.1259003e+08
   1214000   1.1689467e-10  107434.79      107050.51      236314.22      2.7490201e-06  5.1741917e-07  2.231601e-06   1.1258982e+08
   1215000   1.1699095e-10  107452.87      107069.18      236136.96      2.7490236e-06  5.1704711e-07  2.2319765e-06  1.1259541e+08
   1216000   1.1708724e-10  107443.86      107062.17      235457.05      2.7490257e-06  5.172364e-07   2.2317893e-06  1.1259025e+08
   1217000   1.1718353e-10  107452.95      107070.72      235648.38      2.7490254e-06  5.1704727e-07  2.2319781e-06  1.1259357e+08
   1218000   1.1727982e-10  107469.37      107085.75      236128.66      2.7490262e-06  5.16707e-07    2.2323192e-06  1.1259934e+08
   1219000   1.1737611e-10  107459.1       107074.91      236309.88      2.7490292e-06  5.1692341e-07  2.2321058e-06  1.1259544e+08
   1220000   1.174724e-10   107451.9       107067.06      236517.2       2.7490389e-06  5.1708266e-07  2.2319562e-06  1.1259321e+08
   1221000   1.1756869e-10  107449.09      107062.89      236972.08      2.7490398e-06  5.1714176e-07  2.231898e-06   1.1259274e+08
   1222000   1.1766498e-10  107440.75      107055.68      236585.83      2.7490353e-06  5.1731056e-07  2.2317247e-06  1.1259156e+08
   1223000   1.1776127e-10  107430.25      107046.31      236197.35      2.7490331e-06  5.1752643e-07  2.2315066e-06  1.1258921e+08
   1224000   1.1785755e-10  107442.62      107059.87      235811.81      2.7490262e-06  5.1726263e-07  2.2317635e-06  1.125913e+08 
   1225000   1.1795384e-10  107453.56      107073.57      234896.9       2.7490277e-06  5.1703698e-07  2.2319908e-06  1.1259439e+08
   1226000   1.1805013e-10  107454.51      107074.78      234814.4       2.7490169e-06  5.1700633e-07  2.2320106e-06  1.1259406e+08
   1227000   1.1814642e-10  107435.85      107054.56      235316.73      2.7490446e-06  5.1742172e-07  2.2316229e-06  1.1258739e+08
   1228000   1.1824271e-10  107461.33      107082.03      234678.4       2.7490352e-06  5.1688296e-07  2.2321522e-06  1.1259541e+08
   1229000   1.18339e-10    107441.76      107063.45      234324.53      2.7490111e-06  5.1726534e-07  2.2317457e-06  1.1258667e+08
   1230000   1.1843529e-10  107448.53      107069.88      234446.35      2.7490083e-06  5.1712196e-07  2.2318863e-06  1.1258959e+08
   1231000   1.1853158e-10  107439.21      107063.59      233423.64      2.7490166e-06  5.1732388e-07  2.2316928e-06  1.1258793e+08
   1232000   1.1862786e-10  107433.99      107057.66      233655.38      2.7490257e-06  5.1744147e-07  2.2315842e-06  1.1258726e+08
   1233000   1.1872415e-10  107421.38      107044.63      233785.07      2.7490205e-06  5.1769807e-07  2.2313224e-06  1.1258336e+08
   1234000   1.1882044e-10  107441.81      107066.25      233405.67      2.7490209e-06  5.1727414e-07  2.2317468e-06  1.1259122e+08
   1235000   1.1891673e-10  107431.65      107058.61      232552.67      2.7490234e-06  5.1748767e-07  2.2315358e-06  1.1258745e+08
   1236000   1.1901302e-10  107449.16      107076.11      232575.6       2.7490181e-06  5.1711868e-07  2.2318994e-06  1.1259364e+08
   1237000   1.1910931e-10  107442.61      107070.02      232412.73      2.7490198e-06  5.1725641e-07  2.2317634e-06  1.125902e+08 
   1238000   1.192056e-10   107432.48      107059.83      232420.12      2.7490028e-06  5.1744992e-07  2.2315528e-06  1.1258364e+08
   1239000   1.1930189e-10  107433.26      107060.53      232447.53      2.7489953e-06  5.1742632e-07  2.231569e-06   1.1258203e+08
   1240000   1.1939818e-10  107446.19      107077.01      231275.23      2.7489915e-06  5.1715389e-07  2.2318376e-06  1.1258655e+08
   1241000   1.1949446e-10  107441.99      107074.44      230727.04      2.7489868e-06  5.1723641e-07  2.2317504e-06  1.1258598e+08
   1242000   1.1959075e-10  107434.24      107068.42      230141.91      2.7490075e-06  5.1741798e-07  2.2315895e-06  1.1258734e+08
   1243000   1.1968704e-10  107407.66      107043.75      229475.09      2.7490217e-06  5.1798444e-07  2.2310373e-06  1.1258019e+08
   1244000   1.1978333e-10  107404.37      107041.81      229016.9       2.7490134e-06  5.1804447e-07  2.2309689e-06  1.1258012e+08
   1245000   1.1987962e-10  107429.43      107066.93      229027.7       2.7490359e-06  5.1754627e-07  2.2314896e-06  1.1258938e+08
   1246000   1.1997591e-10  107459.26      107096.92      229000.53      2.7490386e-06  5.1692951e-07  2.2321091e-06  1.1259854e+08
   1247000   1.200722e-10   107434.04      107073.51      228371.61      2.749032e-06   5.1744664e-07  2.2315854e-06  1.1258784e+08
   1248000   1.2016849e-10  107433.83      107074.06      228117.18      2.7490437e-06  5.1746273e-07  2.2315809e-06  1.1258971e+08
   1249000   1.2026478e-10  107425.97      107065.29      228411.92      2.7490368e-06  5.1761913e-07  2.2314176e-06  1.1258572e+08
   1250000   1.2036106e-10  107429.4       107068.79      228394.27      2.7490236e-06  5.1753465e-07  2.2314889e-06  1.1258425e+08
   1251000   1.2045735e-10  107421.4       107059.06      228963.33      2.7490244e-06  5.1770168e-07  2.2313227e-06  1.1258251e+08
   1252000   1.2055364e-10  107426.53      107062.38      229576.12      2.7490234e-06  5.1759403e-07  2.2314294e-06  1.1258578e+08
   1253000   1.2064993e-10  107437.62      107075.08      229045.31      2.749031e-06   5.1737141e-07  2.2316596e-06  1.1259064e+08
   1254000   1.2074622e-10  107423.65      107062.3       228633.31      2.749033e-06   5.1766353e-07  2.2313694e-06  1.1258506e+08
   1255000   1.2084251e-10  107431.12      107071.14      228181.8       2.7490358e-06  5.1751122e-07  2.2315246e-06  1.1258808e+08
   1256000   1.209388e-10   107415.78      107055.87      228143.89      2.7490284e-06  5.1782247e-07  2.231206e-06   1.125823e+08 
   1257000   1.2103509e-10  107446.82      107088.33      227701.16      2.7490322e-06  5.1718134e-07  2.2318508e-06  1.125936e+08 
   1258000   1.2113137e-10  107445.88      107089.24      227080.25      2.7490086e-06  5.1717743e-07  2.2318312e-06  1.1259035e+08
   1259000   1.2122766e-10  107456.86      107101.53      226653.15      2.7490221e-06  5.1696287e-07  2.2320592e-06  1.1259458e+08
   1260000   1.2132395e-10  107438.61      107083.79      226466.34      2.7490178e-06  5.1733746e-07  2.2316803e-06  1.1258657e+08
   1261000   1.2142024e-10  107434.29      107078.1       226917.28      2.7490172e-06  5.1742673e-07  2.2315904e-06  1.125856e+08 
   1262000   1.2151653e-10  107443.95      107087.36      227061.91      2.7490155e-06  5.1722437e-07  2.2317911e-06  1.1258937e+08
   1263000   1.2161282e-10  107444.88      107087.88      227199.33      2.7490158e-06  5.1720544e-07  2.2318104e-06  1.125906e+08 
   1264000   1.2170911e-10  107428.61      107071.71      227148.87      2.7489975e-06  5.1752508e-07  2.2314724e-06  1.1258343e+08
   1265000   1.218054e-10   107446.16      107089.75      227004.94      2.749009e-06   5.1717186e-07  2.2318371e-06  1.125892e+08 
   1266000   1.2190169e-10  107441.48      107085.87      226733.05      2.7490178e-06  5.1727795e-07  2.2317398e-06  1.1258628e+08
   1267000   1.2199797e-10  107461.7       107107.11      226413.13      2.7490177e-06  5.1685785e-07  2.2321599e-06  1.1259399e+08
   1268000   1.2209426e-10  107452.8       107096.61      226935.92      2.7490091e-06  5.170342e-07   2.2319749e-06  1.1259149e+08
   1269000   1.2219055e-10  107433.41      107079.82      226047.87      2.7490038e-06  5.1743162e-07  2.2315722e-06  1.1258514e+08
   1270000   1.2228684e-10  107428.29      107075.19      225881.05      2.7490051e-06  5.1753919e-07  2.2314659e-06  1.1258375e+08
   1271000   1.2238313e-10  107440.72      107086.67      226208.25      2.749024e-06   5.1730001e-07  2.231724e-06   1.1258909e+08
   1272000   1.2247942e-10  107453.64      107098.14      226707.25      2.7490115e-06  5.1701916e-07  2.2319924e-06  1.1259232e+08
   1273000   1.2257571e-10  107435.2       107080.6       226390.91      2.7490208e-06  5.1741133e-07  2.2316095e-06  1.1258568e+08
   1274000   1.22672e-10    107450.09      107098.04      225549.16      2.7490149e-06  5.1709617e-07  2.2319187e-06  1.1259052e+08
   1275000   1.2276829e-10  107456.8       107105.89      225176.18      2.7490062e-06  5.1694808e-07  2.2320581e-06  1.1259173e+08
   1276000   1.2286457e-10  107451.52      107099.9       225406.15      2.7490099e-06  5.1706162e-07  2.2319483e-06  1.1259072e+08
   1277000   1.2296086e-10  107455.29      107101.57      226116.63      2.7490067e-06  5.1697995e-07  2.2320268e-06  1.1259326e+08
   1278000   1.2305715e-10  107455.79      107102.41      226000.17      2.7490145e-06  5.1697742e-07  2.2320371e-06  1.1259486e+08
   1279000   1.2315344e-10  107423.86      107072.01      225456.17      2.7490353e-06  5.1766149e-07  2.2313739e-06  1.1258514e+08
   1280000   1.2324973e-10  107440.96      107089.19      225447.41      2.749031e-06   5.173019e-07   2.2317291e-06  1.1259186e+08
   1281000   1.2334602e-10  107425.44      107075         224985.8       2.7490252e-06  5.1761867e-07  2.2314066e-06  1.1258492e+08
   1282000   1.2344231e-10  107432.15      107085.32      223787.97      2.7490303e-06  5.174843e-07   2.231546e-06   1.12587e+08  
   1283000   1.235386e-10   107442.86      107098.22      223063.26      2.7490257e-06  5.1725729e-07  2.2317684e-06  1.1259079e+08
   1284000   1.2363488e-10  107434.76      107090.65      222878.21      2.7490113e-06  5.1741108e-07  2.2316002e-06  1.1258707e+08
   1285000   1.2373117e-10  107438.92      107096.41      222350.11      2.7490105e-06  5.1732383e-07  2.2316867e-06  1.1258864e+08
   1286000   1.2382746e-10  107434.64      107094.1       221684.91      2.7490116e-06  5.1741387e-07  2.2315977e-06  1.1258634e+08
   1287000   1.2392375e-10  107433.89      107092.44      221987.15      2.7490099e-06  5.1742779e-07  2.2315821e-06  1.1258548e+08
   1288000   1.2402004e-10  107438.65      107097.05      222047.23      2.7490109e-06  5.173298e-07   2.2316812e-06  1.1258834e+08
   1289000   1.2411633e-10  107417.65      107077.38      221577.85      2.7490054e-06  5.1776057e-07  2.2312448e-06  1.1258167e+08
   1290000   1.2421262e-10  107431.35      107092.85      221002.83      2.749008e-06   5.1747847e-07  2.2315295e-06  1.1258745e+08
   1291000   1.2430891e-10  107427.56      107089.65      220799.14      2.7490253e-06  5.1757465e-07  2.2314506e-06  1.125875e+08 
   1292000   1.244052e-10   107434.15      107097.54      220371.3       2.7490322e-06  5.1744453e-07  2.2315876e-06  1.125899e+08 
   1293000   1.2450148e-10  107434.22      107098.32      220133.92      2.7490277e-06  5.1743877e-07  2.231589e-06   1.1258947e+08
   1294000   1.2459777e-10  107441.35      107105.5       220123.35      2.7490328e-06  5.1729565e-07  2.2317371e-06  1.1259144e+08
   1295000   1.2469406e-10  107450.47      107115.89      219710.6       2.7490324e-06  5.1710577e-07  2.2319266e-06  1.1259378e+08
   1296000   1.2479035e-10  107440.31      107108.12      218898.77      2.7490462e-06  5.1733067e-07  2.2317155e-06  1.1258926e+08
   1297000   1.2488664e-10  107436.3       107106.14      218215.21      2.7490304e-06  5.1739822e-07  2.2316322e-06  1.1258665e+08
   1298000   1.2498293e-10  107425.46      107096.55      217787.17      2.7490157e-06  5.1760857e-07  2.2314071e-06  1.1258227e+08
   1299000   1.2507922e-10  107436.53      107106.61      218137.6       2.7490277e-06  5.1739069e-07  2.2316371e-06  1.125874e+08 
   1300000   1.2517551e-10  107450.76      107120.2       218365.39      2.749009e-06   5.1707641e-07  2.2319326e-06  1.1259077e+08
   1301000   1.252718e-10   107446.59      107115.71      218467.98      2.7490116e-06  5.171655e-07   2.2318461e-06  1.1258972e+08
   1302000   1.2536808e-10  107456.65      107125.69      218503.55      2.7490154e-06  5.1696046e-07  2.2320549e-06  1.1259419e+08
   1303000   1.2546437e-10  107453.37      107126.56      217113.08      2.7490102e-06  5.1702341e-07  2.2319868e-06  1.1259243e+08
   1304000   1.2556066e-10  107451.65      107126.79      216459.21      2.7490029e-06  5.1705179e-07  2.2319511e-06  1.1259138e+08
   1305000   1.2565695e-10  107429.32      107106.07      215898.3       2.7489894e-06  5.1750217e-07  2.2314872e-06  1.1258159e+08
   1306000   1.2575324e-10  107444.13      107121.59      215677.16      2.7490172e-06  5.172223e-07   2.2317949e-06  1.1259075e+08
   1307000   1.2584953e-10  107455.03      107133.23      215439.14      2.7490188e-06  5.1699749e-07  2.2320213e-06  1.125955e+08 
   1308000   1.2594582e-10  107432.65      107109.69      215803.51      2.7490227e-06  5.1746634e-07  2.2315564e-06  1.1258662e+08
   1309000   1.2604211e-10  107450.66      107129.12      215347.85      2.7490205e-06  5.1709003e-07  2.2319305e-06  1.125917e+08 
   1310000   1.261384e-10   107452.25      107132.49      214753.79      2.7490277e-06  5.1706414e-07  2.2319636e-06  1.1259227e+08
   1311000   1.2623468e-10  107442.12      107123.15      214478.81      2.7490159e-06  5.172627e-07   2.2317532e-06  1.1258873e+08
   1312000   1.2633097e-10  107448.41      107130.15      214250.4       2.7490043e-06  5.1712043e-07  2.2318839e-06  1.1259033e+08
   1313000   1.2642726e-10  107451.05      107135.11      213474.73      2.7490034e-06  5.1706482e-07  2.2319386e-06  1.1259017e+08
   1314000   1.2652355e-10  107457.65      107142.74      213137.68      2.749004e-06   5.169282e-07   2.2320758e-06  1.1259189e+08
   1315000   1.2661984e-10  107449.78      107135.44      212939.18      2.7489927e-06  5.1708043e-07  2.2319122e-06  1.1258812e+08
   1316000   1.2671613e-10  107444.38      107130.09      212914.77      2.7489942e-06  5.1719415e-07  2.2318001e-06  1.125859e+08 
   1317000   1.2681242e-10  107443.84      107130.22      212692.66      2.7490122e-06  5.1722333e-07  2.2317889e-06  1.1258684e+08
   1318000   1.2690871e-10  107436.07      107122.87      212540.86      2.7490133e-06  5.1738587e-07  2.2316274e-06  1.1258498e+08
   1319000   1.2700499e-10  107431.07      107117.98      212503.51      2.7490205e-06  5.1749682e-07  2.2315237e-06  1.125857e+08 
   1320000   1.2710128e-10  107444         107133.04      211802.72      2.7490292e-06  5.1723707e-07  2.2317922e-06  1.1259306e+08
   1321000   1.2719757e-10  107421.18      107108.91      212218.72      2.7490491e-06  5.1773088e-07  2.2313182e-06  1.1258724e+08
   1322000   1.2729386e-10  107438.99      107127.72      211901.51      2.7490375e-06  5.1734932e-07  2.2316881e-06  1.1259198e+08
   1323000   1.2739015e-10  107447.12      107134.75      212277.99      2.7490181e-06  5.1716106e-07  2.231857e-06   1.1259125e+08
   1324000   1.2748644e-10  107457.18      107145.13      212179.49      2.7490176e-06  5.1695169e-07  2.2320659e-06  1.1259274e+08
   1325000   1.2758273e-10  107458.01      107147.15      211780.37      2.7490179e-06  5.169348e-07   2.2320831e-06  1.1259245e+08
   1326000   1.2767902e-10  107439.65      107128.93      211716.59      2.7490011e-06  5.1729924e-07  2.2317018e-06  1.1258481e+08
   1327000   1.2777531e-10  107457.35      107146.46      211790.6       2.7490201e-06  5.1695066e-07  2.2320694e-06  1.1259375e+08
   1328000   1.2787159e-10  107450.72      107140.03      211719.52      2.7490089e-06  5.1707703e-07  2.2319318e-06  1.1259014e+08
   1329000   1.2796788e-10  107435.94      107125.15      211735.71      2.749016e-06   5.1739124e-07  2.2316247e-06  1.1258593e+08
   1330000   1.2806417e-10  107440.78      107131.97      211077.4       2.7490275e-06  5.1730228e-07  2.2317252e-06  1.1258939e+08
   1331000   1.2816046e-10  107442.55      107135.63      210449.73      2.7490268e-06  5.1726466e-07  2.2317621e-06  1.1258894e+08
   1332000   1.2825675e-10  107450.26      107145.7       209670.79      2.7490311e-06  5.1710875e-07  2.2319223e-06  1.1259103e+08
   1333000   1.2835304e-10  107452.22      107148.64      209342.54      2.7490154e-06  5.1705249e-07  2.2319629e-06  1.1259117e+08
   1334000   1.2844933e-10  107439.39      107136.35      209150.72      2.7490134e-06  5.1731692e-07  2.2316964e-06  1.1258786e+08
   1335000   1.2854562e-10  107434.97      107130.83      209513.09      2.7490164e-06  5.1741173e-07  2.2316047e-06  1.1258842e+08
   1336000   1.2864191e-10  107432.79      107126.75      210146.11      2.7490241e-06  5.1746478e-07  2.2315593e-06  1.1259036e+08
   1337000   1.2873819e-10  107441.29      107134.28      210478.84      2.7490368e-06  5.1730082e-07  2.231736e-06   1.1259446e+08
   1338000   1.2883448e-10  107443.6       107135.58      210819.54      2.7490345e-06  5.172505e-07   2.231784e-06   1.1259482e+08
   1339000   1.2893077e-10  107432.48      107123.46      211142.58      2.7490207e-06  5.1746784e-07  2.2315529e-06  1.1258859e+08
   1340000   1.2902706e-10  107431.29      107121.3       211465.5       2.7490109e-06  5.1748278e-07  2.2315281e-06  1.1258573e+08
   1341000   1.2912335e-10  107450.25      107141.71      210999.87      2.7489994e-06  5.1707735e-07  2.231922e-06   1.1259057e+08
   1342000   1.2921964e-10  107448.53      107139.63      211118.15      2.7490008e-06  5.171146e-07   2.2318862e-06  1.1258863e+08
   1343000   1.2931593e-10  107440.76      107132.48      210903.14      2.7490009e-06  5.1727599e-07  2.2317249e-06  1.1258578e+08
   1344000   1.2941222e-10  107441.39      107133.33      210827.99      2.749021e-06   5.1728304e-07  2.2317379e-06  1.1258822e+08
   1345000   1.295085e-10   107438.82      107131.54      210566.71      2.7490273e-06  5.1734274e-07  2.2316845e-06  1.1258803e+08
   1346000   1.2960479e-10  107425.87      107119.03      210407.74      2.7490349e-06  5.1761927e-07  2.2314156e-06  1.125856e+08 
   1347000   1.2970108e-10  107434.52      107128.23      210229.32      2.7490263e-06  5.1743116e-07  2.2315952e-06  1.1258914e+08
   1348000   1.2979737e-10  107437.96      107134.28      209363.7       2.7490176e-06  5.1735073e-07  2.2316668e-06  1.1258877e+08
   1349000   1.2989366e-10  107429.54      107126.69      209075.08      2.7490183e-06  5.1752651e-07  2.2314918e-06  1.1258437e+08
   1350000   1.2998995e-10  107446.78      107145.69      208503.68      2.7490242e-06  5.1717423e-07  2.23185e-06    1.1258997e+08
   1351000   1.3008624e-10  107453.69      107152.2       208644.42      2.749015e-06   5.1702163e-07  2.2319934e-06  1.1259103e+08
   1352000   1.3018253e-10  107448.28      107148.56      208046.85      2.7490081e-06  5.1712706e-07  2.2318811e-06  1.1258818e+08
   1353000   1.3027882e-10  107444.03      107146.31      207373.69      2.7490127e-06  5.1722001e-07  2.2317927e-06  1.1258901e+08
   1354000   1.303751e-10   107439.6       107142.32      207222.55      2.7490197e-06  5.1731902e-07  2.2317007e-06  1.1258953e+08
   1355000   1.3047139e-10  107442.91      107147.61      206561.85      2.7490092e-06  5.1723976e-07  2.2317695e-06  1.1258984e+08
   1356000   1.3056768e-10  107451.21      107158.26      205786.19      2.7490049e-06  5.1706295e-07  2.2319419e-06  1.1259143e+08
   1357000   1.3066397e-10  107451.56      107158.5       205823.59      2.7490073e-06  5.170581e-07   2.2319492e-06  1.1259122e+08
   1358000   1.3076026e-10  107448.97      107157.72      205214.96      2.7490201e-06  5.1712474e-07  2.2318954e-06  1.1259003e+08
   1359000   1.3085655e-10  107430.3       107140.12      204838.76      2.7490134e-06  5.1750573e-07  2.2315077e-06  1.1258275e+08
   1360000   1.3095284e-10  107436.76      107145.91      205066.83      2.749007e-06   5.1736528e-07  2.2316417e-06  1.1258604e+08
   1361000   1.3104913e-10  107437.94      107147.25      205017.49      2.749024e-06   5.1735766e-07  2.2316664e-06  1.125874e+08 
   1362000   1.3114542e-10  107434.68      107144.89      204712.28      2.7490248e-06  5.1742611e-07  2.2315987e-06  1.1258617e+08
   1363000   1.312417e-10   107428.25      107139.6       204324.76      2.7490243e-06  5.1755938e-07  2.2314649e-06  1.1258517e+08
   1364000   1.3133799e-10  107422.85      107131.64      205174.25      2.7490361e-06  5.1768329e-07  2.2313528e-06  1.1258466e+08
   1365000   1.3143428e-10  107450.7       107159.21      205299.3       2.749035e-06   5.1710358e-07  2.2319314e-06  1.1259471e+08
   1366000   1.3153057e-10  107451.78      107164.38      203929.88      2.7490218e-06  5.1706802e-07  2.2319538e-06  1.1259364e+08
   1367000   1.3162686e-10  107429.72      107143.43      203535.94      2.7490281e-06  5.1753251e-07  2.2314956e-06  1.1258631e+08
   1368000   1.3172315e-10  107435.07      107148.18      203743.2       2.7490171e-06  5.1741039e-07  2.2316067e-06  1.1258813e+08
   1369000   1.3181944e-10  107429.11      107143.79      203209.54      2.7490172e-06  5.1753443e-07  2.2314828e-06  1.1258555e+08
   1370000   1.3191573e-10  107449.37      107165.39      202786.37      2.7490227e-06  5.1711893e-07  2.2319038e-06  1.1259325e+08
   1371000   1.3201201e-10  107445.08      107161.26      202727.55      2.749048e-06   5.1723336e-07  2.2318147e-06  1.1259429e+08
   1372000   1.321083e-10   107438.42      107155.17      202530.08      2.7490352e-06  5.1735891e-07  2.2316763e-06  1.1259204e+08
   1373000   1.3220459e-10  107440.99      107160.5       201609.93      2.749033e-06   5.1730335e-07  2.2317297e-06  1.1259189e+08
   1374000   1.3230088e-10  107446.94      107169.08      200732.58      2.7490229e-06  5.1716971e-07  2.2318532e-06  1.1259264e+08
   1375000   1.3239717e-10  107443.53      107166.63      200410.83      2.7490157e-06  5.1723329e-07  2.2317824e-06  1.1259007e+08
   1376000   1.3249346e-10  107463.41      107186.17      200544.48      2.7490028e-06  5.1680731e-07  2.2321955e-06  1.1259479e+08
   1377000   1.3258975e-10  107445.27      107166.65      200987.46      2.7490177e-06  5.1719914e-07  2.2318185e-06  1.1258962e+08
   1378000   1.3268604e-10  107426.88      107148.9       200752.9       2.7490149e-06  5.1757841e-07  2.2314365e-06  1.1258412e+08
   1379000   1.3278233e-10  107445.54      107168.49      200465.23      2.7490236e-06  5.1719936e-07  2.2318242e-06  1.1259284e+08
   1380000   1.3287861e-10  107426.91      107151.84      199782.21      2.7490135e-06  5.1757639e-07  2.2314372e-06  1.1258549e+08
   1381000   1.329749e-10   107429.06      107153.78      199853.19      2.7490149e-06  5.1753311e-07  2.2314818e-06  1.1258552e+08
   1382000   1.3307119e-10  107443.58      107165.93      200660.26      2.7490224e-06  5.1723892e-07  2.2317835e-06  1.125913e+08 
   1383000   1.3316748e-10  107434.03      107155.67      200887.23      2.749027e-06   5.1744201e-07  2.231585e-06   1.1258713e+08
   1384000   1.3326377e-10  107442.5       107165.82      200337.61      2.7490268e-06  5.1726571e-07  2.2317611e-06  1.1259019e+08
   1385000   1.3336006e-10  107443.82      107167.99      200054.19      2.7490214e-06  5.1723283e-07  2.2317885e-06  1.1258909e+08
   1386000   1.3345635e-10  107438.24      107163.22      199774.78      2.74901e-06    5.1733747e-07  2.2316725e-06  1.1258502e+08
   1387000   1.3355264e-10  107449.94      107174.83      199819.74      2.7490049e-06  5.1708924e-07  2.2319156e-06  1.125888e+08 
   1388000   1.3364893e-10  107435.46      107159.31      200150.94      2.7490221e-06  5.1740731e-07  2.2316148e-06  1.1258459e+08
   1389000   1.3374521e-10  107456.34      107180.58      200042.68      2.748996e-06   5.1694752e-07  2.2320485e-06  1.1258983e+08
   1390000   1.338415e-10   107460.79      107187.55      199202.19      2.7489896e-06  5.1684865e-07  2.2321409e-06  1.1259049e+08
   1391000   1.3393779e-10  107456.4       107183.74      199005.89      2.7490089e-06  5.1695914e-07  2.2320497e-06  1.1259164e+08
   1392000   1.3403408e-10  107448.79      107176.43      198896.09      2.7490209e-06  5.1712932e-07  2.2318916e-06  1.1259087e+08
   1393000   1.3413037e-10  107448.53      107173.98      199629.9       2.7490123e-06  5.1712603e-07  2.2318863e-06  1.1259106e+08
   1394000   1.3422666e-10  107431.68      107159.01      198983.03      2.7490203e-06  5.1748409e-07  2.2315362e-06  1.1258533e+08
   1395000   1.3432295e-10  107442.26      107171.6       198321.34      2.7490273e-06  5.1727126e-07  2.231756e-06   1.125909e+08 
   1396000   1.3441924e-10  107447.67      107178.93      197687.49      2.7490026e-06  5.171341e-07   2.2318685e-06  1.125901e+08 
   1397000   1.3451553e-10  107457.46      107188.32      197830.61      2.7490159e-06  5.1694419e-07  2.2320718e-06  1.1259334e+08
   1398000   1.3461181e-10  107454.04      107184.97      197801.09      2.7490359e-06  5.1703518e-07  2.2320007e-06  1.1259255e+08
   1399000   1.347081e-10   107441.32      107173.12      197498.06      2.7490207e-06  5.1728413e-07  2.2317365e-06  1.1258972e+08
   1400000   1.3480439e-10  107422.79      107153.93      197700.34      2.7490306e-06  5.1767901e-07  2.2313516e-06  1.1258734e+08
   1401000   1.3490068e-10  107416.74      107146.32      198217.34      2.7490462e-06  5.1782027e-07  2.231226e-06   1.1258755e+08
   1402000   1.3499697e-10  107425.99      107154.64      198538.7       2.7490584e-06  5.1764028e-07  2.2314182e-06  1.1259081e+08
   1403000   1.3509326e-10  107420.27      107148.73      198593.19      2.7490722e-06  5.1777298e-07  2.2312992e-06  1.1258825e+08
   1404000   1.3518955e-10  107412.08      107141.12      198391         2.7490663e-06  5.1793721e-07  2.2311291e-06  1.1258413e+08
   1405000   1.3528584e-10  107432.7       107164.08      197632.65      2.7490473e-06  5.1748978e-07  2.2315575e-06  1.1259024e+08
   1406000   1.3538212e-10  107425.55      107156.99      197603.88      2.7490291e-06  5.1762008e-07  2.231409e-06   1.1258534e+08
   1407000   1.3547841e-10  107442.53      107173.45      197793.25      2.7490198e-06  5.1725822e-07  2.2317616e-06  1.1259097e+08
   1408000   1.355747e-10   107430.37      107162.03      197536.18      2.7490176e-06  5.1750845e-07  2.2315091e-06  1.1258607e+08
   1409000   1.3567099e-10  107440.72      107173.23      197260.05      2.7490249e-06  5.1730089e-07  2.231724e-06   1.1259078e+08
   1410000   1.3576728e-10  107441.25      107176.67      196288.11      2.7490492e-06  5.1731417e-07  2.2317351e-06  1.1259393e+08
   1411000   1.3586357e-10  107430.52      107168.39      195457.18      2.7490417e-06  5.1752959e-07  2.2315121e-06  1.1258961e+08
   1412000   1.3595986e-10  107436.52      107176.95      194606.24      2.7490451e-06  5.1740827e-07  2.2316368e-06  1.1259131e+08
   1413000   1.3605615e-10  107450.21      107191.08      194476.05      2.7490328e-06  5.1711156e-07  2.2319212e-06  1.1259292e+08
   1414000   1.3615244e-10  107466.06      107205.55      194950.93      2.749026e-06   5.1677558e-07  2.2322504e-06  1.1259676e+08
   1415000   1.3624872e-10  107446.95      107184.42      195606.33      2.7490321e-06  5.1717869e-07  2.2318534e-06  1.1259032e+08
   1416000   1.3634501e-10  107461.14      107196.88      196200.64      2.7490218e-06  5.1687349e-07  2.2321483e-06  1.1259611e+08
   1417000   1.364413e-10   107444.11      107178.92      196496.07      2.7490242e-06  5.1722963e-07  2.2317946e-06  1.1258981e+08
   1418000   1.3653759e-10  107456.48      107192.25      196185.81      2.7490458e-06  5.1699437e-07  2.2320514e-06  1.1259516e+08
   1419000   1.3663388e-10  107444.88      107181.38      195930.58      2.7490457e-06  5.1723532e-07  2.2318104e-06  1.1259176e+08
   1420000   1.3673017e-10  107447.29      107183.4       196062.18      2.7490409e-06  5.1718045e-07  2.2318604e-06  1.125936e+08 
   1421000   1.3682646e-10  107443.79      107179.22      196286.22      2.7490464e-06  5.1725866e-07  2.2317878e-06  1.1259254e+08
   1422000   1.3692275e-10  107443.83      107179.02      196368.3       2.7490382e-06  5.1724963e-07  2.2317886e-06  1.1259305e+08
   1423000   1.3701904e-10  107433.59      107168.33      196508.21      2.7490424e-06  5.1746639e-07  2.231576e-06   1.1259071e+08
   1424000   1.3711532e-10  107433.58      107167.83      196671.18      2.7490492e-06  5.1747358e-07  2.2315757e-06  1.1259117e+08
   1425000   1.3721161e-10  107443.76      107178.71      196446.41      2.7490448e-06  5.172577e-07   2.2317871e-06  1.1259543e+08
   1426000   1.373079e-10   107417.92      107152.48      196551.91      2.7490401e-06  5.1778954e-07  2.2312505e-06  1.1258606e+08
   1427000   1.3740419e-10  107444.93      107179.51      196573.1       2.7490417e-06  5.1723026e-07  2.2318114e-06  1.1259427e+08
   1428000   1.3750048e-10  107438.66      107173.98      196319.41      2.7490439e-06  5.1736265e-07  2.2316812e-06  1.1259186e+08
   1429000   1.3759677e-10  107424.41      107160.76      195960.64      2.7490489e-06  5.1766374e-07  2.2313852e-06  1.1258953e+08
   1430000   1.3769306e-10  107427.82      107164.52      195846.01      2.7490402e-06  5.1758412e-07  2.2314561e-06  1.1259207e+08
   1431000   1.3778935e-10  107429.42      107168.1       195182.98      2.7490473e-06  5.1755804e-07  2.2314892e-06  1.125913e+08 
   1432000   1.3788563e-10  107432.86      107171.28      195277.18      2.7490473e-06  5.1748645e-07  2.2315608e-06  1.1259066e+08
   1433000   1.3798192e-10  107443.16      107179.14      196102.12      2.7490569e-06  5.1728219e-07  2.2317747e-06  1.125948e+08 
   1434000   1.3807821e-10  107442.57      107177.39      196489.44      2.7490497e-06  5.1728733e-07  2.2317624e-06  1.1259415e+08
   1435000   1.381745e-10   107442.11      107176.32      196694.27      2.7490637e-06  5.1731075e-07  2.231753e-06   1.1259504e+08
   1436000   1.3827079e-10  107445.03      107179.54      196596.91      2.7490718e-06  5.1725823e-07  2.2318136e-06  1.1259703e+08
   1437000   1.3836708e-10  107423.9       107157.55      196861.76      2.7490599e-06  5.1768521e-07  2.2313747e-06  1.125892e+08 
   1438000   1.3846337e-10  107419.78      107153.28      196908.95      2.74906e-06    5.1777093e-07  2.2312891e-06  1.1258805e+08
   1439000   1.3855966e-10  107432.4       107166.52      196715.51      2.7490518e-06  5.1750047e-07  2.2315513e-06  1.1259105e+08
   1440000   1.3865595e-10  107431.1       107165.07      196761.73      2.7490371e-06  5.1751294e-07  2.2315242e-06  1.1258896e+08
   1441000   1.3875223e-10  107417.87      107151.42      196891.75      2.7490293e-06  5.1777975e-07  2.2312495e-06  1.1258292e+08
   1442000   1.3884852e-10  107437.01      107168.02      197758.43      2.7490285e-06  5.1738148e-07  2.231647e-06   1.1258829e+08
   1443000   1.3894481e-10  107451.81      107182         198048.48      2.7490338e-06  5.1707927e-07  2.2319545e-06  1.1259243e+08
   1444000   1.390411e-10   107465.16      107196.19      197780.52      2.7490286e-06  5.1679683e-07  2.2322318e-06  1.1259722e+08
   1445000   1.3913739e-10  107455.24      107187.95      197209.62      2.7490237e-06  5.1699807e-07  2.2320257e-06  1.1259518e+08
   1446000   1.3923368e-10  107436.2       107171.51      196319.36      2.7490277e-06  5.1739757e-07  2.2316301e-06  1.1258958e+08
   1447000   1.3932997e-10  107418.02      107154.03      196067.09      2.7490268e-06  5.1777431e-07  2.2312524e-06  1.1258253e+08
   1448000   1.3942626e-10  107424.78      107161.27      195914.71      2.749023e-06   5.1762997e-07  2.231393e-06   1.1258508e+08
   1449000   1.3952255e-10  107439.77      107177.14      195635.72      2.749041e-06   5.173366e-07   2.2317044e-06  1.1259061e+08
   1450000   1.3961883e-10  107452.11      107188.83      195863.29      2.7490325e-06  5.1707189e-07  2.2319606e-06  1.1259292e+08
   1451000   1.3971512e-10  107451.46      107188.53      195748.78      2.7490298e-06  5.1708251e-07  2.2319472e-06  1.125922e+08 
   1452000   1.3981141e-10  107440.47      107178.92      195274.15      2.7490149e-06  5.1729601e-07  2.2317189e-06  1.1258754e+08
   1453000   1.399077e-10   107454.87      107194.35      194945.14      2.7490165e-06  5.1699856e-07  2.232018e-06   1.1259394e+08
   1454000   1.4000399e-10  107442.12      107182         194795.77      2.7490112e-06  5.1725813e-07  2.2317531e-06  1.1258897e+08
   1455000   1.4010028e-10  107424.71      107168.04      193624.65      2.7490081e-06  5.1761659e-07  2.2313915e-06  1.1258184e+08
   1456000   1.4019657e-10  107443.28      107188.27      193090         2.7490157e-06  5.1723842e-07  2.2317773e-06  1.1258859e+08
   1457000   1.4029286e-10  107438.41      107183.07      193192.68      2.7490149e-06  5.1733891e-07  2.231676e-06   1.1258636e+08
   1458000   1.4038915e-10  107445.44      107191.22      192828.41      2.7490218e-06  5.171996e-07   2.2318222e-06  1.1259015e+08
   1459000   1.4048543e-10  107432.23      107178.42      192679.05      2.7490221e-06  5.1747433e-07  2.2315477e-06  1.1258642e+08
   1460000   1.4058172e-10  107446.53      107193.88      192303.17      2.749028e-06   5.1718324e-07  2.2318447e-06  1.1259307e+08
   1461000   1.4067801e-10  107444.93      107194.34      191612.09      2.7490444e-06  5.1723291e-07  2.2318115e-06  1.1259319e+08
   1462000   1.407743e-10   107449.36      107199.33      191429.82      2.7490543e-06  5.1715087e-07  2.2319034e-06  1.1259594e+08
   1463000   1.4087059e-10  107437.81      107186.53      191837.19      2.7490401e-06  5.1737648e-07  2.2316636e-06  1.1259177e+08
   1464000   1.4096688e-10  107419.75      107170.13      191260.21      2.7490359e-06  5.1774752e-07  2.2312884e-06  1.1258465e+08
   1465000   1.4106317e-10  107439.45      107191.36      190769.96      2.7490357e-06  5.1733807e-07  2.2316977e-06  1.1259167e+08
   1466000   1.4115946e-10  107438.02      107192.2       190010.29      2.7490351e-06  5.1736718e-07  2.2316679e-06  1.1258889e+08
   1467000   1.4125574e-10  107449.77      107203.37      190215.56      2.7490227e-06  5.1711069e-07  2.231912e-06   1.1259091e+08
   1468000   1.4135203e-10  107434.82      107187.66      190455.39      2.7490064e-06  5.1740492e-07  2.2316015e-06  1.1258425e+08
   1469000   1.4144832e-10  107433.32      107186.75      190258.88      2.7490112e-06  5.1744075e-07  2.2315704e-06  1.1258365e+08
   1470000   1.4154461e-10  107447.54      107202.16      189873.12      2.7490128e-06  5.1714703e-07  2.2318657e-06  1.1258966e+08
   1471000   1.416409e-10   107433.51      107188.44      189755.52      2.7490113e-06  5.1743695e-07  2.2315744e-06  1.1258418e+08
   1472000   1.4173719e-10  107421.42      107176.74      189614.79      2.7490208e-06  5.1769758e-07  2.2313232e-06  1.1258069e+08
   1473000   1.4183348e-10  107446.12      107202.33      189337.82      2.749006e-06   5.1716985e-07  2.2318362e-06  1.1258936e+08
   1474000   1.4192977e-10  107443.29      107200.27      189078.11      2.749001e-06   5.172236e-07   2.2317774e-06  1.125873e+08 
   1475000   1.4202606e-10  107450.62      107208.46      188800.4       2.7490145e-06  5.1708473e-07  2.2319297e-06  1.1259053e+08
   1476000   1.4212234e-10  107447.39      107205.96      188552.54      2.7490173e-06  5.1715463e-07  2.2318627e-06  1.125893e+08 
   1477000   1.4221863e-10  107440.78      107199.46      188510.1       2.7490224e-06  5.1729698e-07  2.2317254e-06  1.1258683e+08
   1478000   1.4231492e-10  107441.09      107200.04      188417.33      2.7490118e-06  5.1728008e-07  2.2317317e-06  1.125863e+08 
   1479000   1.4241121e-10  107455.96      107214.79      188473.43      2.7490048e-06  5.1696426e-07  2.2320405e-06  1.1259229e+08
   1480000   1.425075e-10   107463.29      107222.4       188386.61      2.7490172e-06  5.1682431e-07  2.2321928e-06  1.1259542e+08
   1481000   1.4260379e-10  107447.59      107205.63      188728.1       2.7490038e-06  5.1713706e-07  2.2318667e-06  1.1258722e+08
   1482000   1.4270008e-10  107460.66      107217.18      189253.15      2.7490058e-06  5.1686747e-07  2.2321383e-06  1.1259281e+08
   1483000   1.4279637e-10  107450.84      107205.41      189894.7       2.7490056e-06  5.1707127e-07  2.2319344e-06  1.1258872e+08
   1484000   1.4289266e-10  107449.46      107204.25      189818         2.7490138e-06  5.1710831e-07  2.2319055e-06  1.1258994e+08
   1485000   1.4298894e-10  107452.74      107205.25      190582.74      2.7490246e-06  5.1705097e-07  2.2319737e-06  1.1259312e+08
   1486000   1.4308523e-10  107435.79      107187.37      190877.94      2.7490198e-06  5.173982e-07   2.2316216e-06  1.1258666e+08
   1487000   1.4318152e-10  107445.5       107195.85      191300.62      2.7490363e-06  5.1721292e-07  2.2318234e-06  1.1259187e+08
   1488000   1.4327781e-10  107423.32      107173.49      191336.08      2.7490271e-06  5.1766451e-07  2.2313626e-06  1.1258454e+08
   1489000   1.433741e-10   107432.13      107183.25      191026.19      2.7490356e-06  5.1749005e-07  2.2315456e-06  1.1258935e+08
   1490000   1.4347039e-10  107447.34      107199.11      190826.29      2.7490322e-06  5.1717067e-07  2.2318615e-06  1.1259469e+08
   1491000   1.4356668e-10  107440.01      107192.66      190523.23      2.7490384e-06  5.1732911e-07  2.2317093e-06  1.1259165e+08
   1492000   1.4366297e-10  107434.77      107187.91      190354.97      2.7490396e-06  5.1743908e-07  2.2316005e-06  1.1259058e+08
   1493000   1.4375925e-10  107408.54      107160.95      190572         2.7490219e-06  5.1796626e-07  2.2310556e-06  1.125803e+08 
   1494000   1.4385554e-10  107415.72      107168.88      190330.48      2.7490324e-06  5.1782764e-07  2.2312048e-06  1.1258428e+08
   1495000   1.4395183e-10  107435.35      107187.89      190556.42      2.7490358e-06  5.1742331e-07  2.2316125e-06  1.1259088e+08
   1496000   1.4404812e-10  107455.52      107209.75      190012.5       2.7490272e-06  5.1699569e-07  2.2320315e-06  1.1259608e+08
   1497000   1.4414441e-10  107441.66      107196.99      189627.67      2.749019e-06   5.1727542e-07  2.2317435e-06  1.1258898e+08
   1498000   1.442407e-10   107428.3       107185.4       189023.07      2.7490199e-06  5.1755381e-07  2.2314661e-06  1.1258393e+08
   1499000   1.4433699e-10  107440.1       107198.61      188567.05      2.7490053e-06  5.1729403e-07  2.2317113e-06  1.1258611e+08
   1500000   1.4443328e-10  107441.97      107203.75      187472.65      2.7489969e-06  5.1724692e-07  2.2317499e-06  1.125852e+08 
   1501000   1.4452957e-10  107436.44      107199.55      187021.86      2.7490015e-06  5.1736641e-07  2.2316351e-06  1.1258399e+08
   1502000   1.4462585e-10  107434.04      107195.03      187729.31      2.7490109e-06  5.1742563e-07  2.2315852e-06  1.1258463e+08
   1503000   1.4472214e-10  107448.93      107210.56      187532.79      2.7490053e-06  5.1711059e-07  2.2318947e-06  1.1259001e+08
   1504000   1.4481843e-10  107459.55      107222.39      187133.23      2.7489963e-06  5.1688123e-07  2.2321151e-06  1.1259252e+08
   1505000   1.4491472e-10  107438.54      107203.25      186489.48      2.749004e-06   5.1732517e-07  2.2316788e-06  1.1258527e+08
   1506000   1.4501101e-10  107434.19      107199.93      186141.22      2.748996e-06   5.1740748e-07  2.2315885e-06  1.1258573e+08
   1507000   1.451073e-10   107432.02      107198.7       185826.22      2.7490222e-06  5.1747881e-07  2.2315434e-06  1.1258901e+08
   1508000   1.4520359e-10  107446.06      107212.95      185769.84      2.7490378e-06  5.1720276e-07  2.2318351e-06  1.12596e+08  
   1509000   1.4529988e-10  107431.5       107199.1       185517.85      2.7490364e-06  5.1750383e-07  2.2315326e-06  1.1259096e+08
   1510000   1.4539617e-10  107432.55      107201.07      185211.45      2.7490536e-06  5.1749917e-07  2.2315544e-06  1.1259248e+08
   1511000   1.4549245e-10  107442.44      107209.54      185691.6       2.7490447e-06  5.1728502e-07  2.2317597e-06  1.1259344e+08
   1512000   1.4558874e-10  107436.29      107204.75      185230.82      2.7490399e-06  5.174079e-07   2.231632e-06   1.1258982e+08
   1513000   1.4568503e-10  107437.57      107209         184242.38      2.7490355e-06  5.1737688e-07  2.2316587e-06  1.125904e+08 
   1514000   1.4578132e-10  107432.82      107205.21      183916.29      2.749016e-06   5.1745602e-07  2.23156e-06    1.1258667e+08
   1515000   1.4587761e-10  107436.94      107210.41      183560.41      2.7490116e-06  5.1736598e-07  2.2316456e-06  1.12587e+08  
   1516000   1.459739e-10   107445.32      107219.34      183383.68      2.7490128e-06  5.1719308e-07  2.2318197e-06  1.1259071e+08
   1517000   1.4607019e-10  107446.01      107221.01      183052.92      2.749019e-06   5.1718518e-07  2.2318339e-06  1.1259054e+08
   1518000   1.4616648e-10  107428.45      107205.81      182248.16      2.7490166e-06  5.1754735e-07  2.2314693e-06  1.1258304e+08
   1519000   1.4626276e-10  107438.86      107215.45      182517.65      2.7490056e-06  5.1732013e-07  2.2316855e-06  1.1258607e+08
   1520000   1.4635905e-10  107468.45      107246.28      182131.04      2.7489987e-06  5.1669872e-07  2.2323e-06     1.1259468e+08
   1521000   1.4645534e-10  107466.9       107247.1       181334.79      2.7490204e-06  5.1675256e-07  2.2322678e-06  1.1259627e+08
   1522000   1.4655163e-10  107460.08      107241.15      181036.77      2.7489993e-06  5.1687321e-07  2.2321261e-06  1.1259295e+08
   1523000   1.4664792e-10  107443.11      107225.68      180521.57      2.749015e-06   5.1724127e-07  2.2317738e-06  1.1259001e+08
   1524000   1.4674421e-10  107426.48      107209.4       180389.94      2.7490358e-06  5.1760747e-07  2.2314283e-06  1.1258765e+08
   1525000   1.468405e-10   107432.91      107215.77      180414.64      2.7490392e-06  5.1747736e-07  2.2315618e-06  1.1259147e+08
   1526000   1.4693679e-10  107423.71      107207.46      180103.79      2.7490426e-06  5.1767195e-07  2.2313706e-06  1.1258817e+08
   1527000   1.4703308e-10  107438.04      107220         180718.48      2.7490448e-06  5.1737648e-07  2.2316683e-06  1.1259194e+08
   1528000   1.4712936e-10  107449.34      107231.41      180694.48      2.7490404e-06  5.1713733e-07  2.2319031e-06  1.1259335e+08
   1529000   1.4722565e-10  107431.08      107215.96      179736.16      2.7490312e-06  5.1750749e-07  2.2315237e-06  1.1258484e+08
   1530000   1.4732194e-10  107432.89      107220.2       178925.03      2.7490198e-06  5.1745834e-07  2.2315615e-06  1.1258428e+08
   1531000   1.4741823e-10  107430.63      107218.66      178682.21      2.7490285e-06  5.1751404e-07  2.2315144e-06  1.1258266e+08
   1532000   1.4751452e-10  107436.74      107226.29      178177.4       2.7489933e-06  5.1735198e-07  2.2316413e-06  1.1258298e+08
   1533000   1.4761081e-10  107434.72      107224.73      178024.47      2.7490171e-06  5.1741773e-07  2.2315994e-06  1.1258606e+08
   1534000   1.477071e-10   107445.7       107239.02      176928.43      2.7490067e-06  5.1717914e-07  2.2318276e-06  1.1259016e+08
   1535000   1.4780339e-10  107433.05      107227.92      176398.2       2.7490325e-06  5.1746763e-07  2.2315648e-06  1.1258704e+08
   1536000   1.4789968e-10  107441.27      107236.64      176238.53      2.7490311e-06  5.172956e-07   2.2317355e-06  1.1258981e+08
   1537000   1.4799596e-10  107437.69      107232.08      176562.38      2.7489952e-06  5.1733404e-07  2.2316611e-06  1.1258549e+08
   1538000   1.4809225e-10  107433.77      107227.53      176767.09      2.7489932e-06  5.1741356e-07  2.2315797e-06  1.1258303e+08
   1539000   1.4818854e-10  107450.7       107244.9       176639.4       2.7490028e-06  5.170714e-07   2.2319314e-06  1.1258925e+08
   1540000   1.4828483e-10  107434.55      107228.55      176688.03      2.7490131e-06  5.1741719e-07  2.2315959e-06  1.1258599e+08
   1541000   1.4838112e-10  107443.69      107238.06      176574.75      2.7490313e-06  5.1724555e-07  2.2317858e-06  1.1259341e+08
   1542000   1.4847741e-10  107436.73      107233.02      175925         2.7490443e-06  5.1740313e-07  2.2316411e-06  1.1259028e+08
   1543000   1.485737e-10   107451.14      107248.38      175623.97      2.7490349e-06  5.1709427e-07  2.2319406e-06  1.1259277e+08
   1544000   1.4866999e-10  107458.28      107254.44      175991.49      2.7490281e-06  5.1693928e-07  2.2320889e-06  1.1259608e+08
   1545000   1.4876628e-10  107441.21      107236.75      176183.25      2.7490148e-06  5.1728053e-07  2.2317343e-06  1.1258943e+08
   1546000   1.4886256e-10  107414.91      107210.37      176181.35      2.7490254e-06  5.1783747e-07  2.231188e-06   1.1257962e+08
   1547000   1.4895885e-10  107439.1       107232.82      176788.01      2.7490341e-06  5.1734366e-07  2.2316904e-06  1.1258922e+08
   1548000   1.4905514e-10  107432.32      107226.47      176637.57      2.7490233e-06  5.1747375e-07  2.2315495e-06  1.1258509e+08
   1549000   1.4915143e-10  107459.41      107253.92      176544.36      2.7490054e-06  5.1689311e-07  2.2321123e-06  1.1259329e+08
   1550000   1.4924772e-10  107442.39      107236.23      176753.31      2.7490195e-06  5.1726065e-07  2.2317588e-06  1.1258978e+08
   1551000   1.4934401e-10  107430.14      107224.36      176612.39      2.7490379e-06  5.1753351e-07  2.2315044e-06  1.1258804e+08
   1552000   1.494403e-10   107422.71      107217.04      176566.35      2.7490427e-06  5.1769279e-07  2.2313499e-06  1.1258631e+08
   1553000   1.4953659e-10  107439.56      107233.67      176660.8       2.749037e-06   5.1733692e-07  2.2317001e-06  1.1259132e+08
   1554000   1.4963287e-10  107433.23      107228.06      176411.54      2.7490362e-06  5.1746772e-07  2.2315685e-06  1.1258803e+08
   1555000   1.4972916e-10  107426.08      107220.32      176599.27      2.7490244e-06  5.1760451e-07  2.2314199e-06  1.1258449e+08
   1556000   1.4982545e-10  107442.79      107237.23      176551.7       2.7490279e-06  5.1726082e-07  2.2317671e-06  1.1259031e+08
   1557000   1.4992174e-10  107446.25      107241.76      176195.48      2.7490333e-06  5.1719437e-07  2.231839e-06   1.1259198e+08
   1558000   1.5001803e-10  107445.02      107238.85      176759.25      2.7490349e-06  5.172215e-07   2.2318134e-06  1.1259318e+08
   1559000   1.5011432e-10  107427.09      107220.65      176829.1       2.7490323e-06  5.1759132e-07  2.231441e-06   1.1258744e+08
   1560000   1.5021061e-10  107423.33      107217.51      176619.09      2.7490275e-06  5.1766453e-07  2.2313629e-06  1.1258477e+08
   1561000   1.503069e-10   107434.21      107230.63      175880.55      2.7490083e-06  5.1741939e-07  2.2315889e-06  1.1258492e+08
   1562000   1.5040319e-10  107445.37      107242.27      175730.15      2.7490013e-06  5.171807e-07   2.2318206e-06  1.1258721e+08
   1563000   1.5049947e-10  107430.84      107227.13      175918.07      2.7489803e-06  5.1746157e-07  2.2315188e-06  1.1258156e+08
   1564000   1.5059576e-10  107436.7       107233.55      175738.36      2.748988e-06   5.1734749e-07  2.2316405e-06  1.1258489e+08
   1565000   1.5069205e-10  107430.57      107228.4       175402.9       2.7490028e-06  5.1748965e-07  2.2315132e-06  1.1258389e+08
   1566000   1.5078834e-10  107438.14      107236.82      175129.86      2.7490032e-06  5.1733269e-07  2.2316705e-06  1.1258662e+08
   1567000   1.5088463e-10  107446.03      107246.1       174672.12      2.7490203e-06  5.1718591e-07  2.2318344e-06  1.1259016e+08
   1568000   1.5098092e-10  107438.42      107237.71      174925.78      2.749019e-06   5.1734269e-07  2.2316763e-06  1.125875e+08 
   1569000   1.5107721e-10  107448.91      107248.52      174827.74      2.7490168e-06  5.1712269e-07  2.2318941e-06  1.125914e+08 
   1570000   1.511735e-10   107443.19      107244.12      174381.19      2.7490119e-06  5.172365e-07   2.2317754e-06  1.1258875e+08
   1571000   1.5126979e-10  107424.02      107225.36      174223.65      2.7490038e-06  5.1762661e-07  2.2313772e-06  1.1258068e+08
   1572000   1.5136607e-10  107445.41      107248.86      173540.99      2.7490103e-06  5.1718879e-07  2.2318216e-06  1.1258775e+08
   1573000   1.5146236e-10  107435.83      107242.61      172416.56      2.7490145e-06  5.1739196e-07  2.2316225e-06  1.1258411e+08
   1574000   1.5155865e-10  107439.01      107244.56      172831.4       2.7490249e-06  5.1733629e-07  2.2316886e-06  1.1258751e+08
   1575000   1.5165494e-10  107418.71      107225.53      172386.15      2.7490336e-06  5.1776682e-07  2.2312668e-06  1.1258143e+08
   1576000   1.5175123e-10  107442.36      107249.88      172174.62      2.7490536e-06  5.1729548e-07  2.2317581e-06  1.1259239e+08
   1577000   1.5184752e-10  107438.08      107245.4       172237.01      2.7490343e-06  5.1736515e-07  2.2316692e-06  1.1259042e+08
   1578000   1.5194381e-10  107435.29      107243.6       171906.16      2.7489997e-06  5.1738835e-07  2.2316113e-06  1.1258722e+08
   1579000   1.520401e-10   107417.3       107223.75      172511.31      2.7490084e-06  5.1777075e-07  2.2312377e-06  1.1258003e+08
   1580000   1.5213638e-10  107430.66      107238.21      172154.46      2.7490006e-06  5.1748548e-07  2.2315151e-06  1.1258372e+08
   1581000   1.5223267e-10  107450.59      107259.08      171859.11      2.7490063e-06  5.1707721e-07  2.2319291e-06  1.1259069e+08
   1582000   1.5232896e-10  107455.78      107264.72      171714.38      2.7490134e-06  5.1697658e-07  2.2320368e-06  1.1259358e+08
   1583000   1.5242525e-10  107441.53      107249.89      171896.48      2.7490147e-06  5.1727375e-07  2.231741e-06   1.1258949e+08
   1584000   1.5252154e-10  107429.03      107237.76      171755.89      2.7490098e-06  5.1752857e-07  2.2314812e-06  1.1258462e+08
   1585000   1.5261783e-10  107439.05      107247.11      171992.1       2.7490226e-06  5.1733325e-07  2.2316893e-06  1.1258875e+08
   1586000   1.5271412e-10  107445.41      107249.86      173205.74      2.749031e-06   5.1720961e-07  2.2318214e-06  1.1259104e+08
   1587000   1.5281041e-10  107440.92      107244.36      173540.27      2.7490358e-06  5.1730758e-07  2.2317282e-06  1.1259077e+08
   1588000   1.529067e-10   107431.72      107233.53      174074.4       2.749042e-06   5.1750489e-07  2.2315371e-06  1.125892e+08 
   1589000   1.5300298e-10  107440.62      107241.09      174532.07      2.7490294e-06  5.1730742e-07  2.231722e-06   1.1259204e+08
   1590000   1.5309927e-10  107440.78      107241.73      174372.73      2.7490394e-06  5.1731398e-07  2.2317254e-06  1.1259256e+08
   1591000   1.5319556e-10  107435.46      107236.22      174429.08      2.7490236e-06  5.1740879e-07  2.2316148e-06  1.1258739e+08
   1592000   1.5329185e-10  107444.26      107246.84      173829.62      2.7490114e-06  5.1721385e-07  2.2317975e-06  1.1258758e+08
   1593000   1.5338814e-10  107461.47      107266.47      173035.9       2.7490118e-06  5.1685676e-07  2.232155e-06   1.1259382e+08
   1594000   1.5348443e-10  107442.58      107247.21      173143.26      2.7490246e-06  5.1726186e-07  2.2317628e-06  1.1258805e+08
   1595000   1.5358072e-10  107440.79      107245.2       173214.43      2.7490207e-06  5.172952e-07   2.2317255e-06  1.1258766e+08
   1596000   1.5367701e-10  107447.42      107252.18      173104.79      2.7490124e-06  5.1714904e-07  2.2318633e-06  1.1258921e+08
   1597000   1.537733e-10   107443.46      107250.28      172412.21      2.749014e-06   5.1723298e-07  2.231781e-06   1.1258794e+08
   1598000   1.5386958e-10  107444.52      107254.2       171453.41      2.7490297e-06  5.1722677e-07  2.2318029e-06  1.1258996e+08
   1599000   1.5396587e-10  107451.34      107259.05      172122.08      2.7490286e-06  5.1708383e-07  2.2319447e-06  1.1259273e+08
   1600000   1.5406216e-10  107454.37      107260.96      172500.82      2.7490349e-06  5.1702721e-07  2.2320077e-06  1.1259523e+08
   1601000   1.5415845e-10  107444.41      107252.28      172060.31      2.749026e-06   5.1722537e-07  2.2318006e-06  1.1259202e+08
   1602000   1.5425474e-10  107442.3       107250.33      172005.87      2.7490294e-06  5.1727241e-07  2.231757e-06   1.1259238e+08
   1603000   1.5435103e-10  107430.88      107237.5       172463.44      2.7490346e-06  5.1751503e-07  2.2315196e-06  1.1258795e+08
   1604000   1.5444732e-10  107431.99      107237.37      172879.33      2.7490362e-06  5.1749352e-07  2.2315426e-06  1.1258773e+08
   1605000   1.5454361e-10  107430.09      107236.86      172415.76      2.7490266e-06  5.1752331e-07  2.2315033e-06  1.1258633e+08
   1606000   1.546399e-10   107435.53      107242.92      172213.07      2.7490225e-06  5.1740621e-07  2.2316163e-06  1.1258827e+08
   1607000   1.5473618e-10  107426.4       107233.41      172329.92      2.7490072e-06  5.1758058e-07  2.2314266e-06  1.1258427e+08
   1608000   1.5483247e-10  107434.61      107242.04      172197.95      2.7490172e-06  5.1742011e-07  2.2315971e-06  1.1258793e+08
   1609000   1.5492876e-10  107443.47      107251.92      171865.89      2.7490013e-06  5.1722003e-07  2.2317812e-06  1.1258948e+08
   1610000   1.5502505e-10  107438.32      107247.42      171643.76      2.7490034e-06  5.1732922e-07  2.2316741e-06  1.1258679e+08
   1611000   1.5512134e-10  107430.2       107238.5       171901.27      2.7490148e-06  5.1750924e-07  2.2315055e-06  1.1258433e+08
   1612000   1.5521763e-10  107436.34      107245.44      171639.24      2.7490143e-06  5.1738124e-07  2.231633e-06   1.1258641e+08
   1613000   1.5531392e-10  107438.76      107248.71      171358.34      2.749034e-06   5.1735063e-07  2.2316834e-06  1.1258986e+08
   1614000   1.5541021e-10  107447.95      107256.61      171800.05      2.7490349e-06  5.1716054e-07  2.2318743e-06  1.1259351e+08
   1615000   1.5550649e-10  107453.25      107262.9       171475.42      2.7490323e-06  5.1704789e-07  2.2319844e-06  1.1259435e+08
   1616000   1.5560278e-10  107456.23      107266.7       171201.27      2.749021e-06   5.1697484e-07  2.2320462e-06  1.1259378e+08
   1617000   1.5569907e-10  107456.37      107266.51      171313.26      2.7490207e-06  5.1697167e-07  2.2320491e-06  1.1259305e+08
   1618000   1.5579536e-10  107456.9       107268.35      170875.86      2.7490134e-06  5.1695337e-07  2.2320601e-06  1.1259215e+08
   1619000   1.5589165e-10  107432.56      107245.77      170265.36      2.7490194e-06  5.1746475e-07  2.2315546e-06  1.1258467e+08
   1620000   1.5598794e-10  107425.16      107238.53      170202.25      2.7490292e-06  5.1762837e-07  2.2314008e-06  1.1258451e+08
   1621000   1.5608423e-10  107433.31      107247.51      169932.78      2.749037e-06   5.1746676e-07  2.2315702e-06  1.1258838e+08
   1622000   1.5618052e-10  107443.06      107258.59      169497.64      2.7490368e-06  5.1726408e-07  2.2317727e-06  1.1259094e+08
   1623000   1.5627681e-10  107433.54      107250.6       168974.17      2.7490209e-06  5.1744602e-07  2.2315748e-06  1.1258456e+08
   1624000   1.5637309e-10  107431.92      107248.47      169144.74      2.7490165e-06  5.1747526e-07  2.2315413e-06  1.1258491e+08
   1625000   1.5646938e-10  107422.95      107239.48      169143.15      2.7490218e-06  5.1766691e-07  2.2313549e-06  1.1258391e+08
   1626000   1.5656567e-10  107431.62      107247.93      169226.05      2.7490207e-06  5.1748569e-07  2.231535e-06   1.1258713e+08
   1627000   1.5666196e-10  107450.89      107267.72      169071.7       2.7490268e-06  5.1709144e-07  2.2319353e-06  1.1259249e+08
   1628000   1.5675825e-10  107456.2       107272.75      169170.05      2.7490187e-06  5.1697311e-07  2.2320455e-06  1.1259159e+08
   1629000   1.5685454e-10  107453.67      107272.85      168286.89      2.7490321e-06  5.1703919e-07  2.231993e-06   1.1259133e+08
   1630000   1.5695083e-10  107444.57      107265.57      167666.92      2.7490144e-06  5.172104e-07   2.231804e-06   1.1258865e+08
   1631000   1.5704712e-10  107442.76      107266.59      166719.96      2.74902e-06    5.1725359e-07  2.2317664e-06  1.1258998e+08
   1632000   1.5714341e-10  107446.1       107270.85      166416.47      2.749026e-06   5.1719026e-07  2.2318358e-06  1.1259267e+08
   1633000   1.5723969e-10  107431.87      107257.34      166159.84      2.7490259e-06  5.174858e-07   2.2315401e-06  1.1258681e+08
   1634000   1.5733598e-10  107441.9       107268.79      165695.29      2.7490012e-06  5.1725268e-07  2.2317486e-06  1.1258766e+08
   1635000   1.5743227e-10  107447.76      107273.23      166177.79      2.7490117e-06  5.1714148e-07  2.2318702e-06  1.1258873e+08
   1636000   1.5752856e-10  107464.08      107287.8       166782.34      2.7490004e-06  5.1679103e-07  2.2322094e-06  1.1259284e+08
   1637000   1.5762485e-10  107439.91      107263.42      166825.72      2.7489993e-06  5.1729212e-07  2.2317072e-06  1.1258359e+08
   1638000   1.5772114e-10  107444.9       107267.82      167028.42      2.7490244e-06  5.1721355e-07  2.2318109e-06  1.1258845e+08
   1639000   1.5781743e-10  107451.84      107273.8       167355.04      2.7490441e-06  5.1708906e-07  2.2319551e-06  1.1259341e+08
   1640000   1.5791372e-10  107450.58      107275.18      166470.92      2.7490418e-06  5.1711298e-07  2.2319288e-06  1.1259337e+08
   1641000   1.5801e-10     107449.85      107277.69      165386.84      2.7490485e-06  5.1713478e-07  2.2319137e-06  1.1259539e+08
   1642000   1.5810629e-10  107427.47      107256.87      164841.19      2.7490486e-06  5.1759988e-07  2.2314488e-06  1.125876e+08 
   1643000   1.5820258e-10  107425.08      107252.61      165465.2       2.7490367e-06  5.1763752e-07  2.2313992e-06  1.1258511e+08
   1644000   1.5829887e-10  107441.83      107269.25      165520.08      2.7490199e-06  5.1727284e-07  2.2317471e-06  1.1258808e+08
   1645000   1.5839516e-10  107435.84      107263.5       165433.08      2.7490242e-06  5.1740144e-07  2.2316227e-06  1.1258524e+08
   1646000   1.5849145e-10  107447.85      107275.63      165404.53      2.7490064e-06  5.1713417e-07  2.2318722e-06  1.1258981e+08
   1647000   1.5858774e-10  107434.24      107263         165063.87      2.7490084e-06  5.1741901e-07  2.2315894e-06  1.1258551e+08
   1648000   1.5868403e-10  107440.66      107270.62      164665.74      2.7490026e-06  5.1727994e-07  2.2317227e-06  1.125877e+08 
   1649000   1.5878032e-10  107435.67      107264.98      164879.97      2.7490148e-06  5.1739563e-07  2.2316192e-06  1.1258788e+08
   1650000   1.588766e-10   107429.09      107258.99      164678.22      2.749006e-06   5.1752349e-07  2.2314825e-06  1.1258529e+08
   1651000   1.5897289e-10  107448.93      107279.45      164490.06      2.7490141e-06  5.1711961e-07  2.2318945e-06  1.1259089e+08
   1652000   1.5906918e-10  107448.25      107280.16      164025.18      2.7490114e-06  5.1713093e-07  2.2318805e-06  1.1258887e+08
   1653000   1.5916547e-10  107452.44      107285.71      163573.65      2.7489999e-06  5.1703248e-07  2.2319675e-06  1.1259029e+08
   1654000   1.5926176e-10  107441.18      107275.07      163354.88      2.7490183e-06  5.1728465e-07  2.2317337e-06  1.1258885e+08
   1655000   1.5935805e-10  107435.09      107269.54      163159.71      2.7490174e-06  5.1741037e-07  2.2316071e-06  1.125871e+08 
   1656000   1.5945434e-10  107444.56      107280.76      162588.8       2.7490315e-06  5.1722757e-07  2.2318039e-06  1.1259136e+08
   1657000   1.5955063e-10  107442.48      107279.06      162455.39      2.7490265e-06  5.1726598e-07  2.2317605e-06  1.1259104e+08
   1658000   1.5964692e-10  107424.42      107261.53      162262.8       2.7490154e-06  5.1762982e-07  2.2313856e-06  1.1258474e+08
   1659000   1.597432e-10   107438.21      107275.29      162284.42      2.7490236e-06  5.1735166e-07  2.2316719e-06  1.1259006e+08
   1660000   1.5983949e-10  107434.68      107272.5       162036.49      2.7490183e-06  5.1741957e-07  2.2315987e-06  1.125871e+08 
   1661000   1.5993578e-10  107419.6       107257.42      162018.46      2.7490032e-06  5.1771787e-07  2.2312853e-06  1.1258014e+08
   1662000   1.6003207e-10  107430.51      107268.46      161985.41      2.7490105e-06  5.1749858e-07  2.2315119e-06  1.1258479e+08
   1663000   1.6012836e-10  107426.37      107265.79      161493.93      2.7490099e-06  5.1758385e-07  2.2314261e-06  1.1258371e+08
   1664000   1.6022465e-10  107422.08      107264.2       160583.97      2.7490092e-06  5.1767234e-07  2.2313369e-06  1.1258235e+08
   1665000   1.6032094e-10  107436.36      107279.34      160310.63      2.7490115e-06  5.1737793e-07  2.2316335e-06  1.1258681e+08
   1666000   1.6041723e-10  107436.2       107279.41      160232.65      2.7490215e-06  5.1739135e-07  2.2316302e-06  1.1258604e+08
   1667000   1.6051351e-10  107431.39      107274.24      160350.49      2.7490254e-06  5.1749505e-07  2.2315304e-06  1.1258621e+08
   1668000   1.606098e-10   107435.11      107277         160674.33      2.7490083e-06  5.1740079e-07  2.2316075e-06  1.125875e+08 
   1669000   1.6070609e-10  107425.95      107268.22      160537.51      2.7490239e-06  5.1760664e-07  2.2314173e-06  1.1258433e+08
   1670000   1.6080238e-10  107432.54      107274.18      160755.46      2.7490255e-06  5.1747136e-07  2.2315542e-06  1.1258617e+08
   1671000   1.6089867e-10  107455.17      107298.49      160213.2       2.7490344e-06  5.1701023e-07  2.2320241e-06  1.1259517e+08
   1672000   1.6099496e-10  107446.16      107290         160032.53      2.749033e-06   5.171959e-07   2.2318371e-06  1.1259094e+08
   1673000   1.6109125e-10  107444.67      107288.45      160052.75      2.7490288e-06  5.1722265e-07  2.2318061e-06  1.125894e+08 
   1674000   1.6118754e-10  107443.9       107288         159941.03      2.7490088e-06  5.1721876e-07  2.23179e-06    1.1258755e+08
   1675000   1.6128383e-10  107444.19      107288.25      159958.42      2.7490059e-06  5.1720977e-07  2.2317962e-06  1.125873e+08 
   1676000   1.6138011e-10  107448.74      107293.24      159814.09      2.7490083e-06  5.1711763e-07  2.2318906e-06  1.1258886e+08
   1677000   1.614764e-10   107444.47      107289.7       159565.84      2.7490155e-06  5.1721344e-07  2.231802e-06   1.1258852e+08
   1678000   1.6157269e-10  107445.94      107291.26      159537.58      2.749009e-06   5.1717649e-07  2.2318325e-06  1.1258806e+08
   1679000   1.6166898e-10  107453.85      107298.86      159648.07      2.7490396e-06  5.1704289e-07  2.2319967e-06  1.1259365e+08
   1680000   1.6176527e-10  107433.63      107279.44      159359.49      2.7490376e-06  5.1746085e-07  2.2315768e-06  1.1258686e+08
   1681000   1.6186156e-10  107435.87      107280.8       159659.41      2.7490217e-06  5.1739833e-07  2.2316233e-06  1.125873e+08 
   1682000   1.6195785e-10  107424.19      107268.18      159959.67      2.7490232e-06  5.1764264e-07  2.2313806e-06  1.1258324e+08
   1683000   1.6205414e-10  107423.78      107268.77      159627.77      2.7490258e-06  5.1765358e-07  2.2313722e-06  1.1258348e+08
   1684000   1.6215043e-10  107429.43      107273.32      160001.14      2.749021e-06   5.1753143e-07  2.2314896e-06  1.1258357e+08
   1685000   1.6224671e-10  107442.36      107284.97      160437.35      2.7490029e-06  5.1724487e-07  2.2317581e-06  1.1258612e+08
   1686000   1.62343e-10    107433.71      107275.89      160574.65      2.7489988e-06  5.1742043e-07  2.2315784e-06  1.1258319e+08
   1687000   1.6243929e-10  107438.69      107280.44      160726.7       2.749006e-06   5.1732402e-07  2.231682e-06   1.1258669e+08
   1688000   1.6253558e-10  107443.85      107285.94      160615.55      2.7490048e-06  5.1721562e-07  2.2317892e-06  1.1258776e+08
   1689000   1.6263187e-10  107439.05      107279.41      161186.36      2.74901e-06    5.1732071e-07  2.2316893e-06  1.1258585e+08
   1690000   1.6272816e-10  107435.77      107274.71      161661.84      2.749011e-06   5.1738971e-07  2.2316213e-06  1.1258466e+08
   1691000   1.6282445e-10  107443.62      107281.94      161873.34      2.7490483e-06  5.1726405e-07  2.2317842e-06  1.1259264e+08
   1692000   1.6292074e-10  107424.61      107261.88      162207.95      2.7490341e-06  5.1764475e-07  2.2313894e-06  1.1258605e+08
   1693000   1.6301703e-10  107439.53      107273.82      163220.82      2.7490325e-06  5.1733316e-07  2.2316994e-06  1.1259147e+08
   1694000   1.6311331e-10  107442.07      107275.83      163397.92      2.7490324e-06  5.1728041e-07  2.231752e-06   1.1259185e+08
   1695000   1.632096e-10   107456.72      107289.83      163631.25      2.74902e-06    5.169637e-07   2.2320563e-06  1.1259554e+08
   1696000   1.6330589e-10  107454.05      107287.01      163678.97      2.7490319e-06  5.170309e-07   2.232001e-06   1.1259437e+08
   1697000   1.6340218e-10  107451.06      107281.73      164440.53      2.7490359e-06  5.1709714e-07  2.2319388e-06  1.1259359e+08
   1698000   1.6349847e-10  107450.27      107279.86      164802.69      2.7490268e-06  5.1710425e-07  2.2319225e-06  1.1259317e+08
   1699000   1.6359476e-10  107438.42      107268.65      164574.31      2.7490312e-06  5.1735501e-07  2.2316762e-06  1.1258847e+08
   1700000   1.6369105e-10  107437.77      107269.63      164029.04      2.749032e-06   5.1736927e-07  2.2316627e-06  1.1258839e+08
   1701000   1.6378734e-10  107432.14      107264.66      163804.59      2.7490386e-06  5.1749269e-07  2.2315459e-06  1.1258833e+08
   1702000   1.6388362e-10  107441.91      107275.69      163390.68      2.7490539e-06  5.1730518e-07  2.2317487e-06  1.1259302e+08
   1703000   1.6397991e-10  107437.83      107272.8       162991.53      2.7490341e-06  5.1737e-07     2.2316641e-06  1.1258988e+08
   1704000   1.640762e-10   107440.43      107276.76      162539.18      2.7490245e-06  5.1730654e-07  2.231718e-06   1.1258998e+08
   1705000   1.6417249e-10  107442.35      107279.76      162179.96      2.7490377e-06  5.1727978e-07  2.2317579e-06  1.1259191e+08
   1706000   1.6426878e-10  107443.95      107282.95      161648.28      2.7490568e-06  5.1726568e-07  2.2317911e-06  1.1259502e+08
   1707000   1.6436507e-10  107438.12      107279.18      160955.24      2.7490489e-06  5.1737879e-07  2.2316701e-06  1.1259326e+08
   1708000   1.6446136e-10  107430.05      107274.03      159966.36      2.7490409e-06  5.1753852e-07  2.2315023e-06  1.1258959e+08
   1709000   1.6455765e-10  107428.27      107272.96      159729.14      2.7490543e-06  5.1758882e-07  2.2314655e-06  1.1258962e+08
   1710000   1.6465394e-10  107435.45      107279.56      159930.7       2.7490444e-06  5.1742989e-07  2.2316145e-06  1.1259084e+08
   1711000   1.6475022e-10  107435.75      107280.48      159722.28      2.7490383e-06  5.1741755e-07  2.2316208e-06  1.1258928e+08
   1712000   1.6484651e-10  107433.72      107278.75      159624.5       2.7490423e-06  5.174636e-07   2.2315787e-06  1.1258786e+08
   1713000   1.649428e-10   107440.64      107284.2       160119.53      2.749047e-06   5.1732457e-07  2.2317224e-06  1.1259158e+08
   1714000   1.6503909e-10  107441.2       107284.66      160154.52      2.7490489e-06  5.1731479e-07  2.2317341e-06  1.1259305e+08
   1715000   1.6513538e-10  107417.02      107261.62      159747.64      2.7490197e-06  5.1778797e-07  2.2312317e-06  1.1258232e+08
   1716000   1.6523167e-10  107430.8       107276.28      159467.04      2.7490368e-06  5.175189e-07   2.2315179e-06  1.1258837e+08
   1717000   1.6532796e-10  107434         107277.63      160089.57      2.7490342e-06  5.1744979e-07  2.2315844e-06  1.1258888e+08
   1718000   1.6542425e-10  107441.79      107285         160238.69      2.7490229e-06  5.1727656e-07  2.2317464e-06  1.1259128e+08
   1719000   1.6552054e-10  107430.51      107274.19      160068.56      2.7490267e-06  5.1751477e-07  2.231512e-06   1.1258691e+08
   1720000   1.6561682e-10  107435.08      107279.65      159777.02      2.7490329e-06  5.1742605e-07  2.2316069e-06  1.1258794e+08
   1721000   1.6571311e-10  107442.16      107289.21      158957.41      2.7490346e-06  5.172805e-07   2.2317541e-06  1.1259101e+08
   1722000   1.658094e-10   107428.66      107277.24      158430.26      2.7490304e-06  5.1755678e-07  2.2314736e-06  1.1258692e+08
   1723000   1.6590569e-10  107434.19      107282.52      158516.34      2.7490232e-06  5.174348e-07   2.2315884e-06  1.1258858e+08
   1724000   1.6600198e-10  107444.15      107293.43      158211.1       2.7490333e-06  5.1723798e-07  2.2317953e-06  1.1259146e+08
   1725000   1.6609827e-10  107448.01      107297.31      158208.36      2.7490264e-06  5.1715093e-07  2.2318754e-06  1.1259158e+08
   1726000   1.6619456e-10  107450.89      107299.96      158288.23      2.7490324e-06  5.1709715e-07  2.2319353e-06  1.1259207e+08
   1727000   1.6629085e-10  107465.99      107317.24      157572.3       2.7490223e-06  5.1677343e-07  2.2322489e-06  1.1259608e+08
   1728000   1.6638713e-10  107448.09      107301.71      156763.75      2.7490066e-06  5.1712941e-07  2.2318772e-06  1.1258723e+08
   1729000   1.6648342e-10  107450.26      107305.38      156261.7       2.7490076e-06  5.1708545e-07  2.2319222e-06  1.1258848e+08
   1730000   1.6657971e-10  107438.04      107293.17      156245.66      2.7490071e-06  5.1733877e-07  2.2316683e-06  1.1258536e+08
   1731000   1.66676e-10    107436.35      107291.78      156145.83      2.7490163e-06  5.1738306e-07  2.2316333e-06  1.1258795e+08
   1732000   1.6677229e-10  107438.52      107294.61      155926.32      2.7490281e-06  5.1734981e-07  2.2316783e-06  1.1258979e+08
   1733000   1.6686858e-10  107438.65      107296.28      155414.35      2.7490416e-06  5.1736053e-07  2.2316811e-06  1.1259011e+08
   1734000   1.6696487e-10  107445.7       107307.62      153985.69      2.7490165e-06  5.17189e-07    2.2318275e-06  1.1259017e+08
   1735000   1.6706116e-10  107443.84      107308.81      152960.63      2.7490018e-06  5.1721307e-07  2.2317888e-06  1.1258758e+08
   1736000   1.6715745e-10  107441.68      107309.28      152081.34      2.7490089e-06  5.1726486e-07  2.231744e-06   1.1258738e+08
   1737000   1.6725373e-10  107441.98      107311.84      151323.2       2.7490104e-06  5.1726024e-07  2.2317501e-06  1.1258604e+08
   1738000   1.6735002e-10  107453.37      107322.89      151451.98      2.7490171e-06  5.1703034e-07  2.2319868e-06  1.1259027e+08
   1739000   1.6744631e-10  107454.99      107325.73      151046.97      2.7490173e-06  5.1699681e-07  2.2320205e-06  1.1259228e+08
   1740000   1.675426e-10   107449.74      107320.1       151165.92      2.7490155e-06  5.1710403e-07  2.2319115e-06  1.1259187e+08
   1741000   1.6763889e-10  107433.21      107303.86      151053.69      2.7490307e-06  5.1746263e-07  2.2315681e-06  1.1258673e+08
   1742000   1.6773518e-10  107451.44      107321.96      151115.4       2.749027e-06   5.1708022e-07  2.2319468e-06  1.1259286e+08
   1743000   1.6783147e-10  107447.21      107318.18      150957.13      2.7490345e-06  5.1717573e-07  2.2318588e-06  1.125911e+08 
   1744000   1.6792776e-10  107461.47      107332.07      151096.73      2.7490371e-06  5.1688205e-07  2.2321551e-06  1.1259594e+08
   1745000   1.6802405e-10  107454.8       107324.65      151341.62      2.7490317e-06  5.1701517e-07  2.2320165e-06  1.1259344e+08
   1746000   1.6812033e-10  107429.26      107299.07      151329.94      2.7490383e-06  5.1755214e-07  2.2314861e-06  1.1258632e+08
   1747000   1.6821662e-10  107440.03      107307.7       152054.76      2.749043e-06   5.1733339e-07  2.2317096e-06  1.1259153e+08
   1748000   1.6831291e-10  107425.36      107293.5       151882.56      2.7490434e-06  5.1763842e-07  2.231405e-06   1.1258698e+08
   1749000   1.684092e-10   107442.56      107313.45      150980.51      2.7490409e-06  5.1727868e-07  2.2317622e-06  1.1259251e+08
   1750000   1.6850549e-10  107435.7       107306.7       150939.03      2.7490346e-06  5.1741473e-07  2.2316198e-06  1.1258922e+08
   1751000   1.6860178e-10  107418.12      107289.56      150775.17      2.7490289e-06  5.1777418e-07  2.2312547e-06  1.1258212e+08
   1752000   1.6869807e-10  107449.82      107321.73      150647.55      2.7490347e-06  5.1712167e-07  2.2319131e-06  1.1259371e+08
   1753000   1.6879436e-10  107446.91      107318.03      150911.88      2.7490175e-06  5.1716479e-07  2.2318527e-06  1.1259157e+08
   1754000   1.6889065e-10  107446.63      107316.42      151354.19      2.7490165e-06  5.1716964e-07  2.2318469e-06  1.125912e+08 
   1755000   1.6898693e-10  107446.62      107315.38      151700.32      2.7490237e-06  5.17177e-07    2.2318467e-06  1.1259002e+08
   1756000   1.6908322e-10  107433.81      107301.12      152170.31      2.7490168e-06  5.1743637e-07  2.2315805e-06  1.1258417e+08
   1757000   1.6917951e-10  107458.32      107325.34      152292.11      2.7490186e-06  5.1692895e-07  2.2320896e-06  1.1259414e+08
   1758000   1.692758e-10   107463.09      107329.72      152430.24      2.7490236e-06  5.168348e-07   2.2321888e-06  1.1259723e+08
   1759000   1.6937209e-10  107446.23      107312.78      152439.05      2.7490274e-06  5.1718878e-07  2.2318386e-06  1.1259072e+08
   1760000   1.6946838e-10  107441.07      107308.11      152268.13      2.7490465e-06  5.1731506e-07  2.2317314e-06  1.1259116e+08
   1761000   1.6956467e-10  107431.04      107296.68      152724.74      2.7490291e-06  5.1750612e-07  2.231523e-06   1.1258786e+08
   1762000   1.6966096e-10  107435.59      107300.59      152943.35      2.749025e-06   5.1740759e-07  2.2316174e-06  1.1259062e+08
   1763000   1.6975724e-10  107428.08      107291.56      153446.85      2.7490252e-06  5.1756362e-07  2.2314616e-06  1.1258689e+08
   1764000   1.6985353e-10  107440.48      107301.95      154129.47      2.7490237e-06  5.1730475e-07  2.231719e-06   1.1258958e+08
   1765000   1.6994982e-10  107441.59      107302.48      154325.37      2.7490292e-06  5.1728712e-07  2.2317421e-06  1.1259121e+08
   1766000   1.7004611e-10  107432.19      107292.55      154493.34      2.7490302e-06  5.1748323e-07  2.231547e-06   1.1258832e+08
   1767000   1.701424e-10   107439.17      107298.47      154852.89      2.749023e-06   5.1733128e-07  2.2316918e-06  1.1259014e+08
   1768000   1.7023869e-10  107435.83      107296.48      154397.29      2.7490203e-06  5.173979e-07   2.2316224e-06  1.125891e+08 
   1769000   1.7033498e-10  107441.02      107303.32      153853.56      2.7490089e-06  5.1727864e-07  2.2317303e-06  1.1258955e+08
   1770000   1.7043127e-10  107417.46      107279.5       153913.71      2.7490219e-06  5.1778108e-07  2.2312408e-06  1.1258191e+08
   1771000   1.7052756e-10  107427.71      107289.21      154108.75      2.7490259e-06  5.1757205e-07  2.2314539e-06  1.1258591e+08
   1772000   1.7062384e-10  107451.59      107312.76      154240.95      2.7490184e-06  5.1706856e-07  2.2319498e-06  1.1259219e+08
   1773000   1.7072013e-10  107451.86      107313.7       154018.98      2.7490202e-06  5.1706465e-07  2.2319555e-06  1.1259104e+08
   1774000   1.7081642e-10  107457.09      107320.21      153595.28      2.7490076e-06  5.1694351e-07  2.2320641e-06  1.1259215e+08
   1775000   1.7091271e-10  107441.62      107304.63      153617.58      2.7490036e-06  5.1726081e-07  2.2317428e-06  1.1258582e+08
   1776000   1.71009e-10    107456.53      107319.13      153768.29      2.7490038e-06  5.1695146e-07  2.2320524e-06  1.125914e+08 
   1777000   1.7110529e-10  107451.36      107315.93      153103.98      2.7490101e-06  5.1706504e-07  2.231945e-06   1.1259084e+08
   1778000   1.7120158e-10  107446.82      107309.78      153637.32      2.7490141e-06  5.171634e-07   2.2318507e-06  1.1259018e+08
   1779000   1.7129787e-10  107451.54      107316.42      153001.4       2.7490223e-06  5.1707355e-07  2.2319488e-06  1.1259365e+08
   1780000   1.7139416e-10  107437.25      107303.16      152642.15      2.7490291e-06  5.1737723e-07  2.2316519e-06  1.1258938e+08
   1781000   1.7149044e-10  107429.31      107295.25      152622.99      2.7490259e-06  5.1753889e-07  2.231487e-06   1.1258784e+08
   1782000   1.7158673e-10  107428.67      107295.61      152289.94      2.7490217e-06  5.175478e-07   2.2314739e-06  1.1258688e+08
   1783000   1.7168302e-10  107445.56      107313.04      152123.5       2.7490202e-06  5.1719565e-07  2.2318245e-06  1.1259249e+08
   1784000   1.7177931e-10  107429.58      107297.17      152071.65      2.7490238e-06  5.1753112e-07  2.2314926e-06  1.1258677e+08
   1785000   1.718756e-10   107435.54      107302.38      152330.26      2.7490123e-06  5.1739584e-07  2.2316165e-06  1.1258714e+08
   1786000   1.7197189e-10  107437.05      107303.37      152504.94      2.74901e-06    5.1736206e-07  2.2316479e-06  1.1258473e+08
   1787000   1.7206818e-10  107443.47      107311.64      151892.66      2.7490129e-06  5.1723178e-07  2.2317811e-06  1.1258683e+08
   1788000   1.7216447e-10  107449.77      107320.47      151053.87      2.7490006e-06  5.1708844e-07  2.2319121e-06  1.1258885e+08
   1789000   1.7226075e-10  107438.03      107310.62      150408.19      2.7490045e-06  5.1733638e-07  2.2316682e-06  1.1258576e+08
   1790000   1.7235704e-10  107424.34      107299.79      149437.53      2.7490081e-06  5.1762436e-07  2.2313838e-06  1.1258168e+08
   1791000   1.7245333e-10  107437.54      107312.5       149614.57      2.7489957e-06  5.1733774e-07  2.2316579e-06  1.1258531e+08
   1792000   1.7254962e-10  107452.68      107329.77      148919.81      2.7490087e-06  5.1703614e-07  2.2319726e-06  1.1259125e+08
   1793000   1.7264591e-10  107443.12      107321.44      148498.37      2.7490086e-06  5.1723463e-07  2.231774e-06   1.1258773e+08
   1794000   1.727422e-10   107428.73      107308.72      147925.43      2.7490137e-06  5.1753866e-07  2.231475e-06   1.1258371e+08
   1795000   1.7283849e-10  107439.98      107320.5       147759.78      2.7490249e-06  5.1731616e-07  2.2317088e-06  1.1258873e+08
   1796000   1.7293478e-10  107441.79      107323.09      147498.73      2.7490356e-06  5.1728929e-07  2.2317463e-06  1.1259089e+08
   1797000   1.7303107e-10  107438.46      107319.98      147422.49      2.7490407e-06  5.1736364e-07  2.2316771e-06  1.1259106e+08
   1798000   1.7312735e-10  107430.49      107311.55      147567.06      2.7490433e-06  5.1753181e-07  2.2315115e-06  1.1258908e+08
   1799000   1.7322364e-10  107454.63      107335.56      147635.09      2.74904e-06    5.1702704e-07  2.232013e-06   1.1259729e+08
   1800000   1.7331993e-10  107438.91      107319.45      147751.69      2.7490298e-06  5.1734334e-07  2.2316864e-06  1.1259028e+08
   1801000   1.7341622e-10  107440.68      107322.16      147439.35      2.7490303e-06  5.1730711e-07  2.2317232e-06  1.1259022e+08
   1802000   1.7351251e-10  107455.89      107336.63      147701.61      2.7490186e-06  5.1697935e-07  2.2320392e-06  1.1259318e+08
   1803000   1.736088e-10   107459.73      107341.07      147503.35      2.7490244e-06  5.1690549e-07  2.2321189e-06  1.1259407e+08
   1804000   1.7370509e-10  107444.39      107325.18      147671.48      2.7490233e-06  5.1722305e-07  2.2318002e-06  1.1258861e+08
   1805000   1.7380138e-10  107426.47      107307.42      147602.94      2.7490165e-06  5.1758838e-07  2.2314281e-06  1.1258314e+08
   1806000   1.7389767e-10  107415.56      107297.24      147348.05      2.7490224e-06  5.1782091e-07  2.2312015e-06  1.1258095e+08
   1807000   1.7399395e-10  107429.47      107312.66      146855.75      2.7490239e-06  5.1753363e-07  2.2314903e-06  1.1258667e+08
   1808000   1.7409024e-10  107433.67      107318.08      146448.66      2.7490368e-06  5.1745924e-07  2.2315775e-06  1.1258896e+08
   1809000   1.7418653e-10  107437.2       107321.67      146435.13      2.7490438e-06  5.173928e-07   2.231651e-06   1.1259067e+08
   1810000   1.7428282e-10  107432.15      107317.03      146295.31      2.7490233e-06  5.1747717e-07  2.2315461e-06  1.1258588e+08
   1811000   1.7437911e-10  107440.1       107323.59      146764.67      2.7490195e-06  5.1730836e-07  2.2317111e-06  1.1258744e+08
   1812000   1.744754e-10   107439.59      107321.7       147225.47      2.7490113e-06  5.1731079e-07  2.2317005e-06  1.1258641e+08
   1813000   1.7457169e-10  107428.79      107311.49      147016.84      2.7490214e-06  5.1754522e-07  2.2314762e-06  1.1258367e+08
   1814000   1.7466798e-10  107449.29      107334.01      146363.11      2.7490255e-06  5.1712347e-07  2.231902e-06   1.1259258e+08
   1815000   1.7476426e-10  107444.8       107330.27      146107.36      2.7490251e-06  5.1721633e-07  2.2318088e-06  1.1259104e+08
   1816000   1.7486055e-10  107455.09      107340.59      146105.9       2.7490214e-06  5.1699886e-07  2.2320225e-06  1.1259364e+08
   1817000   1.7495684e-10  107455.35      107341.35      145939.69      2.7490017e-06  5.1697382e-07  2.2320279e-06  1.1259123e+08
   1818000   1.7505313e-10  107435.2       107319.19      146591.11      2.7490125e-06  5.1740321e-07  2.2316093e-06  1.1258412e+08
   1819000   1.7514942e-10  107443.83      107327.13      146834.88      2.7490174e-06  5.172287e-07   2.2317887e-06  1.1258809e+08
   1820000   1.7524571e-10  107459         107341.38      147156.52      2.7490105e-06  5.1690663e-07  2.2321038e-06  1.1259484e+08
   1821000   1.75342e-10    107433.69      107315.98      147161.8       2.7490068e-06  5.1742878e-07  2.231578e-06   1.1258621e+08
   1822000   1.7543829e-10  107432.96      107317.02      146569.3       2.7490055e-06  5.1744262e-07  2.2315629e-06  1.1258495e+08
   1823000   1.7553458e-10  107439.92      107323.42      146762.37      2.749011e-06   5.1730357e-07  2.2317074e-06  1.1258704e+08
   1824000   1.7563086e-10  107429.8       107314.88      146222.57      2.7489976e-06  5.1750039e-07  2.2314972e-06  1.1258182e+08
   1825000   1.7572715e-10  107433.26      107319.31      145902.43      2.7490088e-06  5.174396e-07   2.2315692e-06  1.1258587e+08
   1826000   1.7582344e-10  107418.25      107303.1       146291.38      2.7490037e-06  5.1774627e-07  2.2312574e-06  1.1258142e+08
   1827000   1.7591973e-10  107433.76      107318.25      146422.03      2.7490226e-06  5.1744316e-07  2.2315794e-06  1.1258976e+08
   1828000   1.7601602e-10  107441.27      107324.71      146785.17      2.7490327e-06  5.1729717e-07  2.2317355e-06  1.1259247e+08
   1829000   1.7611231e-10  107444.41      107325.29      147642.53      2.749032e-06   5.1723134e-07  2.2318007e-06  1.1259142e+08
   1830000   1.762086e-10   107453.6       107334.78      147553.49      2.7490185e-06  5.1702679e-07  2.2319917e-06  1.1259273e+08
   1831000   1.7630489e-10  107445.93      107328.17      147192.11      2.7490329e-06  5.172005e-07   2.2318324e-06  1.1259023e+08
   1832000   1.7640118e-10  107446.55      107328.14      147407.72      2.749033e-06   5.1718797e-07  2.2318451e-06  1.1259085e+08
   1833000   1.7649746e-10  107455.75      107337.06      147511.5       2.7490306e-06  5.1699429e-07  2.2320363e-06  1.125954e+08 
   1834000   1.7659375e-10  107439.15      107318.72      148074.22      2.7490144e-06  5.1732307e-07  2.2316914e-06  1.1258803e+08
   1835000   1.7669004e-10  107434.69      107313.41      148353.64      2.749021e-06   5.1742226e-07  2.2315987e-06  1.1258683e+08
   1836000   1.7678633e-10  107433.86      107311.13      148839.79      2.7490224e-06  5.1744083e-07  2.2315815e-06  1.1258757e+08
   1837000   1.7688262e-10  107430.47      107308.13      148704.96      2.7490307e-06  5.1751962e-07  2.2315111e-06  1.1258788e+08
   1838000   1.7697891e-10  107441.02      107317.99      148948         2.7490263e-06  5.1729598e-07  2.2317303e-06  1.1259133e+08
   1839000   1.770752e-10   107430.77      107307.73      148939.2       2.7490299e-06  5.1751258e-07  2.2315174e-06  1.1258757e+08
   1840000   1.7717149e-10  107431.26      107308.96      148694.33      2.7490313e-06  5.1750371e-07  2.2315276e-06  1.1258753e+08
   1841000   1.7726778e-10  107434.42      107312.88      148441.19      2.749023e-06   5.1742979e-07  2.2315932e-06  1.125875e+08 
   1842000   1.7736406e-10  107441.41      107320         148407.35      2.7490217e-06  5.1728326e-07  2.2317384e-06  1.1259062e+08
   1843000   1.7746035e-10  107435.39      107313.7       148493.3       2.7490257e-06  5.1741235e-07  2.2316134e-06  1.1258932e+08
   1844000   1.7755664e-10  107436.38      107315.31      148288.02      2.7490316e-06  5.1739764e-07  2.2316339e-06  1.1259096e+08
   1845000   1.7765293e-10  107436.88      107317.73      147646.73      2.749034e-06   5.1738967e-07  2.2316443e-06  1.125916e+08 
   1846000   1.7774922e-10  107425.88      107306.77      147623.2       2.7490246e-06  5.1760865e-07  2.2314159e-06  1.1258398e+08
   1847000   1.7784551e-10  107445.34      107327.33      147271.49      2.7490236e-06  5.1720352e-07  2.2318201e-06  1.1258763e+08
   1848000   1.779418e-10   107454.21      107336.96      147026.44      2.7489904e-06  5.1698617e-07  2.2320042e-06  1.1258824e+08
   1849000   1.7803809e-10  107435.7       107317.93      147183.15      2.7489989e-06  5.1737912e-07  2.2316198e-06  1.1258311e+08
   1850000   1.7813437e-10  107451.21      107333.18      147282.79      2.7490035e-06  5.1706159e-07  2.2319419e-06  1.1258966e+08
   1851000   1.7823066e-10  107454.21      107334.79      147750.66      2.7489922e-06  5.1698801e-07  2.2320042e-06  1.1258934e+08
   1852000   1.7832695e-10  107454.35      107332.66      148509.9       2.7490059e-06  5.169988e-07   2.2320071e-06  1.125909e+08 
   1853000   1.7842324e-10  107444.67      107320.98      149171.31      2.7490221e-06  5.1721588e-07  2.2318062e-06  1.1258912e+08
   1854000   1.7851953e-10  107449.97      107323.98      149946.14      2.7490094e-06  5.1709315e-07  2.2319162e-06  1.1259094e+08
   1855000   1.7861582e-10  107445.2       107317.71      150440.47      2.7490263e-06  5.1720923e-07  2.2318171e-06  1.1259239e+08
   1856000   1.7871211e-10  107427.15      107299.61      150442.79      2.7490359e-06  5.1759368e-07  2.2314422e-06  1.1258773e+08
   1857000   1.788084e-10   107421.09      107293.39      150489.42      2.7490225e-06  5.1770611e-07  2.2313164e-06  1.1258376e+08
   1858000   1.7890469e-10  107437.31      107310.84      150092.83      2.7490277e-06  5.173745e-07   2.2316532e-06  1.1258856e+08
   1859000   1.7900097e-10  107422.52      107295.46      150276.44      2.7490389e-06  5.1769288e-07  2.231346e-06   1.125838e+08 
   1860000   1.7909726e-10  107431.61      107303.97      150476.44      2.7490358e-06  5.1750105e-07  2.2315347e-06  1.1258776e+08
   1861000   1.7919355e-10  107438.74      107309.76      150935.77      2.749038e-06   5.1735502e-07  2.231683e-06   1.1258998e+08
   1862000   1.7928984e-10  107447.02      107319.2       150557.61      2.7490342e-06  5.1717916e-07  2.231855e-06   1.1259197e+08
   1863000   1.7938613e-10  107434.34      107308.77      149790.89      2.7490098e-06  5.1741818e-07  2.2315916e-06  1.1258609e+08
   1864000   1.7948242e-10  107433.84      107308.55      149695.56      2.7490068e-06  5.174256e-07   2.2315812e-06  1.1258522e+08
   1865000   1.7957871e-10  107436.44      107310.62      149876.45      2.7490209e-06  5.1738571e-07  2.2316352e-06  1.1258622e+08
   1866000   1.79675e-10    107439.63      107314.1       149781.24      2.7490296e-06  5.1732819e-07  2.2317014e-06  1.125871e+08 
   1867000   1.7977129e-10  107456.58      107330.98      149824.48      2.7490166e-06  5.1696308e-07  2.2320535e-06  1.1259361e+08
   1868000   1.7986757e-10  107438         107312.54      149756.62      2.7490214e-06  5.1735392e-07  2.2316675e-06  1.1258895e+08
   1869000   1.7996386e-10  107424.56      107299.14      149730         2.7490385e-06  5.1765006e-07  2.2313885e-06  1.1258534e+08
   1870000   1.8006015e-10  107429.47      107303.5       149918.1       2.7490554e-06  5.17565e-07    2.2314904e-06  1.1258873e+08
   1871000   1.8015644e-10  107440.89      107315.44      149759.54      2.7490438e-06  5.173161e-07   2.2317277e-06  1.1259191e+08
   1872000   1.8025273e-10  107438.38      107313.79      149467.59      2.7490339e-06  5.1735838e-07  2.2316755e-06  1.1258989e+08
   1873000   1.8034902e-10  107439.53      107317.17      148721.51      2.7490165e-06  5.1731708e-07  2.2316994e-06  1.1258944e+08
   1874000   1.8044531e-10  107436.89      107314.87      148604.85      2.7490177e-06  5.1737324e-07  2.2316445e-06  1.1258785e+08
   1875000   1.805416e-10   107424.97      107303.19      148515.15      2.7490155e-06  5.1761853e-07  2.231397e-06   1.1258282e+08
   1876000   1.8063788e-10  107430.68      107308.38      148691.63      2.7490146e-06  5.1749915e-07  2.2315155e-06  1.1258551e+08
   1877000   1.8073417e-10  107433.94      107313.46      148089.16      2.7490134e-06  5.1743008e-07  2.2315833e-06  1.1258626e+08
   1878000   1.8083046e-10  107427.8       107307.23      148110.31      2.7490248e-06  5.1756905e-07  2.2314557e-06  1.1258529e+08
   1879000   1.8092675e-10  107444.28      107324.62      147822.12      2.7490202e-06  5.1722229e-07  2.2317979e-06  1.1259113e+08
   1880000   1.8102304e-10  107443.18      107324.17      147603.7       2.7490223e-06  5.1724727e-07  2.2317751e-06  1.125897e+08 
   1881000   1.8111933e-10  107457.95      107339.19      147536.26      2.7490173e-06  5.1693534e-07  2.2320819e-06  1.1259318e+08
   1882000   1.8121562e-10  107439.05      107320.52      147442.24      2.7490087e-06  5.1731927e-07  2.2316894e-06  1.1258465e+08
   1883000   1.8131191e-10  107449.43      107332.57      146892.62      2.7490138e-06  5.1710871e-07  2.231905e-06   1.1258992e+08
   1884000   1.814082e-10   107444.05      107328.15      146565.53      2.7490116e-06  5.1721838e-07  2.2317932e-06  1.1259065e+08
   1885000   1.8150448e-10  107437.98      107322.41      146450.88      2.749016e-06   5.1734874e-07  2.2316672e-06  1.1258946e+08
   1886000   1.8160077e-10  107441.65      107327.09      146116.84      2.7490142e-06  5.1727075e-07  2.2317434e-06  1.1258962e+08
   1887000   1.8169706e-10  107444.76      107331.74      145603.07      2.749017e-06   5.172091e-07   2.2318079e-06  1.1259046e+08
   1888000   1.8179335e-10  107445.39      107332.8       145462.12      2.7490211e-06  5.1719996e-07  2.2318212e-06  1.1259073e+08
   1889000   1.8188964e-10  107432.49      107320.67      145190.58      2.7490098e-06  5.1745661e-07  2.2315532e-06  1.1258185e+08
   1890000   1.8198593e-10  107453.79      107342.08      145175.13      2.748996e-06   5.1700034e-07  2.2319956e-06  1.1258725e+08
   1891000   1.8208222e-10  107465.36      107353.82      145127         2.7490022e-06  5.1676638e-07  2.2322358e-06  1.1259214e+08
   1892000   1.8217851e-10  107462.81      107351.33      145107.01      2.7490115e-06  5.1682858e-07  2.2321829e-06  1.1259314e+08
   1893000   1.822748e-10   107462.56      107351.04      145119.93      2.7490227e-06  5.1684502e-07  2.2321777e-06  1.1259567e+08
   1894000   1.8237108e-10  107460.9       107348.66      145359.63      2.7490235e-06  5.1688024e-07  2.2321433e-06  1.1259431e+08
   1895000   1.8246737e-10  107451.02      107338.16      145556.1       2.7490178e-06  5.1707976e-07  2.231938e-06   1.1258908e+08
   1896000   1.8256366e-10  107454.78      107341.5       145698.34      2.7490043e-06  5.1698817e-07  2.2320161e-06  1.1258972e+08
   1897000   1.8265995e-10  107455.38      107341.23      145989.86      2.749001e-06   5.169724e-07   2.2320286e-06  1.1258939e+08
   1898000   1.8275624e-10  107441.2       107327.67      145769.49      2.7490237e-06  5.1728973e-07  2.231734e-06   1.1258609e+08
   1899000   1.8285253e-10  107437.5       107324.72      145515.63      2.7490283e-06  5.1737111e-07  2.2316572e-06  1.1258639e+08
   1900000   1.8294882e-10  107438.91      107327.53      145048.93      2.7490306e-06  5.1734417e-07  2.2316864e-06  1.1258878e+08
   1901000   1.8304511e-10  107429.98      107316.48      145748.02      2.7490313e-06  5.1753041e-07  2.2315009e-06  1.1258662e+08
   1902000   1.8314139e-10  107433.95      107320.02      145898.78      2.7490323e-06  5.1744883e-07  2.2315835e-06  1.1258792e+08
   1903000   1.8323768e-10  107444.55      107332.16      145389.77      2.749016e-06   5.1721247e-07  2.2318036e-06  1.125886e+08 
   1904000   1.8333397e-10  107444.23      107331.4       145538.57      2.7490173e-06  5.1722037e-07  2.2317969e-06  1.1258833e+08
   1905000   1.8343026e-10  107447.48      107336.7       144857.4       2.7490117e-06  5.1714714e-07  2.2318645e-06  1.125894e+08 
   1906000   1.8352655e-10  107460.97      107350.3       144833.18      2.7490246e-06  5.1687986e-07  2.2321447e-06  1.1259573e+08
   1907000   1.8362284e-10  107451.74      107341.75      144596.25      2.7490232e-06  5.1707021e-07  2.231953e-06   1.1259347e+08
   1908000   1.8371913e-10  107430.16      107320.88      144340.18      2.7490228e-06  5.1751804e-07  2.2315048e-06  1.1258604e+08
   1909000   1.8381542e-10  107422.56      107314.02      144080.86      2.7490245e-06  5.1767775e-07  2.2313468e-06  1.1258218e+08
   1910000   1.8391171e-10  107439.8       107333.61      143314.23      2.7490208e-06  5.1731577e-07  2.231705e-06   1.1258758e+08
   1911000   1.8400799e-10  107419         107312.62      143353.25      2.7490268e-06  5.1775399e-07  2.2312728e-06  1.1258068e+08
   1912000   1.8410428e-10  107439.53      107334.14      143047.07      2.7490335e-06  5.1733412e-07  2.2316994e-06  1.1258961e+08
   1913000   1.8420057e-10  107446.11      107340.72      143053.82      2.7490376e-06  5.1720164e-07  2.231836e-06   1.1259242e+08
   1914000   1.8429686e-10  107426.64      107320.12      143410.82      2.7490246e-06  5.1759313e-07  2.2314315e-06  1.125863e+08 
   1915000   1.8439315e-10  107432.86      107325.86      143578.6       2.7490269e-06  5.1746605e-07  2.2315608e-06  1.1258933e+08
   1916000   1.8448944e-10  107432.47      107324.29      143972.33      2.7490297e-06  5.1747689e-07  2.2315528e-06  1.1258777e+08
   1917000   1.8458573e-10  107426.91      107319.4       143739.82      2.7490493e-06  5.1761217e-07  2.2314371e-06  1.1258766e+08
   1918000   1.8468202e-10  107437.18      107330.87      143351.18      2.7490442e-06  5.1739363e-07  2.2316506e-06  1.1259271e+08
   1919000   1.8477831e-10  107414.96      107310.48      142717.35      2.7490361e-06  5.1784706e-07  2.231189e-06   1.1258548e+08
   1920000   1.8487459e-10  107427.78      107324.75      142244.98      2.7490295e-06  5.1757421e-07  2.2314553e-06  1.1258905e+08
   1921000   1.8497088e-10  107407.92      107305.76      141934.03      2.7490172e-06  5.1797451e-07  2.2310427e-06  1.125802e+08 
   1922000   1.8506717e-10  107422.3       107320.51      141822.14      2.7490276e-06  5.1768626e-07  2.2313414e-06  1.1258518e+08
   1923000   1.8516346e-10  107437.4       107336.32      141602.86      2.749029e-06   5.173739e-07   2.2316551e-06  1.1258843e+08
   1924000   1.8525975e-10  107450.9       107348.53      142046.51      2.7490216e-06  5.1708616e-07  2.2319354e-06  1.1259319e+08
   1925000   1.8535604e-10  107439.63      107337.44      141976.29      2.7490199e-06  5.1731838e-07  2.2317015e-06  1.1259002e+08
   1926000   1.8545233e-10  107437.37      107335.53      141858.51      2.7490338e-06  5.1737921e-07  2.2316546e-06  1.1258974e+08
   1927000   1.8554862e-10  107451.3       107348.87      142069.55      2.7490307e-06  5.1708684e-07  2.2319439e-06  1.1259408e+08
   1928000   1.8564491e-10  107427.05      107322.74      142671.83      2.7490178e-06  5.1757765e-07  2.2314401e-06  1.1258316e+08
   1929000   1.8574119e-10  107444.95      107338.66      143353.56      2.7490122e-06  5.1720021e-07  2.231812e-06   1.1258937e+08
   1930000   1.8583748e-10  107432.59      107324.62      143904.54      2.7490069e-06  5.1745162e-07  2.2315552e-06  1.1258326e+08
   1931000   1.8593377e-10  107440.77      107332.52      144003.79      2.748999e-06   5.1727381e-07  2.2317252e-06  1.1258473e+08
   1932000   1.8603006e-10  107464.92      107355.66      144366.76      2.7490043e-06  5.1677747e-07  2.2322268e-06  1.1259316e+08
   1933000   1.8612635e-10  107449.81      107340.5       144368.87      2.7490121e-06  5.1709917e-07  2.2319129e-06  1.1258889e+08
   1934000   1.8622264e-10  107448.18      107338.82      144381.71      2.7490201e-06  5.171412e-07   2.2318789e-06  1.1259013e+08
   1935000   1.8631893e-10  107449.69      107341.39      144031.87      2.749012e-06   5.1710153e-07  2.2319104e-06  1.1259133e+08
   1936000   1.8641522e-10  107443.72      107335.91      143858.56      2.7490169e-06  5.1723054e-07  2.2317863e-06  1.1259018e+08
   1937000   1.865115e-10   107444.19      107336.61      143782.45      2.7490073e-06  5.1721119e-07  2.2317961e-06  1.125887e+08 
   1938000   1.8660779e-10  107444.06      107334.61      144406.56      2.7490269e-06  5.172336e-07   2.2317933e-06  1.125889e+08 
   1939000   1.8670408e-10  107437.86      107326.72      144968.84      2.7490449e-06  5.1738015e-07  2.2316647e-06  1.1258829e+08
   1940000   1.8680037e-10  107440.72      107328.32      145391.23      2.7490297e-06  5.1730577e-07  2.231724e-06   1.1258843e+08
   1941000   1.8689666e-10  107449.75      107337.82      145245.62      2.749023e-06   5.1711128e-07  2.2319117e-06  1.1259219e+08
   1942000   1.8699295e-10  107441.5       107329.37      145302.09      2.7490377e-06  5.1729754e-07  2.2317402e-06  1.1259123e+08
   1943000   1.8708924e-10  107439.37      107326.49      145551.82      2.7490251e-06  5.1732899e-07  2.2316961e-06  1.1258885e+08
   1944000   1.8718553e-10  107436.36      107322.8       145776.53      2.7490144e-06  5.1738089e-07  2.2316335e-06  1.1258666e+08
   1945000   1.8728182e-10  107435.69      107322.63      145608.81      2.74901e-06    5.1739038e-07  2.2316196e-06  1.1258489e+08
   1946000   1.873781e-10   107431.04      107317.74      145683.3       2.7490002e-06  5.1747716e-07  2.2315231e-06  1.125822e+08 
   1947000   1.8747439e-10  107439.48      107326.53      145575.27      2.7489974e-06  5.1729904e-07  2.2316983e-06  1.125845e+08 
   1948000   1.8757068e-10  107453.2       107340.21      145598.99      2.7489943e-06  5.1701108e-07  2.2319832e-06  1.1258968e+08
   1949000   1.8766697e-10  107438.06      107325.91      145308.13      2.7490042e-06  5.1733529e-07  2.2316689e-06  1.125866e+08 
   1950000   1.8776326e-10  107447.96      107334.8       145655.41      2.7490174e-06  5.1714284e-07  2.2318745e-06  1.1259277e+08
   1951000   1.8785955e-10  107436.21      107322.74      145743.99      2.7490453e-06  5.1741497e-07  2.2316303e-06  1.1259216e+08
   1952000   1.8795584e-10  107442.51      107329.97      145443.2       2.7490404e-06  5.1727904e-07  2.2317613e-06  1.1259583e+08
   1953000   1.8805213e-10  107408.95      107296.65      145326.37      2.7490363e-06  5.1797225e-07  2.2310641e-06  1.1258279e+08
   1954000   1.8814842e-10  107442.21      107330.24      145249.05      2.7490469e-06  5.1729186e-07  2.231755e-06   1.1259509e+08
   1955000   1.882447e-10   107438.15      107324.43      145828.42      2.7490419e-06  5.1737133e-07  2.2316706e-06  1.1259226e+08
   1956000   1.8834099e-10  107431.56      107317.54      145925.08      2.7490353e-06  5.1750151e-07  2.2315338e-06  1.125888e+08 
   1957000   1.8843728e-10  107429.59      107314.92      146140.52      2.74904e-06    5.175471e-07   2.2314929e-06  1.1258863e+08
   1958000   1.8853357e-10  107421.73      107306.65      146270.32      2.7490309e-06  5.1770123e-07  2.2313296e-06  1.1258439e+08
   1959000   1.8862986e-10  107438.02      107323.31      146162.27      2.7490368e-06  5.1736876e-07  2.231668e-06   1.1258874e+08
   1960000   1.8872615e-10  107441.91      107326.05      146550.18      2.7490218e-06  5.1727301e-07  2.2317488e-06  1.1258799e+08
   1961000   1.8882244e-10  107448.09      107331.55      146784.98      2.7489984e-06  5.1712115e-07  2.2318772e-06  1.1258807e+08
   1962000   1.8891873e-10  107456.64      107340.84      146543.22      2.7490023e-06  5.1694761e-07  2.2320547e-06  1.125914e+08 
   1963000   1.8901501e-10  107440.83      107325.45      146386.81      2.7490092e-06  5.1728299e-07  2.2317262e-06  1.1258582e+08
   1964000   1.891113e-10   107440.49      107324.42      146618.37      2.7490202e-06  5.1730101e-07  2.2317192e-06  1.1258782e+08
   1965000   1.8920759e-10  107445.78      107330.76      146273.7       2.7490372e-06  5.1720795e-07  2.2318292e-06  1.1259166e+08
   1966000   1.8930388e-10  107439.21      107325.43      145851.02      2.7490396e-06  5.1734689e-07  2.2316927e-06  1.1259029e+08
   1967000   1.8940017e-10  107446.21      107333.55      145484.2       2.7490529e-06  5.172148e-07   2.2318381e-06  1.1259473e+08
   1968000   1.8949646e-10  107439.78      107327.24      145437.17      2.7490366e-06  5.1733205e-07  2.2317045e-06  1.1259128e+08
   1969000   1.8959275e-10  107428.52      107315.98      145428.39      2.7490309e-06  5.1756019e-07  2.2314707e-06  1.12586e+08  
   1970000   1.8968904e-10  107436.51      107321.35      146310.16      2.7490139e-06  5.1737728e-07  2.2316366e-06  1.1258926e+08
   1971000   1.8978533e-10  107450.03      107333.36      146827.21      2.7490307e-06  5.171133e-07   2.2319174e-06  1.1259547e+08
   1972000   1.8988161e-10  107439.42      107323.57      146542.78      2.7490156e-06  5.1731863e-07  2.231697e-06   1.125878e+08 
   1973000   1.899779e-10   107450.97      107335.25      146510.5       2.7490174e-06  5.1708049e-07  2.2319369e-06  1.1259149e+08
   1974000   1.9007419e-10  107438.81      107323.61      146326.11      2.749027e-06   5.1734265e-07  2.2316844e-06  1.1258899e+08
   1975000   1.9017048e-10  107421.93      107306.87      146262.42      2.7490193e-06  5.1768543e-07  2.2313338e-06  1.1258197e+08
   1976000   1.9026677e-10  107434.35      107319.44      146227.55      2.7490302e-06  5.1743837e-07  2.2315918e-06  1.1258727e+08
   1977000   1.9036306e-10  107446.64      107331.18      146420.04      2.7490227e-06  5.1717572e-07  2.2318469e-06  1.1259099e+08
   1978000   1.9045935e-10  107434.45      107316.96      147086.99      2.7490256e-06  5.1743177e-07  2.2315938e-06  1.1258556e+08
   1979000   1.9055564e-10  107440.64      107321.77      147554.6       2.7490377e-06  5.1731533e-07  2.2317224e-06  1.1258826e+08
   1980000   1.9065193e-10  107445.11      107326.22      147565.85      2.7490296e-06  5.1721439e-07  2.2318152e-06  1.1259046e+08
   1981000   1.9074821e-10  107442.53      107321.88      148152.51      2.7490237e-06  5.1726209e-07  2.2317616e-06  1.1259122e+08
   1982000   1.908445e-10   107436.05      107315.16      148225.91      2.7490288e-06  5.1740163e-07  2.2316271e-06  1.1259202e+08
   1983000   1.9094079e-10  107413.81      107292.91      148207.82      2.7490437e-06  5.1787872e-07  2.231165e-06   1.125842e+08 
   1984000   1.9103708e-10  107431.85      107311.13      148164.84      2.7490559e-06  5.1751622e-07  2.2315397e-06  1.1259031e+08
   1985000   1.9113337e-10  107447.61      107326.28      148383.72      2.7490472e-06  5.1718005e-07  2.2318671e-06  1.1259483e+08
   1986000   1.9122966e-10  107439.05      107317.21      148548.66      2.7490419e-06  5.1735253e-07  2.2316894e-06  1.1258924e+08
   1987000   1.9132595e-10  107456.6       107334.42      148680.31      2.7490359e-06  5.1698199e-07  2.2320539e-06  1.125943e+08 
   1988000   1.9142224e-10  107448.5       107324.36      149328.31      2.7490262e-06  5.1714047e-07  2.2318857e-06  1.1259066e+08
   1989000   1.9151853e-10  107439.36      107316.27      148966.08      2.749013e-06   5.1731723e-07  2.2316958e-06  1.1258687e+08
   1990000   1.9161481e-10  107434.14      107310.75      149059.7       2.7490037e-06  5.1741635e-07  2.2315873e-06  1.1258354e+08
   1991000   1.917111e-10   107442.24      107318.42      149214.3       2.7489997e-06  5.1724407e-07  2.2317557e-06  1.1258577e+08
   1992000   1.9180739e-10  107422.32      107299.83      148749.53      2.7489963e-06  5.1765439e-07  2.2313419e-06  1.1257799e+08
   1993000   1.9190368e-10  107436.68      107314.16      148773.74      2.7489791e-06  5.1733889e-07  2.2316402e-06  1.1258374e+08
   1994000   1.9199997e-10  107433.91      107311.24      148817.51      2.7489968e-06  5.1741429e-07  2.2315825e-06  1.1258416e+08
   1995000   1.9209626e-10  107438.92      107316.21      148838.89      2.7489989e-06  5.1731217e-07  2.2316867e-06  1.1258553e+08
   1996000   1.9219255e-10  107454.74      107332.87      148571.6       2.7490107e-06  5.1699546e-07  2.2320152e-06  1.1259074e+08
   1997000   1.9228884e-10  107445.52      107321.6       149249.1       2.7490189e-06  5.1719508e-07  2.2318238e-06  1.1258748e+08
   1998000   1.9238512e-10  107454.71      107329.91      149553.29      2.7490169e-06  5.1700231e-07  2.2320146e-06  1.1259074e+08
   1999000   1.9248141e-10  107451.84      107326.37      149774.66      2.749015e-06   5.1705995e-07  2.2319551e-06  1.1259062e+08
   2000000   1.925777e-10   107439.32      107315.38      149250.3       2.7490097e-06  5.1731471e-07  2.231695e-06   1.1258714e+08
   2001000   1.9267399e-10  107440.41      107316.88      149116         2.7490201e-06  5.1730243e-07  2.2317177e-06  1.1258843e+08
   2002000   1.9277028e-10  107441.54      107319.19      148719.23      2.7490196e-06  5.1727855e-07  2.231741e-06   1.125881e+08 
   2003000   1.9286657e-10  107421.67      107300.38      148345.8       2.7490217e-06  5.1769343e-07  2.2313283e-06  1.125817e+08 
   2004000   1.9296286e-10  107423.36      107302.7       148136.64      2.7490267e-06  5.1766321e-07  2.2313635e-06  1.1258522e+08
   2005000   1.9305915e-10  107423.5       107302.02      148413.17      2.7490195e-06  5.1765301e-07  2.2313665e-06  1.1258705e+08
   2006000   1.9315544e-10  107415.19      107293.59      148441.1       2.7490232e-06  5.1782946e-07  2.2311937e-06  1.1258443e+08
   2007000   1.9325172e-10  107409.84      107286.63      148977.89      2.7490223e-06  5.1793965e-07  2.2310827e-06  1.1257992e+08
   2008000   1.9334801e-10  107431.47      107307.53      149242.3       2.7490248e-06  5.1749293e-07  2.2315319e-06  1.1258551e+08
   2009000   1.934443e-10   107452.54      107327.74      149551.13      2.749016e-06   5.1704645e-07  2.2319696e-06  1.1259249e+08
   2010000   1.9354059e-10  107455.72      107329.96      149873.85      2.7490161e-06  5.1698058e-07  2.2320356e-06  1.1259394e+08
   2011000   1.9363688e-10  107453.27      107326.62      150172.83      2.7490048e-06  5.1702002e-07  2.2319848e-06  1.1259115e+08
   2012000   1.9373317e-10  107448.59      107320.75      150563.87      2.7490154e-06  5.1712786e-07  2.2318876e-06  1.1258903e+08
   2013000   1.9382946e-10  107448.68      107320.05      150827.73      2.7490008e-06  5.1711131e-07  2.2318895e-06  1.1258859e+08
   2014000   1.9392575e-10  107437.83      107308.82      150942.73      2.7490089e-06  5.1734495e-07  2.231664e-06   1.125864e+08 
   2015000   1.9402204e-10  107442.37      107313.92      150762.72      2.7490018e-06  5.1724342e-07  2.2317584e-06  1.1258815e+08
   2016000   1.9411832e-10  107440.7       107313.09      150478.39      2.7490241e-06  5.173004e-07   2.2317237e-06  1.125897e+08 
   2017000   1.9421461e-10  107439.07      107311.36      150509.93      2.7490241e-06  5.1733431e-07  2.2316898e-06  1.1258816e+08
   2018000   1.943109e-10   107448.42      107322.06      150070.08      2.7490108e-06  5.1712678e-07  2.231884e-06   1.1259009e+08
   2019000   1.9440719e-10  107439.67      107315.08      149467.68      2.7490338e-06  5.1733152e-07  2.2317023e-06  1.1258851e+08
   2020000   1.9450348e-10  107450.76      107327.36      149078.04      2.749035e-06   5.171025e-07   2.2319325e-06  1.1259358e+08
   2021000   1.9459977e-10  107434.02      107311.84      148658.78      2.7490351e-06  5.1745008e-07  2.231585e-06   1.1258859e+08
   2022000   1.9469606e-10  107442.14      107320.65      148432.99      2.7490366e-06  5.1728312e-07  2.2317535e-06  1.1259137e+08
   2023000   1.9479235e-10  107440.39      107320.81      147793.62      2.749035e-06   5.1731782e-07  2.2317172e-06  1.1258915e+08
   2024000   1.9488863e-10  107448.39      107327.45      148255.41      2.7490202e-06  5.1713685e-07  2.2318833e-06  1.1259104e+08
   2025000   1.9498492e-10  107425.52      107303.41      148621.77      2.7490284e-06  5.1762011e-07  2.2314083e-06  1.125849e+08 
   2026000   1.9508121e-10  107425.31      107304.95      148037.01      2.7490476e-06  5.1764368e-07  2.2314039e-06  1.1258735e+08
   2027000   1.951775e-10   107442.62      107321.84      148198.01      2.7490291e-06  5.1726558e-07  2.2317635e-06  1.125928e+08 
   2028000   1.9527379e-10  107435.62      107314.7       148235.34      2.7490317e-06  5.1741353e-07  2.2316181e-06  1.1258981e+08
   2029000   1.9537008e-10  107441.03      107319.78      148351.28      2.7490242e-06  5.1729381e-07  2.2317304e-06  1.1259113e+08
   2030000   1.9546637e-10  107433.96      107312.52      148409.13      2.7490222e-06  5.1743853e-07  2.2315836e-06  1.125888e+08 
   2031000   1.9556266e-10  107435.79      107314.07      148503.3       2.7490314e-06  5.1740982e-07  2.2316216e-06  1.1258978e+08
   2032000   1.9565895e-10  107436.81      107315.88      148242.76      2.7490209e-06  5.1737803e-07  2.2316429e-06  1.1258828e+08
   2033000   1.9575523e-10  107430.18      107310.78      147723.19      2.7490213e-06  5.1751614e-07  2.2315052e-06  1.1258561e+08
   2034000   1.9585152e-10  107437.1       107318.47      147469.7       2.7490115e-06  5.1736275e-07  2.2316488e-06  1.1258794e+08
   2035000   1.9594781e-10  107428.42      107312.58      146529.71      2.7490286e-06  5.175601e-07   2.2314685e-06  1.1258744e+08
   2036000   1.960441e-10   107433.68      107319.4       146016.64      2.7490583e-06  5.1748037e-07  2.2315779e-06  1.1259348e+08
   2037000   1.9614039e-10  107419.45      107305.43      145911.65      2.7490435e-06  5.1776124e-07  2.2312822e-06  1.125869e+08 
   2038000   1.9623668e-10  107436.9       107323.3       145789.76      2.749034e-06   5.1738932e-07  2.2316447e-06  1.125901e+08 
   2039000   1.9633297e-10  107442.95      107331.23      145166.15      2.7490331e-06  5.1726265e-07  2.2317704e-06  1.1259066e+08
   2040000   1.9642926e-10  107439.24      107329.33      144556.49      2.7490097e-06  5.173164e-07   2.2316933e-06  1.1258699e+08
   2041000   1.9652555e-10  107431.07      107322.81      143995.01      2.7489909e-06  5.174673e-07   2.2315236e-06  1.1258188e+08
   2042000   1.9662183e-10  107440.55      107332.23      144025.09      2.7489917e-06  5.1727117e-07  2.2317205e-06  1.125845e+08 
   2043000   1.9671812e-10  107445.02      107336.65      144048.99      2.7489891e-06  5.1717562e-07  2.2318135e-06  1.125845e+08 
   2044000   1.9681441e-10  107466.08      107356.88      144345.95      2.7489971e-06  5.1674634e-07  2.2322508e-06  1.1259133e+08
   2045000   1.969107e-10   107449.43      107341.25      143989.99      2.7489965e-06  5.1709153e-07  2.231905e-06   1.1258485e+08
   2046000   1.9700699e-10  107453.8       107344.92      144228.04      2.7489874e-06  5.1699164e-07  2.2319957e-06  1.1258697e+08
   2047000   1.9710328e-10  107460.18      107351.35      144219.64      2.7489929e-06  5.1686453e-07  2.2321284e-06  1.1259181e+08
   2048000   1.9719957e-10  107434.7       107324.48      144657.86      2.7490043e-06  5.1740525e-07  2.231599e-06   1.1258308e+08
   2049000   1.9729586e-10  107456.23      107345.45      144865.26      2.7490183e-06  5.1697216e-07  2.2320461e-06  1.1259197e+08
   2050000   1.9739214e-10  107456.87      107345.91      144926.8       2.749024e-06   5.1696452e-07  2.2320595e-06  1.1259279e+08
   2051000   1.9748843e-10  107442.31      107331.93      144716.24      2.7490059e-06  5.172489e-07   2.231757e-06   1.125869e+08 
   2052000   1.9758472e-10  107447.15      107336.46      144827.88      2.7490221e-06  5.1716444e-07  2.2318577e-06  1.1258917e+08
   2053000   1.9768101e-10  107459.61      107349.62      144604.52      2.7490132e-06  5.1689675e-07  2.2321165e-06  1.1259222e+08
   2054000   1.977773e-10   107443         107334.06      144234.2       2.7490271e-06  5.1725577e-07  2.2317714e-06  1.1258864e+08
   2055000   1.9787359e-10  107438.29      107329.71      144109.97      2.7490307e-06  5.1735716e-07  2.2316735e-06  1.1258923e+08
   2056000   1.9796988e-10  107440.21      107331.33      144214.66      2.7490315e-06  5.1731799e-07  2.2317135e-06  1.1259031e+08
   2057000   1.9806617e-10  107443.5       107334.07      144401.72      2.7490341e-06  5.1725222e-07  2.2317819e-06  1.1259018e+08
   2058000   1.9816246e-10  107444.65      107335.31      144372.26      2.7490372e-06  5.1723143e-07  2.2318057e-06  1.1258987e+08
   2059000   1.9825874e-10  107437.71      107327.54      144641         2.7490099e-06  5.1734842e-07  2.2316615e-06  1.1258537e+08
   2060000   1.9835503e-10  107458.83      107350         144214.77      2.74901e-06    5.1690977e-07  2.2321002e-06  1.1259278e+08
   2061000   1.9845132e-10  107456.69      107347.92      144192.05      2.7490209e-06  5.1696511e-07  2.2320558e-06  1.1259343e+08
   2062000   1.9854761e-10  107443.96      107336.46      143754.5       2.7490313e-06  5.1724003e-07  2.2317913e-06  1.1259089e+08
   2063000   1.986439e-10   107436.63      107328.43      143984.37      2.7490261e-06  5.1738695e-07  2.2316392e-06  1.1259057e+08
   2064000   1.9874019e-10  107405.63      107297.6       143896.12      2.7490441e-06  5.180488e-07   2.2309953e-06  1.1258216e+08
   2065000   1.9883648e-10  107419.08      107310.65      144041.25      2.7490447e-06  5.1777019e-07  2.2312746e-06  1.1258773e+08
   2066000   1.9893277e-10  107422.5       107315.05      143718.33      2.7490531e-06  5.1770754e-07  2.2313456e-06  1.1259015e+08
   2067000   1.9902906e-10  107418.91      107311.26      143779.54      2.7490394e-06  5.1776844e-07  2.2312709e-06  1.1258759e+08
   2068000   1.9912534e-10  107429.34      107320.65      144141.9       2.7490401e-06  5.1755229e-07  2.2314878e-06  1.1258904e+08
   2069000   1.9922163e-10  107445.18      107336.05      144301.31      2.7490324e-06  5.1721581e-07  2.2318166e-06  1.1259212e+08
   2070000   1.9931792e-10  107431.48      107324.67      143513.95      2.7490293e-06  5.1749713e-07  2.2315322e-06  1.1258661e+08
   2071000   1.9941421e-10  107435.6       107327.84      143835.23      2.7490278e-06  5.174102e-07   2.2316176e-06  1.1258888e+08
   2072000   1.995105e-10   107442.75      107334.35      144056.95      2.7490313e-06  5.1726503e-07  2.2317663e-06  1.12593e+08  
   2073000   1.9960679e-10  107434.34      107327.33      143582.63      2.7490321e-06  5.1744068e-07  2.2315914e-06  1.1258927e+08
   2074000   1.9970308e-10  107443.03      107335.21      143861.4       2.7490333e-06  5.172613e-07   2.231772e-06   1.1259231e+08
   2075000   1.9979937e-10  107427.44      107320.27      143626.3       2.7490224e-06  5.175743e-07   2.2314481e-06  1.1258565e+08
   2076000   1.9989566e-10  107415.93      107310.7       142967.74      2.7490093e-06  5.1780023e-07  2.2312091e-06  1.1258095e+08
   2077000   1.9999194e-10  107421.83      107316.86      142886.08      2.7490041e-06  5.1767254e-07  2.2313316e-06  1.1258188e+08
   2078000   2.0008823e-10  107430.15      107325.24      142876.58      2.7490001e-06  5.1749554e-07  2.2315046e-06  1.1258443e+08
   2079000   2.0018452e-10  107431.79      107325.81      143233.04      2.7490146e-06  5.1747604e-07  2.2315385e-06  1.1258376e+08
   2080000   2.0028081e-10  107459.57      107353.75      143208.72      2.7490141e-06  5.168985e-07   2.2321156e-06  1.1259245e+08
   2081000   2.003771e-10   107454.18      107347.67      143434.17      2.7490117e-06  5.1700803e-07  2.2320036e-06  1.1258942e+08
   2082000   2.0047339e-10  107457.3       107349.42      143897.75      2.7489924e-06  5.1692392e-07  2.2320684e-06  1.1258995e+08
   2083000   2.0056968e-10  107452.61      107342.69      144572.62      2.7490123e-06  5.1704131e-07  2.231971e-06   1.1259012e+08
   2084000   2.0066597e-10  107449.81      107338.01      145199.04      2.7490213e-06  5.1710843e-07  2.2319128e-06  1.1259112e+08
   2085000   2.0076225e-10  107456.73      107343.15      145804.29      2.7490163e-06  5.1695956e-07  2.2320567e-06  1.1259377e+08
   2086000   2.0085854e-10  107443.93      107330.6       145704.54      2.7490141e-06  5.1722347e-07  2.2317906e-06  1.1258947e+08
   2087000   2.0095483e-10  107442.97      107329.81      145649.48      2.7490197e-06  5.1724889e-07  2.2317708e-06  1.1258985e+08
   2088000   2.0105112e-10  107440.28      107326.28      145924.5       2.749032e-06   5.1731712e-07  2.2317149e-06  1.1259042e+08
   2089000   2.0114741e-10  107440.06      107326.11      145908.58      2.7490155e-06  5.1730527e-07  2.2317102e-06  1.1258917e+08
   2090000   2.012437e-10   107442.81      107329.47      145710.22      2.7489968e-06  5.1722925e-07  2.2317675e-06  1.1258858e+08
   2091000   2.0133999e-10  107432.06      107320.32      145162.07      2.7490055e-06  5.1746121e-07  2.2315443e-06  1.1258523e+08
   2092000   2.0143628e-10  107435.16      107324.25      144886.78      2.7490241e-06  5.1741561e-07  2.2316085e-06  1.1258797e+08
   2093000   2.0153257e-10  107441.94      107333.54      144055.98      2.7490313e-06  5.1728189e-07  2.2317494e-06  1.1259093e+08
   2094000   2.0162885e-10  107443.13      107336.11      143595.44      2.7490209e-06  5.172467e-07   2.2317742e-06  1.1259032e+08
   2095000   2.0172514e-10  107426.2       107318.46      143819.54      2.7490235e-06  5.1760111e-07  2.2314224e-06  1.1258415e+08
   2096000   2.0182143e-10  107434.94      107327.76      143639.27      2.7490277e-06  5.1742366e-07  2.231604e-06   1.1258771e+08
   2097000   2.0191772e-10  107447.56      107338.62      144242.95      2.7490309e-06  5.1716466e-07  2.2318662e-06  1.1259063e+08
   2098000   2.0201401e-10  107450.32      107342         144037.33      2.7490381e-06  5.1711456e-07  2.2319235e-06  1.1259178e+08
   2099000   2.021103e-10   107441         107334.44      143438.23      2.749024e-06   5.1729416e-07  2.2317298e-06  1.1258825e+08
   2100000   2.0220659e-10  107440.82      107334.6       143324.55      2.7490157e-06  5.1728953e-07  2.2317262e-06  1.1258853e+08
   2101000   2.0230288e-10  107442.85      107337.58      143008.9       2.749015e-06   5.1724668e-07  2.2317683e-06  1.1258972e+08
   2102000   2.0239917e-10  107448.77      107344.39      142717.76      2.7490041e-06  5.171128e-07   2.2318913e-06  1.1259097e+08
   2103000   2.0249545e-10  107454.14      107350.48      142482.1       2.7490004e-06  5.169977e-07   2.2320027e-06  1.1259113e+08
   2104000   2.0259174e-10  107445.16      107341.24      142559.47      2.7490069e-06  5.1719069e-07  2.2318162e-06  1.1258685e+08
   2105000   2.0268803e-10  107432.28      107328.37      142542.57      2.7489901e-06  5.1744143e-07  2.2315487e-06  1.1258223e+08
   2106000   2.0278432e-10  107428.47      107325.6       142190.68      2.7489992e-06  5.1752965e-07  2.2314695e-06  1.1258312e+08
   2107000   2.0288061e-10  107443.32      107341.02      142017.7       2.7490169e-06  5.1723881e-07  2.2317781e-06  1.125904e+08 
   2108000   2.029769e-10   107437.26      107335.09      141965.78      2.7490092e-06  5.1735698e-07  2.2316522e-06  1.1258674e+08
   2109000   2.0307319e-10  107427.13      107325.06      141922.36      2.749034e-06   5.1759222e-07  2.2314418e-06  1.1258372e+08
   2110000   2.0316948e-10  107430.73      107328.99      141817.34      2.749033e-06   5.175164e-07   2.2315166e-06  1.1258584e+08
   2111000   2.0326576e-10  107437.84      107334.47      142369.81      2.7490393e-06  5.1737507e-07  2.2316643e-06  1.1259103e+08
   2112000   2.0336205e-10  107444.83      107339.51      143029.12      2.7490481e-06  5.172387e-07   2.2318094e-06  1.1259367e+08
   2113000   2.0345834e-10  107460.26      107354.77      143098.65      2.7490439e-06  5.1691405e-07  2.2321298e-06  1.1259875e+08
   2114000   2.0355463e-10  107443.71      107338.63      142947.73      2.7490237e-06  5.1723754e-07  2.2317862e-06  1.1259096e+08
   2115000   2.0365092e-10  107435.81      107331.78      142587.81      2.7490247e-06  5.1740267e-07  2.231622e-06   1.1258735e+08
   2116000   2.0374721e-10  107437.88      107334.35      142421.44      2.7490103e-06  5.1734528e-07  2.231665e-06   1.12587e+08  
   2117000   2.038435e-10   107437.73      107335.79      141891.02      2.7490125e-06  5.1735047e-07  2.231662e-06   1.1258663e+08
   2118000   2.0393979e-10  107443.93      107342.49      141729.94      2.7490238e-06  5.1723299e-07  2.2317908e-06  1.1258923e+08
   2119000   2.0403608e-10  107437.11      107333.98      142286.75      2.7490244e-06  5.1737535e-07  2.231649e-06   1.125869e+08 
   2120000   2.0413236e-10  107436.48      107335.23      141659.6       2.7490397e-06  5.1740375e-07  2.231636e-06   1.1258876e+08
   2121000   2.0422865e-10  107441.64      107341.04      141444.11      2.7490358e-06  5.1729265e-07  2.2317431e-06  1.1259143e+08
   2122000   2.0432494e-10  107437.32      107337.27      141257.05      2.7490387e-06  5.1738528e-07  2.2316534e-06  1.1259161e+08
   2123000   2.0442123e-10  107426.76      107327.94      140834.93      2.7490434e-06  5.1760931e-07  2.2314341e-06  1.1258924e+08
   2124000   2.0451752e-10  107430.83      107333.16      140457.53      2.7490448e-06  5.1752613e-07  2.2315187e-06  1.1259103e+08
   2125000   2.0461381e-10  107421.93      107324.38      140405.94      2.7490359e-06  5.1770211e-07  2.2313338e-06  1.125864e+08 
   2126000   2.047101e-10   107419.15      107323.09      139905.57      2.7490169e-06  5.1774087e-07  2.2312761e-06  1.1258309e+08
   2127000   2.0480639e-10  107448.17      107352.29      139872.87      2.7490289e-06  5.1715006e-07  2.2318788e-06  1.1259477e+08
   2128000   2.0490268e-10  107437.92      107344.15      139159.13      2.7490414e-06  5.1737555e-07  2.2316659e-06  1.125928e+08 
   2129000   2.0499896e-10  107440.56      107348.98      138428.22      2.7490433e-06  5.173226e-07   2.2317207e-06  1.1259443e+08
   2130000   2.0509525e-10  107423.77      107332.41      138335.88      2.749042e-06   5.1767006e-07  2.2313719e-06  1.1258741e+08
   2131000   2.0519154e-10  107442.77      107351.05      138476.53      2.7490416e-06  5.1727507e-07  2.2317665e-06  1.1259403e+08
   2132000   2.0528783e-10  107458.54      107368.62      137892.44      2.7490304e-06  5.1693618e-07  2.2320942e-06  1.125969e+08 
   2133000   2.0538412e-10  107440.01      107354         136566.93      2.7490194e-06  5.1730999e-07  2.2317094e-06  1.1258812e+08
   2134000   2.0548041e-10  107435.81      107350.6       136292.9       2.7490275e-06  5.1740544e-07  2.2316221e-06  1.1258712e+08
   2135000   2.055767e-10   107450.4       107365.25      136289.66      2.7490304e-06  5.1710517e-07  2.2319252e-06  1.1259338e+08
   2136000   2.0567299e-10  107443.76      107358.74      136235.96      2.7490323e-06  5.1724514e-07  2.2317872e-06  1.1259175e+08
   2137000   2.0576928e-10  107442.72      107357.58      136277.86      2.749034e-06   5.172684e-07   2.2317656e-06  1.1258967e+08
   2138000   2.0586556e-10  107448.8       107364.57      135979.69      2.7490298e-06  5.1713791e-07  2.2318919e-06  1.125907e+08 
   2139000   2.0596185e-10  107464.59      107381.09      135748.91      2.7490144e-06  5.1679454e-07  2.2322199e-06  1.125947e+08 
   2140000   2.0605814e-10  107453.98      107370.98      135570.35      2.7490185e-06  5.1701908e-07  2.2319994e-06  1.1259194e+08
   2141000   2.0615443e-10  107443.24      107359.23      135899.35      2.7490364e-06  5.1726001e-07  2.2317764e-06  1.1258949e+08
   2142000   2.0625072e-10  107461.76      107378.68      135605.56      2.7490314e-06  5.1687038e-07  2.232161e-06   1.1259664e+08
   2143000   2.0634701e-10  107447.64      107363.49      135951.17      2.7490157e-06  5.1714786e-07  2.2318679e-06  1.125896e+08 
   2144000   2.064433e-10   107435.38      107350.79      136085.15      2.7490269e-06  5.1741375e-07  2.2316131e-06  1.125856e+08 
   2145000   2.0653959e-10  107436.88      107354.44      135368.87      2.7490229e-06  5.1737848e-07  2.2316444e-06  1.1258566e+08
   2146000   2.0663587e-10  107463.15      107381.22      135224.99      2.7490108e-06  5.1682075e-07  2.23219e-06    1.1259491e+08
   2147000   2.0673216e-10  107440.75      107359.22      135064.82      2.7490166e-06  5.17292e-07    2.2317246e-06  1.1258911e+08
   2148000   2.0682845e-10  107433.14      107351.49      135099.12      2.7490189e-06  5.1745229e-07  2.2315666e-06  1.1258795e+08
   2149000   2.0692474e-10  107442.66      107362.57      134590.03      2.7490335e-06  5.1726905e-07  2.2317644e-06  1.1259199e+08
   2150000   2.0702103e-10  107440.51      107360.59      134528.65      2.7490458e-06  5.173261e-07   2.2317198e-06  1.1259195e+08
   2151000   2.0711732e-10  107427.76      107346.94      134816.72      2.749032e-06   5.1757717e-07  2.2314548e-06  1.1258649e+08
   2152000   2.0721361e-10  107431.32      107350.46      134833.42      2.749037e-06   5.1750822e-07  2.2315288e-06  1.1258809e+08
   2153000   2.073099e-10   107436.06      107355.35      134791.56      2.7490533e-06  5.174259e-07   2.2316274e-06  1.1259019e+08
   2154000   2.0740619e-10  107448.17      107365.47      135465.37      2.7490524e-06  5.1717364e-07  2.2318788e-06  1.1259474e+08
   2155000   2.0750247e-10  107435.3       107352.06      135635.17      2.7490488e-06  5.174373e-07   2.2316115e-06  1.125902e+08 
   2156000   2.0759876e-10  107432.56      107347.39      136274.49      2.7490523e-06  5.1749776e-07  2.2315545e-06  1.1259041e+08
   2157000   2.0769505e-10  107447.55      107360.79      136822.58      2.749048e-06   5.1718207e-07  2.231866e-06   1.1259586e+08
   2158000   2.0779134e-10  107436.63      107347.92      137467.41      2.7490605e-06  5.174213e-07   2.2316392e-06  1.1259185e+08
   2159000   2.0788763e-10  107436.56      107347.52      137576.25      2.7490331e-06  5.1739543e-07  2.2316377e-06  1.1258982e+08
   2160000   2.0798392e-10  107439.36      107351.23      137271.52      2.749032e-06   5.1733627e-07  2.2316958e-06  1.1259091e+08
   2161000   2.0808021e-10  107445.08      107357.57      137071.96      2.7490458e-06  5.1723119e-07  2.2318146e-06  1.1259245e+08
   2162000   2.081765e-10   107442         107353.91      137262.1       2.7490495e-06  5.1729892e-07  2.2317506e-06  1.1259166e+08
   2163000   2.0827279e-10  107437.98      107347.83      137950.02      2.7490443e-06  5.1737706e-07  2.2316672e-06  1.1259175e+08
   2164000   2.0836907e-10  107431.64      107342.75      137520.52      2.7490418e-06  5.1750628e-07  2.2315355e-06  1.1259003e+08
   2165000   2.0846536e-10  107437.25      107349.48      137150.82      2.7490306e-06  5.1737869e-07  2.2316519e-06  1.1259061e+08
   2166000   2.0856165e-10  107446.62      107358.96      137124.48      2.7490392e-06  5.1719245e-07  2.2318467e-06  1.1259385e+08
   2167000   2.0865794e-10  107437.84      107351.54      136660.04      2.7490332e-06  5.1736894e-07  2.2316642e-06  1.1258948e+08
   2168000   2.0875423e-10  107437.94      107352.64      136324.65      2.7490265e-06  5.1736023e-07  2.2316663e-06  1.1258963e+08
   2169000   2.0885052e-10  107436.11      107349.65      136709.63      2.7490406e-06  5.1741237e-07  2.2316282e-06  1.1259071e+08
   2170000   2.0894681e-10  107447.1       107356.96      137954.44      2.7490333e-06  5.1717673e-07  2.2318566e-06  1.1259407e+08
   2171000   2.090431e-10   107428.01      107336.83      138281.39      2.7490151e-06  5.1755506e-07  2.23146e-06    1.1258715e+08
   2172000   2.0913938e-10  107440.06      107348.64      138372.78      2.7490324e-06  5.173221e-07   2.2317103e-06  1.125928e+08 
   2173000   2.0923567e-10  107445.33      107355.14      137967.31      2.749048e-06   5.1722827e-07  2.2318198e-06  1.1259498e+08
   2174000   2.0933196e-10  107441.05      107351.73      137671.94      2.7490662e-06  5.1733533e-07  2.2317309e-06  1.1259535e+08
   2175000   2.0942825e-10  107435.99      107348.49      137056.53      2.7490648e-06  5.1743909e-07  2.2316257e-06  1.1259432e+08
   2176000   2.0952454e-10  107437.08      107349.27      137163.46      2.7490608e-06  5.1741235e-07  2.2316484e-06  1.1259517e+08
   2177000   2.0962083e-10  107426.06      107338.78      136976.42      2.7490605e-06  5.1764094e-07  2.2314196e-06  1.1258872e+08
   2178000   2.0971712e-10  107437         107350.29      136796.31      2.7490542e-06  5.1740735e-07  2.2316468e-06  1.1259024e+08
   2179000   2.0981341e-10  107446.31      107359.1       136973.23      2.7490259e-06  5.1718575e-07  2.2318402e-06  1.1259188e+08
   2180000   2.099097e-10   107434.41      107346.28      137269.86      2.7490279e-06  5.1743488e-07  2.231593e-06   1.1258769e+08
   2181000   2.1000598e-10  107446.61      107357.6       137574.93      2.7490363e-06  5.1718995e-07  2.2318464e-06  1.1259156e+08
   2182000   2.1010227e-10  107447.88      107358.78      137606.23      2.7490403e-06  5.1716752e-07  2.2318727e-06  1.1259185e+08
   2183000   2.1019856e-10  107443.71      107354.91      137500.58      2.7490381e-06  5.1725188e-07  2.2317862e-06  1.1259153e+08
   2184000   2.1029485e-10  107439.4       107351.5       137194.26      2.7490293e-06  5.1733276e-07  2.2316966e-06  1.1259014e+08
   2185000   2.1039114e-10  107441.88      107353.74      137279.67      2.7490257e-06  5.1727745e-07  2.2317482e-06  1.1259007e+08
   2186000   2.1048743e-10  107450.12      107362.66      137061.91      2.7490259e-06  5.1710644e-07  2.2319194e-06  1.1259173e+08
   2187000   2.1058372e-10  107450.93      107362.54      137370.92      2.7490189e-06  5.1708284e-07  2.2319361e-06  1.1259154e+08
   2188000   2.1068001e-10  107433.68      107346.38      136989.5       2.7490224e-06  5.1744465e-07  2.2315778e-06  1.1258645e+08
   2189000   2.107763e-10   107443.07      107355.85      136971.84      2.7490309e-06  5.1725806e-07  2.2317728e-06  1.1259052e+08
   2190000   2.1087258e-10  107437.08      107351.1       136551.13      2.7490342e-06  5.1738579e-07  2.2316484e-06  1.1258893e+08
   2191000   2.1096887e-10  107426.89      107341.63      136302.25      2.7490346e-06  5.1759776e-07  2.2314369e-06  1.1258609e+08
   2192000   2.1106516e-10  107440.07      107354.78      136324.76      2.7490266e-06  5.1731601e-07  2.2317106e-06  1.1259141e+08
   2193000   2.1116145e-10  107433.37      107348.74      136098.51      2.7490263e-06  5.1745486e-07  2.2315715e-06  1.1258862e+08
   2194000   2.1125774e-10  107441.93      107356.67      136314.76      2.7490129e-06  5.172638e-07   2.2317491e-06  1.125913e+08 
   2195000   2.1135403e-10  107428.68      107342.79      136512.15      2.7490252e-06  5.1755128e-07  2.2314739e-06  1.1258737e+08
   2196000   2.1145032e-10  107444.82      107359.11      136467.95      2.7490453e-06  5.1723612e-07  2.2318092e-06  1.1259342e+08
   2197000   2.1154661e-10  107434.89      107348.74      136606.45      2.7490325e-06  5.1742946e-07  2.231603e-06   1.1258772e+08
   2198000   2.1164289e-10  107441.04      107354.77      136653.71      2.7490262e-06  5.172955e-07   2.2317307e-06  1.1258911e+08
   2199000   2.1173918e-10  107451.79      107364.32      137065.66      2.7490225e-06  5.170685e-07   2.231954e-06   1.1259238e+08
   2200000   2.1183547e-10  107446.26      107357.43      137513.09      2.7490144e-06  5.1717536e-07  2.2318391e-06  1.1258998e+08
   2201000   2.1193176e-10  107441.2       107352.09      137603.48      2.749021e-06   5.17287e-07    2.231734e-06   1.1258905e+08
   2202000   2.1202805e-10  107445.6       107356.96      137450.52      2.7490427e-06  5.1721737e-07  2.2318254e-06  1.1259442e+08
   2203000   2.1212434e-10  107432.66      107343.62      137572.13      2.7490638e-06  5.175072e-07   2.2315566e-06  1.1259263e+08
   2204000   2.1222063e-10  107429.99      107341.09      137521.48      2.7490582e-06  5.1755708e-07  2.2315012e-06  1.1259141e+08
   2205000   2.1231692e-10  107427.83      107338.53      137651.53      2.7490438e-06  5.1758753e-07  2.2314562e-06  1.1259048e+08
   2206000   2.1241321e-10  107427.53      107338.58      137533.73      2.7490348e-06  5.175848e-07   2.23145e-06    1.1258826e+08
   2207000   2.1250949e-10  107451.08      107361.35      137820.22      2.7490373e-06  5.1709808e-07  2.2319392e-06  1.125958e+08 
   2208000   2.1260578e-10  107433.7       107342.59      138265.53      2.7490494e-06  5.1747116e-07  2.2315782e-06  1.1259144e+08
   2209000   2.1270207e-10  107412.89      107322.8       137900.18      2.7490659e-06  5.1792003e-07  2.2311459e-06  1.1258679e+08
   2210000   2.1279836e-10  107430.08      107340.64      137702.06      2.7490527e-06  5.1754956e-07  2.2315031e-06  1.1259221e+08
   2211000   2.1289465e-10  107433.36      107341.86      138396.72      2.7490393e-06  5.1746802e-07  2.2315713e-06  1.1259057e+08
   2212000   2.1299094e-10  107436.48      107343.63      138851.12      2.749036e-06   5.1739998e-07  2.231636e-06   1.1259082e+08
   2213000   2.1308723e-10  107439.44      107346.82      138774.18      2.7490382e-06  5.1734074e-07  2.2316975e-06  1.1259072e+08
   2214000   2.1318352e-10  107440.88      107347.91      138893.72      2.7490141e-06  5.1728664e-07  2.2317274e-06  1.1258746e+08
   2215000   2.1327981e-10  107444.54      107352.02      138748.14      2.7490261e-06  5.1722268e-07  2.2318035e-06  1.1258855e+08
   2216000   2.1337609e-10  107446.13      107354.69      138386.45      2.7490324e-06  5.1719594e-07  2.2318365e-06  1.1258972e+08
   2217000   2.1347238e-10  107440.53      107351.06      137721.4       2.7490245e-06  5.173044e-07   2.2317201e-06  1.1258857e+08
   2218000   2.1356867e-10  107432.6       107345.1       137055.46      2.7490133e-06  5.1745785e-07  2.2315554e-06  1.1258635e+08
   2219000   2.1366496e-10  107428.03      107340.4       137093.42      2.7490163e-06  5.1755596e-07  2.2314604e-06  1.1258607e+08
   2220000   2.1376125e-10  107429.31      107342.24      136908.3       2.7490192e-06  5.1753213e-07  2.2314871e-06  1.1258573e+08
   2221000   2.1385754e-10  107440.01      107351.93      137258.69      2.7490363e-06  5.1732698e-07  2.2317094e-06  1.1259004e+08
   2222000   2.1395383e-10  107454         107363.19      138185.63      2.749028e-06   5.1702808e-07  2.2319999e-06  1.1259412e+08
   2223000   2.1405012e-10  107444.16      107351.96      138640.27      2.7490229e-06  5.172273e-07   2.2317956e-06  1.1259065e+08
   2224000   2.1414641e-10  107433.21      107341.3       138531.02      2.7490166e-06  5.1744844e-07  2.2315681e-06  1.1258706e+08
   2225000   2.1424269e-10  107430.85      107339.59      138311.09      2.7490142e-06  5.1749513e-07  2.231519e-06   1.1258579e+08
   2226000   2.1433898e-10  107437.86      107347.23      138109.55      2.7490191e-06  5.173544e-07   2.2316647e-06  1.1258765e+08
   2227000   2.1443527e-10  107436.55      107345.1       138381.21      2.7490355e-06  5.17398e-07    2.2316375e-06  1.1258919e+08
   2228000   2.1453156e-10  107430.76      107339.2       138410.19      2.7490257e-06  5.1750861e-07  2.2315171e-06  1.1258774e+08
   2229000   2.1462785e-10  107433.29      107343.3       137890.59      2.7490234e-06  5.1745363e-07  2.2315698e-06  1.1258783e+08
   2230000   2.1472414e-10  107434.13      107343.18      138211.68      2.7490268e-06  5.1743955e-07  2.2315873e-06  1.1258804e+08
   2231000   2.1482043e-10  107447.53      107355.68      138524.07      2.7490244e-06  5.1715894e-07  2.2318655e-06  1.125924e+08 
   2232000   2.1491672e-10  107449.14      107354.8       139359.55      2.7490215e-06  5.1712262e-07  2.2318989e-06  1.125927e+08 
   2233000   2.15013e-10    107441.08      107344.99      139937.28      2.7490171e-06  5.1728553e-07  2.2317316e-06  1.125891e+08 
   2234000   2.1510929e-10  107445.7       107349.23      140069.58      2.7490124e-06  5.1718479e-07  2.2318276e-06  1.125889e+08 
   2235000   2.1520558e-10  107451.06      107353.03      140596.37      2.7490112e-06  5.1707229e-07  2.2319389e-06  1.1259093e+08
   2236000   2.1530187e-10  107440.46      107341.81      140791.8       2.7490141e-06  5.1729539e-07  2.2317187e-06  1.125885e+08 
   2237000   2.1539816e-10  107441.34      107343.24      140610.96      2.7490053e-06  5.1726829e-07  2.231737e-06   1.1258867e+08
   2238000   2.1549445e-10  107439.11      107340.28      140849.72      2.7490183e-06  5.1732773e-07  2.2316905e-06  1.1258837e+08
   2239000   2.1559074e-10  107455.21      107355.13      141285.91      2.7490081e-06  5.1698301e-07  2.2320251e-06  1.1259283e+08
   2240000   2.1568703e-10  107456.18      107357.19      140921.22      2.7490097e-06  5.169645e-07   2.2320452e-06  1.1259361e+08
   2241000   2.1578332e-10  107444.56      107344.79      141171.15      2.7490321e-06  5.1722821e-07  2.2318038e-06  1.1259137e+08
   2242000   2.158796e-10   107439.3       107337.97      141685.66      2.7490278e-06  5.1733329e-07  2.2316945e-06  1.1258892e+08
   2243000   2.1597589e-10  107452.09      107350.37      141829.75      2.7490239e-06  5.1706372e-07  2.2319601e-06  1.1259218e+08
   2244000   2.1607218e-10  107445.59      107344.72      141539.58      2.7490295e-06  5.1720438e-07  2.2318251e-06  1.1258986e+08
   2245000   2.1616847e-10  107446.79      107344.95      141866.9       2.7490333e-06  5.1718322e-07  2.2318501e-06  1.1259136e+08
   2246000   2.1626476e-10  107451.91      107350.76      141638.93      2.7490291e-06  5.1707272e-07  2.2319564e-06  1.1259405e+08
   2247000   2.1636105e-10  107434.86      107333.72      141619.03      2.7490136e-06  5.1741132e-07  2.2316023e-06  1.1258657e+08
   2248000   2.1645734e-10  107446.24      107345.62      141455.61      2.749015e-06   5.1717639e-07  2.2318386e-06  1.1258969e+08
   2249000   2.1655363e-10  107438.18      107338.82      141028.33      2.7490386e-06  5.1736723e-07  2.2316714e-06  1.1258786e+08
   2250000   2.1664992e-10  107450.74      107352.48      140674.43      2.7490472e-06  5.1711496e-07  2.2319322e-06  1.1259406e+08
   2251000   2.167462e-10   107444.31      107346.11      140647.66      2.7490418e-06  5.1724307e-07  2.2317987e-06  1.1259266e+08
   2252000   2.1684249e-10  107441.09      107342.74      140693.54      2.7490407e-06  5.1730889e-07  2.2317318e-06  1.125904e+08 
   2253000   2.1693878e-10  107445.41      107344.63      141508.59      2.7490504e-06  5.1722902e-07  2.2318214e-06  1.1259243e+08
   2254000   2.1703507e-10  107436.2       107336.09      141275.78      2.7490216e-06  5.1739145e-07  2.2316301e-06  1.1258812e+08
   2255000   2.1713136e-10  107417.26      107317.88      141014.28      2.7490237e-06  5.1778683e-07  2.2312368e-06  1.125833e+08 
   2256000   2.1722765e-10  107422.93      107324.1       140836.67      2.7490285e-06  5.1767389e-07  2.2313546e-06  1.1258604e+08
   2257000   2.1732394e-10  107439.99      107343.91      139931.29      2.7490324e-06  5.1732361e-07  2.2317088e-06  1.1259277e+08
   2258000   2.1742023e-10  107433.77      107338.56      139637         2.7490606e-06  5.1748086e-07  2.2315798e-06  1.1259408e+08
   2259000   2.1751651e-10  107418.65      107324.24      139351.08      2.7490693e-06  5.1780368e-07  2.2312656e-06  1.1259045e+08
   2260000   2.176128e-10   107423.24      107329.76      139045.48      2.7490387e-06  5.176778e-07   2.231361e-06   1.1258971e+08
   2261000   2.1770909e-10  107413.08      107320.82      138625.71      2.7490409e-06  5.1789099e-07  2.2311499e-06  1.1258468e+08
   2262000   2.1780538e-10  107436.71      107345.91      138161.13      2.7490335e-06  5.1739278e-07  2.2316407e-06  1.1259069e+08
   2263000   2.1790167e-10  107451.09      107360.86      137987.68      2.7490245e-06  5.1708506e-07  2.2319395e-06  1.1259322e+08
   2264000   2.1799796e-10  107456.53      107366.26      138005.2       2.7490099e-06  5.1695751e-07  2.2320524e-06  1.1259127e+08
   2265000   2.1809425e-10  107448.46      107357.28      138304.38      2.7489978e-06  5.1711289e-07  2.2318849e-06  1.1258609e+08
   2266000   2.1819054e-10  107441.62      107349.87      138485.29      2.7489841e-06  5.172414e-07   2.2317427e-06  1.1258368e+08
   2267000   2.1828683e-10  107436.15      107343.68      138721.87      2.7490068e-06  5.1737769e-07  2.2316291e-06  1.1258508e+08
   2268000   2.1838311e-10  107441.02      107348.8       138640.3       2.7490126e-06  5.1728234e-07  2.2317302e-06  1.1258901e+08
   2269000   2.184794e-10   107426.8       107336.05      138137.82      2.7490123e-06  5.1757742e-07  2.2314349e-06  1.1258423e+08
   2270000   2.1857569e-10  107442.62      107352.04      138094.29      2.7490205e-06  5.1725707e-07  2.2317635e-06  1.1259032e+08
   2271000   2.1867198e-10  107435.63      107345.86      137818.79      2.7490418e-06  5.174234e-07   2.2316184e-06  1.1258855e+08
   2272000   2.1876827e-10  107439.96      107351.08      137524.86      2.7490414e-06  5.1733305e-07  2.2317084e-06  1.1259101e+08
   2273000   2.1886456e-10  107432.65      107344.14      137392.54      2.7490371e-06  5.1748075e-07  2.2315564e-06  1.1259059e+08
   2274000   2.1896085e-10  107421.78      107333.8       137204.9       2.7490343e-06  5.1770369e-07  2.2313306e-06  1.1258697e+08
   2275000   2.1905714e-10  107421.42      107333.82      137080.87      2.7490292e-06  5.1770592e-07  2.2313233e-06  1.1258526e+08
   2276000   2.1915343e-10  107429.08      107340.53      137402.77      2.7490299e-06  5.1754774e-07  2.2314822e-06  1.1258839e+08
   2277000   2.1924971e-10  107434.34      107346.17      137281.32      2.7490246e-06  5.1743311e-07  2.2315914e-06  1.1258967e+08
   2278000   2.19346e-10    107429.08      107340.24      137499.51      2.7490351e-06  5.1755282e-07  2.2314823e-06  1.1258553e+08
   2279000   2.1944229e-10  107442.04      107352.87      137623.39      2.749023e-06   5.1727147e-07  2.2317515e-06  1.1258823e+08
   2280000   2.1953858e-10  107450.53      107360.48      137927.54      2.7490218e-06  5.1709397e-07  2.2319279e-06  1.1259118e+08
   2281000   2.1963487e-10  107435.01      107343.95      138249.75      2.7490176e-06  5.174121e-07   2.2316055e-06  1.1258718e+08
   2282000   2.1973116e-10  107428.01      107335.93      138584.01      2.7490263e-06  5.1756628e-07  2.23146e-06    1.1258727e+08
   2283000   2.1982745e-10  107442.58      107352.04      138081.19      2.7490273e-06  5.1726469e-07  2.2317626e-06  1.1259307e+08
   2284000   2.1992374e-10  107436.09      107345.82      137986.85      2.7490275e-06  5.173995e-07   2.231628e-06   1.1258977e+08
   2285000   2.2002002e-10  107452.07      107362.08      137908.52      2.7490245e-06  5.1706476e-07  2.2319598e-06  1.1259553e+08
   2286000   2.2011631e-10  107451.54      107362.56      137568.48      2.7490232e-06  5.1707443e-07  2.2319488e-06  1.1259379e+08
   2287000   2.202126e-10   107445.35      107357.52      137181         2.7490253e-06  5.1720504e-07  2.2318203e-06  1.12591e+08  
   2288000   2.2030889e-10  107450.88      107363.63      136990.53      2.7490338e-06  5.1709875e-07  2.2319351e-06  1.1259277e+08
   2289000   2.2040518e-10  107454.17      107367.81      136698.34      2.7490295e-06  5.1702596e-07  2.2320035e-06  1.1259235e+08
   2290000   2.2050147e-10  107447.52      107361.71      136503.75      2.749029e-06   5.1716375e-07  2.2318653e-06  1.1258952e+08
   2291000   2.2059776e-10  107461.72      107375.68      136595.99      2.7490301e-06  5.1686988e-07  2.2321602e-06  1.125957e+08 
   2292000   2.2069405e-10  107458.22      107370.22      137249.82      2.7490395e-06  5.169519e-07   2.2320876e-06  1.1259532e+08
   2293000   2.2079034e-10  107459.2       107370.58      137454.55      2.7490427e-06  5.1693485e-07  2.2321078e-06  1.1259708e+08
   2294000   2.2088662e-10  107434.22      107345.95      137313.05      2.7490456e-06  5.1745664e-07  2.231589e-06   1.1258951e+08
   2295000   2.2098291e-10  107428.27      107338.71      137740.81      2.7490421e-06  5.1757654e-07  2.2314655e-06  1.1258977e+08
   2296000   2.210792e-10   107438.08      107348.1       137887.8       2.7490318e-06  5.1736262e-07  2.2316691e-06  1.125938e+08 
   2297000   2.2117549e-10  107418.64      107328.77      137832.56      2.7490369e-06  5.1777154e-07  2.2312653e-06  1.1258684e+08
   2298000   2.2127178e-10  107441.04      107352.13      137536.23      2.7490271e-06  5.1729637e-07  2.2317307e-06  1.1259267e+08
   2299000   2.2136807e-10  107440.9       107349.9       138236.36      2.7490276e-06  5.1729983e-07  2.2317278e-06  1.1258983e+08
   2300000   2.2146436e-10  107459.16      107367.08      138615.25      2.7490364e-06  5.1692939e-07  2.232107e-06   1.1259544e+08
   2301000   2.2156065e-10  107452.07      107360.17      138547.04      2.7490291e-06  5.1706938e-07  2.2319597e-06  1.1259327e+08
   2302000   2.2165694e-10  107424.4       107333.82      138076.69      2.7490344e-06  5.1764932e-07  2.231385e-06   1.1258497e+08
   2303000   2.2175322e-10  107433.01      107342.81      137958.4       2.7490319e-06  5.1746799e-07  2.2315639e-06  1.1258861e+08
   2304000   2.2184951e-10  107416.18      107326.37      137813.44      2.7490382e-06  5.1782375e-07  2.2312144e-06  1.1258326e+08
   2305000   2.219458e-10   107411.83      107323.28      137384.23      2.7490349e-06  5.1791102e-07  2.2311239e-06  1.1258273e+08
   2306000   2.2204209e-10  107417.3       107326.3       138211.82      2.7490229e-06  5.1778531e-07  2.2312376e-06  1.1258379e+08
   2307000   2.2213838e-10  107423.91      107331.26      138769.07      2.7490376e-06  5.1766278e-07  2.2313749e-06  1.1258536e+08
   2308000   2.2223467e-10  107438.11      107344.56      139082.4       2.7490411e-06  5.1737136e-07  2.2316698e-06  1.1258988e+08
   2309000   2.2233096e-10  107443.19      107349.91      139001.55      2.7490302e-06  5.1725475e-07  2.2317755e-06  1.125905e+08 
   2310000   2.2242725e-10  107440.73      107347.73      138903.86      2.749031e-06   5.1730673e-07  2.2317242e-06  1.1258986e+08
   2311000   2.2252354e-10  107445.23      107352.14      138937.45      2.7490536e-06  5.1723582e-07  2.2318178e-06  1.1259467e+08
   2312000   2.2261982e-10  107435.02      107342.73      138661.5       2.7490585e-06  5.1745276e-07  2.2316057e-06  1.1259235e+08
   2313000   2.2271611e-10  107433.62      107342.85      138147.75      2.7490571e-06  5.1748056e-07  2.2315765e-06  1.1259363e+08
   2314000   2.228124e-10   107420.26      107330.43      137822.78      2.7490476e-06  5.1774865e-07  2.231299e-06   1.1258782e+08
   2315000   2.2290869e-10  107427.96      107338.07      137850.88      2.7490425e-06  5.1758354e-07  2.2314589e-06  1.1258709e+08
   2316000   2.2300498e-10  107439.68      107348.27      138368.27      2.7490269e-06  5.1732453e-07  2.2317024e-06  1.1258794e+08
   2317000   2.2310127e-10  107451.82      107360.05      138502.94      2.7490265e-06  5.1707189e-07  2.2319546e-06  1.1259227e+08
   2318000   2.2319756e-10  107449.49      107357.85      138456.13      2.7490206e-06  5.1711447e-07  2.2319062e-06  1.1259024e+08
   2319000   2.2329385e-10  107450.28      107359.16      138283.83      2.7490382e-06  5.1711558e-07  2.2319227e-06  1.1259054e+08
   2320000   2.2339013e-10  107476.32      107385.86      138090.19      2.7490364e-06  5.1657284e-07  2.2324635e-06  1.1260104e+08
   2321000   2.2348642e-10  107444.87      107354.47      138039.15      2.749026e-06   5.1721575e-07  2.2318103e-06  1.1258983e+08
   2322000   2.2358271e-10  107444.43      107353.57      138192.39      2.7490204e-06  5.1721921e-07  2.2318012e-06  1.125901e+08 
   2323000   2.23679e-10    107440.08      107349.86      137971.81      2.7490289e-06  5.1731816e-07  2.2317108e-06  1.1259099e+08
   2324000   2.2377529e-10  107444.32      107354.66      137788.38      2.7490189e-06  5.1722013e-07  2.2317988e-06  1.1259322e+08
   2325000   2.2387158e-10  107443.45      107354.22      137645.28      2.7490394e-06  5.1725854e-07  2.2317808e-06  1.1259428e+08
   2326000   2.2396787e-10  107440.68      107351.74      137544.5       2.7490383e-06  5.1731507e-07  2.2317232e-06  1.1259171e+08
   2327000   2.2406416e-10  107432.47      107343.26      137626.24      2.7490387e-06  5.17486e-07    2.2315527e-06  1.1258725e+08
   2328000   2.2416045e-10  107438.41      107349.26      137613.09      2.7490358e-06  5.173598e-07   2.231676e-06   1.1258988e+08
   2329000   2.2425673e-10  107436.38      107346.33      137913.67      2.7490412e-06  5.1740716e-07  2.231634e-06   1.1259085e+08
   2330000   2.2435302e-10  107435.99      107344.52      138386.13      2.7490463e-06  5.1742051e-07  2.2316258e-06  1.1259258e+08
   2331000   2.2444931e-10  107429.14      107336.68      138711.61      2.7490645e-06  5.1758099e-07  2.2314835e-06  1.1259236e+08
   2332000   2.245456e-10   107425.37      107332.49      138847.51      2.7490582e-06  5.1765303e-07  2.2314051e-06  1.1259006e+08
   2333000   2.2464189e-10  107440.59      107346.78      139173.92      2.7490624e-06  5.1734105e-07  2.2317213e-06  1.1259374e+08
   2334000   2.2473818e-10  107430.63      107335.79      139510.82      2.7490612e-06  5.1754668e-07  2.2315146e-06  1.1258938e+08
   2335000   2.2483447e-10  107430.87      107337.76      138929.37      2.749052e-06   5.1753261e-07  2.2315194e-06  1.1258923e+08
   2336000   2.2493076e-10  107445.93      107352.25      139137.14      2.7490496e-06  5.1721733e-07  2.2318322e-06  1.125945e+08 
   2337000   2.2502705e-10  107442.18      107348.7       139065.02      2.7490407e-06  5.1728637e-07  2.2317543e-06  1.1259131e+08
   2338000   2.2512333e-10  107444.97      107351.69      139000.86      2.7490242e-06  5.1721194e-07  2.2318123e-06  1.1259013e+08
   2339000   2.2521962e-10  107451.61      107357.75      139203.76      2.7490172e-06  5.1706686e-07  2.2319504e-06  1.1259107e+08
   2340000   2.2531591e-10  107431.38      107337.19      139291.3       2.7490139e-06  5.174839e-07   2.23153e-06    1.1258425e+08
   2341000   2.254122e-10   107421.69      107327.21      139378.52      2.7490247e-06  5.1769595e-07  2.2313288e-06  1.1258294e+08
   2342000   2.2550849e-10  107423.33      107330.18      138936.23      2.7490313e-06  5.1766845e-07  2.2313629e-06  1.1258598e+08
   2343000   2.2560478e-10  107419.14      107327.12      138555.63      2.7490477e-06  5.1777183e-07  2.2312759e-06  1.1258736e+08
   2344000   2.2570107e-10  107416.08      107324.18      138510.65      2.7490502e-06  5.1783794e-07  2.2312123e-06  1.1258671e+08
   2345000   2.2579736e-10  107445.78      107351.12      139464.31      2.7490742e-06  5.1724497e-07  2.2318292e-06  1.1259794e+08
   2346000   2.2589364e-10  107455.81      107359.32      140085.52      2.7490633e-06  5.1702592e-07  2.2320374e-06  1.1259968e+08
   2347000   2.2598993e-10  107447.43      107350.03      140382.74      2.749043e-06   5.1717952e-07  2.2318635e-06  1.1259269e+08
   2348000   2.2608622e-10  107442.13      107342.64      141075.5       2.7490316e-06  5.1727821e-07  2.2317533e-06  1.1258908e+08
   2349000   2.2618251e-10  107448.79      107348.97      141190.24      2.7490159e-06  5.1712428e-07  2.2318916e-06  1.1259171e+08
   2350000   2.262788e-10   107433.18      107334.29      140865.71      2.7490224e-06  5.1745485e-07  2.2315675e-06  1.1258771e+08
   2351000   2.2637509e-10  107432.72      107335.37      140351.01      2.749028e-06   5.1747016e-07  2.2315579e-06  1.1258893e+08
   2352000   2.2647138e-10  107433.43      107336.81      140107.76      2.749018e-06   5.1744534e-07  2.2315726e-06  1.1258833e+08
   2353000   2.2656767e-10  107431.41      107334.42      140227.68      2.7490231e-06  5.1749242e-07  2.2315307e-06  1.1258706e+08
   2354000   2.2666396e-10  107449.95      107353.36      140111.82      2.7490309e-06  5.1711519e-07  2.2319157e-06  1.1259198e+08
   2355000   2.2676024e-10  107453.89      107359.36      139429.65      2.7490191e-06  5.1702145e-07  2.2319977e-06  1.1259139e+08
   2356000   2.2685653e-10  107457.97      107364.28      139151.48      2.7490161e-06  5.1693388e-07  2.2320823e-06  1.1259286e+08
   2357000   2.2695282e-10  107442.11      107348.72      139036.41      2.7490202e-06  5.1726724e-07  2.231753e-06   1.125892e+08 
   2358000   2.2704911e-10  107449.52      107357.48      138591.69      2.7490247e-06  5.1711771e-07  2.231907e-06   1.1259316e+08
   2359000   2.271454e-10   107448.49      107356.97      138419.52      2.7490256e-06  5.1714e-07     2.2318856e-06  1.125915e+08 
   2360000   2.2724169e-10  107449.24      107358.76      138068.7       2.7490165e-06  5.1711552e-07  2.231901e-06   1.1259087e+08
   2361000   2.2733798e-10  107455.7       107365.51      137980.57      2.7490298e-06  5.169946e-07   2.2320352e-06  1.1259491e+08
   2362000   2.2743427e-10  107438.79      107347.93      138187.56      2.749032e-06   5.1734795e-07  2.231684e-06   1.1258846e+08
   2363000   2.2753056e-10  107448.75      107358.57      137968.01      2.7490425e-06  5.1715175e-07  2.2318908e-06  1.1259397e+08
   2364000   2.2762684e-10  107448.04      107357.51      138083.53      2.7490326e-06  5.171565e-07   2.2318761e-06  1.125929e+08 
   2365000   2.2772313e-10  107444.27      107352.98      138336.63      2.7490267e-06  5.172288e-07   2.2317979e-06  1.1259059e+08
   2366000   2.2781942e-10  107444.84      107353.91      138214.5       2.7490414e-06  5.1723171e-07  2.2318097e-06  1.1259311e+08
   2367000   2.2791571e-10  107421.91      107330.88      138225.24      2.7490296e-06  5.1769624e-07  2.2313333e-06  1.125857e+08 
   2368000   2.28012e-10    107416.32      107325.88      138021.98      2.7490286e-06  5.1781143e-07  2.2312171e-06  1.1258347e+08
   2369000   2.2810829e-10  107442.93      107353.12      137838.64      2.749015e-06   5.1724504e-07  2.2317699e-06  1.1259041e+08
   2370000   2.2820458e-10  107456.73      107367.15      137776.98      2.7490146e-06  5.1695797e-07  2.2320566e-06  1.1259365e+08
   2371000   2.2830087e-10  107460.55      107371.26      137683.03      2.7490215e-06  5.1688551e-07  2.232136e-06   1.1259523e+08
   2372000   2.2839716e-10  107446.3       107358.21      137268.62      2.7490322e-06  5.1719219e-07  2.23184e-06    1.1259208e+08
   2373000   2.2849344e-10  107425.79      107338.04      137135.48      2.7490237e-06  5.1760969e-07  2.231414e-06   1.1258529e+08
   2374000   2.2858973e-10  107427.18      107338.82      137337.73      2.7490457e-06  5.1760295e-07  2.2314428e-06  1.1258696e+08
   2375000   2.2868602e-10  107451.42      107361.99      137718.97      2.7490315e-06  5.1708527e-07  2.2319463e-06  1.125932e+08 
   2376000   2.2878231e-10  107444.98      107356.21      137494.11      2.7490231e-06  5.1721047e-07  2.2318126e-06  1.1258819e+08
   2377000   2.288786e-10   107430         107340.96      137568.07      2.7490111e-06  5.1750968e-07  2.2315014e-06  1.1258178e+08
   2378000   2.2897489e-10  107441.53      107351.25      137995.39      2.7490182e-06  5.1727741e-07  2.2317408e-06  1.1258784e+08
   2379000   2.2907118e-10  107448.55      107357.16      138372.5       2.7490238e-06  5.1713718e-07  2.2318866e-06  1.1259328e+08
   2380000   2.2916747e-10  107452.72      107361.33      138378.39      2.7490081e-06  5.1703471e-07  2.2319734e-06  1.1259377e+08
   2381000   2.2926375e-10  107458.38      107366.13      138670.99      2.7490058e-06  5.1691481e-07  2.232091e-06   1.1259413e+08
   2382000   2.2936004e-10  107441.84      107350.22      138444.14      2.7490053e-06  5.1725793e-07  2.2317474e-06  1.1258733e+08
   2383000   2.2945633e-10  107436.39      107345.8       138093.69      2.749013e-06   5.1737889e-07  2.2316342e-06  1.1258591e+08
   2384000   2.2955262e-10  107444.11      107353.76      138020.04      2.7490207e-06  5.1722618e-07  2.2317945e-06  1.1258891e+08
   2385000   2.2964891e-10  107453.68      107363.03      138127.65      2.7490318e-06  5.1703863e-07  2.2319932e-06  1.1259323e+08
   2386000   2.297452e-10   107453.01      107361.63      138372.86      2.7490366e-06  5.1705729e-07  2.2319793e-06  1.1259422e+08
   2387000   2.2984149e-10  107430.71      107340.33      138017.19      2.7490191e-06  5.1750291e-07  2.2315162e-06  1.1258714e+08
   2388000   2.2993778e-10  107438.96      107349.16      137833.34      2.7490363e-06  5.1734882e-07  2.2316875e-06  1.1259102e+08
   2389000   2.3003407e-10  107434.31      107344.65      137779.04      2.7490392e-06  5.1744831e-07  2.2315909e-06  1.1258805e+08
   2390000   2.3013035e-10  107434.12      107343.4       138133.63      2.7490249e-06  5.1743789e-07  2.231587e-06   1.1258737e+08
   2391000   2.3022664e-10  107445.58      107355.27      138009.36      2.7490207e-06  5.1719575e-07  2.231825e-06   1.1259135e+08
   2392000   2.3032293e-10  107437.65      107347.4       137980.65      2.7490206e-06  5.1736029e-07  2.2316603e-06  1.1258969e+08
   2393000   2.3041922e-10  107430.8       107340.67      137931         2.7490207e-06  5.1750275e-07  2.2315179e-06  1.1258757e+08
   2394000   2.3051551e-10  107456.09      107366.32      137839.13      2.7490343e-06  5.1699092e-07  2.2320433e-06  1.1259623e+08
   2395000   2.306118e-10   107441.15      107349.77      138362.08      2.7490305e-06  5.1729741e-07  2.2317331e-06  1.1258961e+08
   2396000   2.3070809e-10  107424.99      107331.42      139079.62      2.7490265e-06  5.1762911e-07  2.2313974e-06  1.1258594e+08
   2397000   2.3080438e-10  107421.59      107328.78      138817.61      2.7490183e-06  5.1769172e-07  2.2313266e-06  1.1258571e+08
   2398000   2.3090067e-10  107419.66      107326.48      138943.82      2.7490402e-06  5.1775359e-07  2.2312866e-06  1.1258636e+08
   2399000   2.3099695e-10  107437.77      107344.14      139114         2.7490468e-06  5.173839e-07   2.2316629e-06  1.1259272e+08
   2400000   2.3109324e-10  107441.65      107348.95      138801.71      2.7490454e-06  5.1730216e-07  2.2317433e-06  1.1259103e+08
   2401000   2.3118953e-10  107452.56      107361.19      138369.82      2.7490401e-06  5.1707014e-07  2.23197e-06    1.125925e+08 
   2402000   2.3128582e-10  107455.47      107366.9       137439.78      2.7490004e-06  5.1696986e-07  2.2320305e-06  1.1259019e+08
   2403000   2.3138211e-10  107452.14      107366.14      136573.04      2.7490126e-06  5.1705131e-07  2.2319613e-06  1.1259066e+08
   2404000   2.314784e-10   107442.53      107358.86      135786.22      2.7490148e-06  5.1725303e-07  2.2317617e-06  1.1258747e+08
   2405000   2.3157469e-10  107457.4       107374.91      135402.48      2.7490199e-06  5.1694945e-07  2.2320704e-06  1.1259392e+08
   2406000   2.3167098e-10  107454.09      107372.57      135078.22      2.7490361e-06  5.1703432e-07  2.2320018e-06  1.1259436e+08
   2407000   2.3176726e-10  107452.44      107370.05      135368.45      2.7490298e-06  5.1706233e-07  2.2319675e-06  1.1259252e+08
   2408000   2.3186355e-10  107457.42      107375.9       135082.09      2.7490086e-06  5.1693758e-07  2.232071e-06   1.1259186e+08
   2409000   2.3195984e-10  107456.3       107373.62      135468.62      2.7490093e-06  5.169616e-07   2.2320477e-06  1.1259233e+08
   2410000   2.3205613e-10  107444.2       107360.27      135873.44      2.7490039e-06  5.1720754e-07  2.2317964e-06  1.1258871e+08
   2411000   2.3215242e-10  107436.82      107352.18      136103.4       2.7490212e-06  5.173781e-07   2.2316431e-06  1.1258746e+08
   2412000   2.3224871e-10  107436.02      107353.46      135405.86      2.7490158e-06  5.1738936e-07  2.2316264e-06  1.1258763e+08
   2413000   2.32345e-10    107425.12      107342.36      135465.39      2.7490182e-06  5.1761806e-07  2.2314001e-06  1.1258451e+08
   2414000   2.3244129e-10  107427.69      107345.39      135311.79      2.7490338e-06  5.1758034e-07  2.2314535e-06  1.125871e+08 
   2415000   2.3253758e-10  107439.77      107357.53      135305.15      2.7490324e-06  5.1732807e-07  2.2317043e-06  1.1259012e+08
   2416000   2.3263386e-10  107438.14      107355.1       135571.92      2.7490185e-06  5.1734792e-07  2.2316705e-06  1.125876e+08 
   2417000   2.3273015e-10  107438.99      107355.6       135689.11      2.7490197e-06  5.1733153e-07  2.2316882e-06  1.1258812e+08
   2418000   2.3282644e-10  107436.28      107352.53      135802.26      2.7490452e-06  5.1741347e-07  2.2316317e-06  1.1258908e+08
   2419000   2.3292273e-10  107433.44      107348.3       136266.6       2.7490501e-06  5.1747732e-07  2.2315728e-06  1.1258944e+08
   2420000   2.3301902e-10  107442.91      107359.94      135550.37      2.7490402e-06  5.1727064e-07  2.2317695e-06  1.1259252e+08
   2421000   2.3311531e-10  107446.31      107364.01      135327.94      2.7490381e-06  5.1719795e-07  2.2318401e-06  1.1259346e+08
   2422000   2.332116e-10   107429.58      107346.73      135495.08      2.7490218e-06  5.1752918e-07  2.2314926e-06  1.1258647e+08
   2423000   2.3330789e-10  107435.7       107351.83      135842.3       2.749026e-06   5.1740627e-07  2.2316197e-06  1.1258873e+08
   2424000   2.3340418e-10  107446.95      107362.95      135900.34      2.7490196e-06  5.1716618e-07  2.2318535e-06  1.125922e+08 
   2425000   2.3350046e-10  107449.76      107364.64      136279.48      2.7490186e-06  5.1710672e-07  2.2319119e-06  1.1259269e+08
   2426000   2.3359675e-10  107446.27      107362.01      135986.87      2.7490294e-06  5.1719e-07     2.2318394e-06  1.1259122e+08
   2427000   2.3369304e-10  107447.06      107364.51      135414.36      2.7490216e-06  5.171659e-07   2.2318557e-06  1.1258973e+08
   2428000   2.3378933e-10  107450.4       107367.44      135557.69      2.7490175e-06  5.1709234e-07  2.2319252e-06  1.1259116e+08
   2429000   2.3388562e-10  107443         107358.38      136103.02      2.7490209e-06  5.1724942e-07  2.2317714e-06  1.125895e+08 
   2430000   2.3398191e-10  107442.2       107356.62      136420.58      2.7490279e-06  5.1727319e-07  2.2317547e-06  1.1259118e+08
   2431000   2.340782e-10   107451.03      107366.69      136016         2.7490471e-06  5.1710894e-07  2.2319381e-06  1.1259653e+08
   2432000   2.3417449e-10  107429.63      107347.84      135143.81      2.749043e-06   5.1754923e-07  2.2314937e-06  1.1258867e+08
   2433000   2.3427077e-10  107449.66      107367.32      135348.48      2.7490359e-06  5.1712611e-07  2.2319097e-06  1.1259494e+08
   2434000   2.3436706e-10  107435.59      107352.54      135569.3       2.7490188e-06  5.1740138e-07  2.2316174e-06  1.1258761e+08
   2435000   2.3446335e-10  107430.91      107346.53      136011.47      2.7490184e-06  5.1749802e-07  2.2315203e-06  1.1258637e+08
   2436000   2.3455964e-10  107431.49      107347.3       135945.72      2.7490006e-06  5.1746828e-07  2.2315323e-06  1.1258665e+08
   2437000   2.3465593e-10  107433.77      107350.12      135771.45      2.7490308e-06  5.1745106e-07  2.2315798e-06  1.125911e+08 
   2438000   2.3475222e-10  107435.84      107352.26      135747.95      2.7490386e-06  5.1741589e-07  2.2316227e-06  1.1259204e+08
   2439000   2.3484851e-10  107431.09      107348.38      135455.13      2.7490357e-06  5.1751154e-07  2.2315241e-06  1.1258865e+08
   2440000   2.349448e-10   107436.64      107355.14      135053.32      2.7490382e-06  5.1739887e-07  2.2316393e-06  1.1258911e+08
   2441000   2.3504109e-10  107446.41      107363.77      135443.44      2.7490359e-06  5.1719376e-07  2.2318422e-06  1.1259207e+08
   2442000   2.3513737e-10  107429.39      107346         135677.65      2.7490112e-06  5.1752253e-07  2.2314887e-06  1.1258397e+08
   2443000   2.3523366e-10  107436.79      107353.98      135493.71      2.7490076e-06  5.1736512e-07  2.2316425e-06  1.1258575e+08
   2444000   2.3532995e-10  107440.46      107357.75      135464.53      2.7490007e-06  5.1728198e-07  2.2317188e-06  1.1258521e+08
   2445000   2.3542624e-10  107439.17      107356.57      135424.64      2.7489987e-06  5.1730683e-07  2.2316919e-06  1.1258404e+08
   2446000   2.3552253e-10  107438.44      107355.78      135442.02      2.7490121e-06  5.1733544e-07  2.2316766e-06  1.125859e+08 
   2447000   2.3561882e-10  107456.04      107372.32      135814.91      2.7490243e-06  5.1698198e-07  2.2320423e-06  1.1259374e+08
   2448000   2.3571511e-10  107441.94      107358.33      135763.16      2.749028e-06   5.1727854e-07  2.2317494e-06  1.1258785e+08
   2449000   2.358114e-10   107446.94      107364.52      135370.51      2.7490264e-06  5.1717323e-07  2.2318532e-06  1.1258926e+08
   2450000   2.3590769e-10  107460.03      107377.84      135308.44      2.7490304e-06  5.1690516e-07  2.2321252e-06  1.1259441e+08
   2451000   2.3600397e-10  107447.59      107364.88      135469.28      2.749039e-06   5.1717216e-07  2.2318668e-06  1.1259167e+08
   2452000   2.3610026e-10  107433.1       107349.65      135701.93      2.7490113e-06  5.174454e-07   2.2315659e-06  1.1258555e+08
   2453000   2.3619655e-10  107434.89      107351.06      135831.52      2.7490241e-06  5.1742114e-07  2.2316029e-06  1.1258738e+08
   2454000   2.3629284e-10  107454.58      107370.16      136049.29      2.7490449e-06  5.1703287e-07  2.232012e-06   1.1259606e+08
   2455000   2.3638913e-10  107435.74      107352.26      135714.66      2.7490358e-06  5.1741519e-07  2.2316206e-06  1.1258929e+08
   2456000   2.3648542e-10  107413.62      107331.54      135225.09      2.7490344e-06  5.1787322e-07  2.2311612e-06  1.1258107e+08
   2457000   2.3658171e-10  107435.98      107353.63      135335.8       2.7490282e-06  5.1740261e-07  2.2316255e-06  1.1258977e+08
   2458000   2.36678e-10    107427.6       107344.83      135469.19      2.7490337e-06  5.1758214e-07  2.2314516e-06  1.1258835e+08
   2459000   2.3677429e-10  107424.23      107340.01      135950.16      2.749033e-06   5.1765139e-07  2.2313816e-06  1.1258623e+08
   2460000   2.3687057e-10  107447.5       107363.74      135821.07      2.7490142e-06  5.1714927e-07  2.231865e-06   1.1259226e+08
   2461000   2.3696686e-10  107455.39      107372.1       135671.92      2.7490398e-06  5.1701092e-07  2.2320288e-06  1.1259629e+08
   2462000   2.3706315e-10  107453.44      107369.27      135963.17      2.7490451e-06  5.1705683e-07  2.2319883e-06  1.1259523e+08
   2463000   2.3715944e-10  107461.08      107377.12      135900.8       2.7490507e-06  5.1690374e-07  2.232147e-06   1.1259775e+08
   2464000   2.3725573e-10  107457.26      107373.48      135836.1       2.7490372e-06  5.1696954e-07  2.2320677e-06  1.1259655e+08
   2465000   2.3735202e-10  107440.87      107360.32      134740.88      2.7490481e-06  5.173209e-07   2.2317272e-06  1.1259321e+08
   2466000   2.3744831e-10  107437.09      107357.88      134287.9       2.7490351e-06  5.1738637e-07  2.2316487e-06  1.1259105e+08
   2467000   2.375446e-10   107443.22      107364.41      134161.33      2.7490342e-06  5.1725818e-07  2.231776e-06   1.1259337e+08
   2468000   2.3764088e-10  107436.7       107358.16      134063.35      2.7490367e-06  5.1739611e-07  2.2316406e-06  1.125902e+08 
   2469000   2.3773717e-10  107445.25      107368.09      133613.36      2.7490339e-06  5.1721566e-07  2.2318182e-06  1.1259313e+08
   2470000   2.3783346e-10  107439.18      107362.01      133605.13      2.7490388e-06  5.1734677e-07  2.231692e-06   1.1259113e+08
   2471000   2.3792975e-10  107442.15      107365.02      133597.51      2.7490466e-06  5.172928e-07   2.2317538e-06  1.1259242e+08
   2472000   2.3802604e-10  107424.48      107348.66      133139.76      2.7490282e-06  5.1764156e-07  2.2313867e-06  1.1258621e+08
   2473000   2.3812233e-10  107419.04      107345.51      132370.82      2.7490323e-06  5.1775855e-07  2.2312738e-06  1.1258502e+08
   2474000   2.3821862e-10  107427.87      107354.17      132435.26      2.7490332e-06  5.1757599e-07  2.2314572e-06  1.1258771e+08
   2475000   2.3831491e-10  107432.55      107358.4       132591.34      2.7490417e-06  5.1748733e-07  2.2315544e-06  1.1259055e+08
   2476000   2.384112e-10   107432.57      107358.7       132499.54      2.7490399e-06  5.1748509e-07  2.2315548e-06  1.1259104e+08
   2477000   2.3850748e-10  107429.5       107357.14      131990.04      2.7490447e-06  5.175537e-07   2.231491e-06   1.125902e+08 
   2478000   2.3860377e-10  107428.75      107356.94      131804.11      2.7490255e-06  5.175501e-07   2.2314754e-06  1.1258637e+08
   2479000   2.3870006e-10  107444.13      107371.7       132026.78      2.7490327e-06  5.1723779e-07  2.2317949e-06  1.125914e+08 
   2480000   2.3879635e-10  107436.37      107362.13      132624.12      2.7490164e-06  5.1738281e-07  2.2316336e-06  1.1258636e+08
   2481000   2.3889264e-10  107442.89      107369.03      132503.02      2.7490253e-06  5.1725626e-07  2.2317691e-06  1.1258845e+08
   2482000   2.3898893e-10  107433.21      107359.31      132508.44      2.7490223e-06  5.1745429e-07  2.231568e-06   1.1258435e+08
   2483000   2.3908522e-10  107438.86      107365.39      132368.14      2.7490249e-06  5.1733955e-07  2.2316854e-06  1.1258736e+08
   2484000   2.3918151e-10  107442.58      107368.36      132623.32      2.7490315e-06  5.1726875e-07  2.2317627e-06  1.1258891e+08
   2485000   2.392778e-10   107447.24      107372.76      132715.54      2.7490185e-06  5.1715912e-07  2.2318594e-06  1.1258931e+08
   2486000   2.3937408e-10  107441.69      107368.15      132395.77      2.7490211e-06  5.17277e-07    2.2317441e-06  1.1258741e+08
   2487000   2.3947037e-10  107447.38      107373.48      132521.23      2.7490229e-06  5.1716058e-07  2.2318624e-06  1.1258923e+08
   2488000   2.3956666e-10  107461.27      107387.42      132517.64      2.7490162e-06  5.168654e-07   2.2321508e-06  1.125923e+08 
   2489000   2.3966295e-10  107446.71      107372.59      132596.64      2.7490131e-06  5.1716453e-07  2.2318486e-06  1.1258677e+08
   2490000   2.3975924e-10  107434.75      107360.89      132497.51      2.7490113e-06  5.1741117e-07  2.2316001e-06  1.1258336e+08
   2491000   2.3985553e-10  107434.36      107359.87      132705.36      2.749012e-06   5.1742005e-07  2.2315919e-06  1.1258396e+08
   2492000   2.3995182e-10  107449.29      107374.7       132755.47      2.7489985e-06  5.1709635e-07  2.2319021e-06  1.1258873e+08
   2493000   2.4004811e-10  107447.04      107371.18      133178.16      2.749011e-06   5.171556e-07   2.2318554e-06  1.1258902e+08
   2494000   2.4014439e-10  107454.62      107377.26      133687.04      2.7490128e-06  5.1699995e-07  2.2320128e-06  1.125922e+08 
   2495000   2.4024068e-10  107447.81      107369.25      134081.13      2.7490107e-06  5.1713934e-07  2.2318714e-06  1.1258959e+08
   2496000   2.4033697e-10  107443.25      107363.21      134572.25      2.7490074e-06  5.1723074e-07  2.2317767e-06  1.1258779e+08
   2497000   2.4043326e-10  107443.38      107364.36      134231.49      2.749018e-06   5.1723864e-07  2.2317794e-06  1.1258796e+08
   2498000   2.4052955e-10  107444.28      107365.99      133986.92      2.7490329e-06  5.1723495e-07  2.231798e-06   1.1258917e+08
   2499000   2.4062584e-10  107438.4       107361.33      133574.37      2.7490332e-06  5.173574e-07   2.2316758e-06  1.1258849e+08
   2500000   2.4072213e-10  107425.75      107346.64      134243.69      2.749e-06      5.1758683e-07  2.2314132e-06  1.1258246e+08
   2501000   2.4081842e-10  107439.91      107359.65      134640.46      2.7490168e-06  5.1730962e-07  2.2317071e-06  1.1258904e+08
   2502000   2.4091471e-10  107432.42      107351.47      134865.06      2.7490207e-06  5.1746904e-07  2.2315516e-06  1.1258528e+08
   2503000   2.4101099e-10  107450.89      107371.19      134466.01      2.7490101e-06  5.1707476e-07  2.2319353e-06  1.1259099e+08
   2504000   2.4110728e-10  107456.16      107376.33      134512.92      2.749004e-06   5.1695922e-07  2.2320447e-06  1.1259143e+08
   2505000   2.4120357e-10  107448.93      107367.78      134949.36      2.7490308e-06  5.1713622e-07  2.2318946e-06  1.1258996e+08
   2506000   2.4129986e-10  107446.85      107366.35      134729.16      2.7490277e-06  5.1717642e-07  2.2318513e-06  1.1258858e+08
   2507000   2.4139615e-10  107448.7       107368.04      134784.33      2.749011e-06   5.1712123e-07  2.2318898e-06  1.1258823e+08
   2508000   2.4149244e-10  107446.34      107365.49      134844.89      2.7490233e-06  5.1718258e-07  2.2318407e-06  1.1258725e+08
   2509000   2.4158873e-10  107451.86      107371.01      134851.15      2.7489967e-06  5.1704129e-07  2.2319554e-06  1.1258749e+08
   2510000   2.4168502e-10  107456.78      107374.38      135375.43      2.7490161e-06  5.1695848e-07  2.2320576e-06  1.1259291e+08
   2511000   2.4178131e-10  107456.59      107375.02      135095.91      2.7490308e-06  5.1697707e-07  2.2320538e-06  1.1259566e+08
   2512000   2.4187759e-10  107444.06      107363.03      134902.73      2.7490463e-06  5.1725281e-07  2.2317934e-06  1.1259293e+08
   2513000   2.4197388e-10  107429.88      107348.74      134924.65      2.7490329e-06  5.17534e-07    2.2314989e-06  1.125881e+08 
   2514000   2.4207017e-10  107423.9       107343.56      134651.86      2.749037e-06   5.1766234e-07  2.2313747e-06  1.1258577e+08
   2515000   2.4216646e-10  107439.25      107361.37      133845.85      2.7490377e-06  5.1734421e-07  2.2316935e-06  1.1258939e+08
   2516000   2.4226275e-10  107441.99      107364.94      133568.22      2.7490165e-06  5.1726608e-07  2.2317504e-06  1.1258822e+08
   2517000   2.4235904e-10  107446.11      107366.93      134286.56      2.7490331e-06  5.1719712e-07  2.231836e-06   1.1259018e+08
   2518000   2.4245533e-10  107438.73      107360.87      133837.46      2.7490231e-06  5.1734036e-07  2.2316828e-06  1.1258723e+08
   2519000   2.4255162e-10  107453.74      107375.47      133989.67      2.7490259e-06  5.170315e-07   2.2319944e-06  1.1259451e+08
   2520000   2.4264791e-10  107438.01      107358.66      134335.56      2.7490298e-06  5.1736196e-07  2.2316678e-06  1.1258927e+08
   2521000   2.4274419e-10  107446.44      107368.21      133968.37      2.749029e-06   5.1718621e-07  2.2318428e-06  1.125924e+08 
   2522000   2.4284048e-10  107443.03      107363.6       134368.11      2.7490422e-06  5.1727012e-07  2.231772e-06   1.1259191e+08
   2523000   2.4293677e-10  107430.68      107349.54      134928.44      2.7490287e-06  5.1751316e-07  2.2315155e-06  1.1258696e+08
   2524000   2.4303306e-10  107421.37      107339.3       135229.64      2.7490043e-06  5.1768216e-07  2.2313221e-06  1.1258212e+08
   2525000   2.4312935e-10  107433.17      107349.2       135875.55      2.7490178e-06  5.1745058e-07  2.2315672e-06  1.1258728e+08
   2526000   2.4322564e-10  107430.6       107346.34      135969.52      2.7490283e-06  5.1751445e-07  2.2315139e-06  1.1258746e+08
   2527000   2.4332193e-10  107426.69      107343.12      135736.88      2.7490399e-06  5.1760728e-07  2.2314327e-06  1.1258653e+08
   2528000   2.4341822e-10  107429.52      107347.07      135363.14      2.7490321e-06  5.1754063e-07  2.2314915e-06  1.1258637e+08
   2529000   2.435145e-10   107433.61      107350.97      135432.94      2.7490151e-06  5.1743876e-07  2.2315764e-06  1.1258717e+08
   2530000   2.4361079e-10  107421.02      107336.55      136031.9       2.7490177e-06  5.1770283e-07  2.2313148e-06  1.1258207e+08
   2531000   2.4370708e-10  107425.83      107340.34      136376.28      2.7490154e-06  5.1760063e-07  2.2314147e-06  1.1258297e+08
   2532000   2.4380337e-10  107430.13      107344.08      136567.68      2.7490148e-06  5.1751066e-07  2.2315041e-06  1.1258522e+08
   2533000   2.4389966e-10  107422.12      107336.41      136445.88      2.7490093e-06  5.1767164e-07  2.2313376e-06  1.1258391e+08
   2534000   2.4399595e-10  107415.4       107331.11      135962.54      2.7490224e-06  5.1782434e-07  2.231198e-06   1.1258431e+08
   2535000   2.4409224e-10  107417.43      107332.39      136218.12      2.7490331e-06  5.1779281e-07  2.2312403e-06  1.1258512e+08
   2536000   2.4418853e-10  107435.05      107349.93      136261.7       2.7490207e-06  5.1741447e-07  2.2316063e-06  1.1258853e+08
   2537000   2.4428482e-10  107438.59      107351.03      137083.88      2.749018e-06   5.1733808e-07  2.2316799e-06  1.1258844e+08
   2538000   2.443811e-10   107443.6       107355.07      137409.96      2.7490329e-06  5.1724906e-07  2.2317839e-06  1.1259175e+08
   2539000   2.4447739e-10  107447.34      107358.29      137587.49      2.749032e-06   5.171705e-07   2.2318615e-06  1.1259464e+08
   2540000   2.4457368e-10  107437.36      107348.05      137667.72      2.7490401e-06  5.1738571e-07  2.2316543e-06  1.1259187e+08
   2541000   2.4466997e-10  107441.61      107354.38      136975.46      2.7490372e-06  5.1729465e-07  2.2317425e-06  1.1259281e+08
   2542000   2.4476626e-10  107443.16      107357.88      136325.09      2.7490432e-06  5.1726835e-07  2.2317748e-06  1.1259249e+08
   2543000   2.4486255e-10  107439.88      107354.1       136487.83      2.7490173e-06  5.1731066e-07  2.2317067e-06  1.1258685e+08
   2544000   2.4495884e-10  107447         107361.53      136391.41      2.7490033e-06  5.171487e-07   2.2318546e-06  1.125881e+08 
   2545000   2.4505513e-10  107453.18      107367.87      136344.73      2.7490139e-06  5.1703109e-07  2.2319828e-06  1.1259199e+08
   2546000   2.4515142e-10  107436.68      107350.17      136728.72      2.7490422e-06  5.1740206e-07  2.2316402e-06  1.1258898e+08
   2547000   2.452477e-10   107437.93      107353.33      136090.09      2.7490296e-06  5.1736345e-07  2.2316661e-06  1.1258975e+08
   2548000   2.4534399e-10  107445.58      107363.42      135280.82      2.7490246e-06  5.1719966e-07  2.2318249e-06  1.1259174e+08
   2549000   2.4544028e-10  107441.94      107360.73      134959.25      2.749032e-06   5.1728266e-07  2.2317494e-06  1.1259114e+08
   2550000   2.4553657e-10  107437.36      107358.35      134220.38      2.7490284e-06  5.1737418e-07  2.2316542e-06  1.1259038e+08
   2551000   2.4563286e-10  107421.78      107342.9       134160.73      2.749024e-06   5.1769347e-07  2.2313306e-06  1.1258425e+08
   2552000   2.4572915e-10  107437.25      107358.47      134143.96      2.7490091e-06  5.1735712e-07  2.231652e-06   1.1258764e+08
   2553000   2.4582544e-10  107434.21      107355.59      134088.31      2.7490232e-06  5.1743437e-07  2.2315888e-06  1.1258723e+08
   2554000   2.4592173e-10  107427.81      107347.67      134588.36      2.7490162e-06  5.1756034e-07  2.2314559e-06  1.1258457e+08
   2555000   2.4601801e-10  107435.76      107354.22      135063.57      2.7490208e-06  5.1739977e-07  2.231621e-06   1.1258699e+08
   2556000   2.461143e-10   107432.27      107351.74      134726.48      2.7490101e-06  5.1746149e-07  2.2315486e-06  1.1258569e+08
   2557000   2.4621059e-10  107445.18      107365.42      134482.78      2.7489898e-06  5.1717297e-07  2.2318168e-06  1.1258866e+08
   2558000   2.4630688e-10  107452.01      107371.51      134734.65      2.7489973e-06  5.1703874e-07  2.2319586e-06  1.1259051e+08
   2559000   2.4640317e-10  107445.8       107365.96      134507.91      2.7490159e-06  5.1718638e-07  2.2318296e-06  1.1258832e+08
   2560000   2.4649946e-10  107454.2       107375.41      134166.67      2.7490128e-06  5.170086e-07   2.2320042e-06  1.1259008e+08
   2561000   2.4659575e-10  107452.03      107372.6       134377.3       2.7490129e-06  5.1705389e-07  2.231959e-06   1.1258814e+08
   2562000   2.4669204e-10  107476.81      107396.9       134560.58      2.7490257e-06  5.1655196e-07  2.2324737e-06  1.1259878e+08
   2563000   2.4678833e-10  107457.09      107377.36      134481.26      2.7490248e-06  5.1696071e-07  2.232064e-06   1.1259265e+08
   2564000   2.4688461e-10  107460.73      107381.42      134345.31      2.7490231e-06  5.1688343e-07  2.2321397e-06  1.1259402e+08
   2565000   2.469809e-10   107436.48      107357.81      134106.56      2.7490258e-06  5.1738985e-07  2.2316359e-06  1.1258594e+08
   2566000   2.4707719e-10  107434.3       107356.13      133935.2       2.7490441e-06  5.1745351e-07  2.2315906e-06  1.125879e+08 
   2567000   2.4717348e-10  107438.72      107359.96      134141.01      2.7490385e-06  5.1735589e-07  2.2316826e-06  1.1259047e+08
   2568000   2.4726977e-10  107428.57      107350.09      134033.94      2.7490372e-06  5.1756553e-07  2.2314717e-06  1.1258782e+08
   2569000   2.4736606e-10  107431.01      107354.53      133367.18      2.7490373e-06  5.1751496e-07  2.2315224e-06  1.125892e+08 
   2570000   2.4746235e-10  107435.46      107361.34      132582.14      2.7490405e-06  5.1742573e-07  2.2316147e-06  1.1258999e+08
   2571000   2.4755864e-10  107430.79      107355.47      132981.81      2.7490321e-06  5.1751427e-07  2.2315178e-06  1.1258613e+08
   2572000   2.4765493e-10  107438.49      107361.3       133616.24      2.7490318e-06  5.1735401e-07  2.2316778e-06  1.1258817e+08
   2573000   2.4775121e-10  107445.64      107368.94      133455.49      2.7490139e-06  5.1718773e-07  2.2318262e-06  1.1258931e+08
   2574000   2.478475e-10   107456.12      107378.97      133619.62      2.7490341e-06  5.169901e-07   2.232044e-06   1.1259491e+08
   2575000   2.4794379e-10  107453.32      107376.11      133636.36      2.7490277e-06  5.1704195e-07  2.2319858e-06  1.125943e+08 
   2576000   2.4804008e-10  107427.42      107349.18      133953.05      2.7490327e-06  5.1758491e-07  2.2314478e-06  1.1258666e+08
   2577000   2.4813637e-10  107428.64      107350.85      133804         2.7490252e-06  5.1755202e-07  2.2314732e-06  1.1258752e+08
   2578000   2.4823266e-10  107431.84      107354.62      133617.04      2.7490361e-06  5.1749648e-07  2.2315396e-06  1.1258859e+08
   2579000   2.4832895e-10  107448.01      107372.45      133077.8       2.7490334e-06  5.1715786e-07  2.2318756e-06  1.1259392e+08
   2580000   2.4842524e-10  107451.52      107377         132732.64      2.749025e-06   5.1707659e-07  2.2319484e-06  1.125944e+08 
   2581000   2.4852152e-10  107432.55      107359.43      132246.72      2.74902e-06    5.1746571e-07  2.2315543e-06  1.1258564e+08
   2582000   2.4861781e-10  107453.24      107381.73      131730.21      2.7490061e-06  5.1702198e-07  2.2319842e-06  1.1259201e+08
   2583000   2.487141e-10   107443.02      107373.35      131103.96      2.7490281e-06  5.1725613e-07  2.2317719e-06  1.1259078e+08
   2584000   2.4881039e-10  107438.87      107369.37      131039.65      2.7490255e-06  5.1733999e-07  2.2316855e-06  1.1258967e+08
   2585000   2.4890668e-10  107436.57      107367.07      131038.2       2.7490177e-06  5.173799e-07   2.2316378e-06  1.1258791e+08
   2586000   2.4900297e-10  107432.61      107364.58      130544.76      2.7490308e-06  5.1747514e-07  2.2315556e-06  1.1258688e+08
   2587000   2.4909926e-10  107449.56      107382.3       130304.49      2.7490235e-06  5.1711576e-07  2.2319078e-06  1.1259276e+08
   2588000   2.4919555e-10  107447.22      107380.47      130130.38      2.7490276e-06  5.1716857e-07  2.231859e-06   1.1259187e+08
   2589000   2.4929184e-10  107438.83      107371.62      130274.15      2.7490424e-06  5.1735767e-07  2.2316847e-06  1.1258962e+08
   2590000   2.4938812e-10  107452.45      107384.43      130561.83      2.7490276e-06  5.1705978e-07  2.2319678e-06  1.1259377e+08
   2591000   2.4948441e-10  107431.05      107362.71      130645.9       2.7490255e-06  5.1750224e-07  2.2315232e-06  1.1258584e+08
   2592000   2.495807e-10   107446.38      107377.43      130864.06      2.7490261e-06  5.1718449e-07  2.2318416e-06  1.1259125e+08
   2593000   2.4967699e-10  107437.43      107367.41      131211.9       2.7490094e-06  5.173538e-07   2.2316556e-06  1.1258555e+08
   2594000   2.4977328e-10  107451.64      107381.72      131194.68      2.7490105e-06  5.1705966e-07  2.2319509e-06  1.1259018e+08
   2595000   2.4986957e-10  107450.86      107380.68      131281.52      2.7490084e-06  5.1707369e-07  2.2319347e-06  1.1258888e+08
   2596000   2.4996586e-10  107450.45      107379.78      131445.58      2.7490033e-06  5.1707722e-07  2.2319261e-06  1.1258709e+08
   2597000   2.5006215e-10  107465.04      107393.42      131777.09      2.7490154e-06  5.1678612e-07  2.2322292e-06  1.125925e+08 
   2598000   2.5015844e-10  107464.36      107392.09      131994.05      2.7490408e-06  5.1682561e-07  2.2322152e-06  1.125969e+08 
   2599000   2.5025472e-10  107428.31      107355.24      132224.96      2.7490303e-06  5.1756415e-07  2.2314662e-06  1.1258628e+08
   2600000   2.5035101e-10  107413.14      107340.13      132191.82      2.7490488e-06  5.178975e-07   2.2311513e-06  1.1258228e+08
   2601000   2.504473e-10   107442.48      107369.01      132372.73      2.7490476e-06  5.1728707e-07  2.2317606e-06  1.1259292e+08
   2602000   2.5054359e-10  107437.36      107364.81      132060.7       2.7490449e-06  5.1739057e-07  2.2316543e-06  1.1259107e+08
   2603000   2.5063988e-10  107425.17      107353.37      131799.19      2.7490286e-06  5.1762751e-07  2.2314011e-06  1.1258521e+08
   2604000   2.5073617e-10  107445.48      107374.52      131537.07      2.7490354e-06  5.1721242e-07  2.231823e-06   1.1259155e+08
   2605000   2.5083246e-10  107448.88      107377.5       131680.23      2.7490291e-06  5.1713547e-07  2.2318936e-06  1.1259151e+08
   2606000   2.5092875e-10  107440.66      107370.11      131393.23      2.749034e-06   5.1731125e-07  2.2317227e-06  1.1258965e+08
   2607000   2.5102504e-10  107439.44      107369.66      131137.64      2.7490425e-06  5.17345e-07    2.2316975e-06  1.1259062e+08
   2608000   2.5112132e-10  107439.74      107370.58      130929.04      2.7490346e-06  5.1733101e-07  2.2317036e-06  1.1259021e+08
   2609000   2.5121761e-10  107447.49      107378.04      131034.24      2.7490394e-06  5.1717468e-07  2.2318647e-06  1.1259261e+08
   2610000   2.513139e-10   107447.22      107379.6       130423.41      2.7490214e-06  5.1716229e-07  2.2318591e-06  1.1258987e+08
   2611000   2.5141019e-10  107425.65      107358.95      130094.57      2.7490291e-06  5.1761797e-07  2.2314111e-06  1.1258427e+08
   2612000   2.5150648e-10  107424.92      107358.58      129971.4       2.749036e-06   5.1764015e-07  2.2313959e-06  1.1258657e+08
   2613000   2.5160277e-10  107435.42      107369.65      129789.91      2.7490391e-06  5.1742523e-07  2.2316139e-06  1.1259161e+08
   2614000   2.5169906e-10  107427.36      107360.72      130075.78      2.7490465e-06  5.1759984e-07  2.2314466e-06  1.1258998e+08
   2615000   2.5179535e-10  107453.61      107388.07      129733.46      2.7490649e-06  5.1707302e-07  2.2319919e-06  1.126002e+08 
   2616000   2.5189163e-10  107430.75      107366.1       129413.36      2.74906e-06    5.1754296e-07  2.2315171e-06  1.125908e+08 
   2617000   2.5198792e-10  107428.66      107365.22      129006.58      2.7490394e-06  5.1756582e-07  2.2314736e-06  1.1258885e+08
   2618000   2.5208421e-10  107421.14      107357.43      129085.99      2.7490357e-06  5.1771846e-07  2.2313173e-06  1.1258537e+08
   2619000   2.521805e-10   107443.33      107381.52      128476.13      2.7490291e-06  5.1725078e-07  2.2317784e-06  1.1259139e+08
   2620000   2.5227679e-10  107448.04      107386.96      128237.85      2.74903e-06    5.1715385e-07  2.2318762e-06  1.1259134e+08
   2621000   2.5237308e-10  107448.91      107388.1       128145.45      2.7490374e-06  5.1714335e-07  2.2318941e-06  1.1259222e+08
   2622000   2.5246937e-10  107442.94      107382.64      127968.69      2.7490361e-06  5.1726594e-07  2.2317701e-06  1.1259198e+08
   2623000   2.5256566e-10  107431.16      107371.95      127592.95      2.7490113e-06  5.174857e-07   2.2315256e-06  1.1258679e+08
   2624000   2.5266195e-10  107429.26      107370.59      127410.1       2.7490198e-06  5.175337e-07   2.2314861e-06  1.1258557e+08
   2625000   2.5275823e-10  107442.47      107381.72      128119.97      2.7490322e-06  5.1727169e-07  2.2317605e-06  1.1259047e+08
   2626000   2.5285452e-10  107438.21      107376.33      128493.58      2.7490423e-06  5.1737029e-07  2.231672e-06   1.1259017e+08
   2627000   2.5295081e-10  107427.29      107364.11      128916.45      2.7490412e-06  5.1759625e-07  2.231445e-06   1.1258719e+08
   2628000   2.530471e-10   107443.78      107377.36      130019.17      2.7490315e-06  5.1724381e-07  2.2317877e-06  1.1259258e+08
   2629000   2.5314339e-10  107450.32      107382.83      130380.24      2.7490295e-06  5.171061e-07   2.2319234e-06  1.1259434e+08
   2630000   2.5323968e-10  107442.97      107376.09      130168.49      2.7490311e-06  5.1726027e-07  2.2317708e-06  1.1259109e+08
   2631000   2.5333597e-10  107438.29      107372.08      129941.69      2.7490201e-06  5.1734638e-07  2.2316737e-06  1.1258852e+08
   2632000   2.5343226e-10  107426.42      107360.37      129874.49      2.7490151e-06  5.1758808e-07  2.231427e-06   1.1258305e+08
   2633000   2.5352855e-10  107445.48      107379.05      130021.45      2.7490155e-06  5.1719263e-07  2.2318229e-06  1.1258878e+08
   2634000   2.5362483e-10  107443.28      107377.77      129713.9       2.7490217e-06  5.1724445e-07  2.2317773e-06  1.125869e+08 
   2635000   2.5372112e-10  107450.51      107384.26      129967.58      2.7490259e-06  5.1709842e-07  2.2319275e-06  1.1259008e+08
   2636000   2.5381741e-10  107458.86      107393.69      129614.14      2.7490222e-06  5.1692132e-07  2.2321009e-06  1.1259381e+08
   2637000   2.539137e-10   107457.31      107391.68      129767.48      2.7490309e-06  5.1696213e-07  2.2320688e-06  1.1259563e+08
   2638000   2.5400999e-10  107444.26      107378.54      129783.37      2.7490365e-06  5.1723893e-07  2.2317976e-06  1.1259233e+08
   2639000   2.5410628e-10  107441.93      107375.78      129924.72      2.7490465e-06  5.1729719e-07  2.2317493e-06  1.1259327e+08
   2640000   2.5420257e-10  107428.3       107362.47      129804.21      2.7490428e-06  5.1757674e-07  2.231466e-06   1.1258739e+08
   2641000   2.5429886e-10  107445.72      107379.15      130071.43      2.749036e-06   5.1720807e-07  2.231828e-06   1.1259228e+08
   2642000   2.5439514e-10  107441.3       107374.08      130283.5       2.7490229e-06  5.172867e-07   2.2317362e-06  1.1258951e+08
   2643000   2.5449143e-10  107433.42      107365.43      130530.69      2.7490113e-06  5.174389e-07   2.2315724e-06  1.1258627e+08
   2644000   2.5458772e-10  107438.4       107369.23      130929.79      2.7490397e-06  5.1736394e-07  2.2316758e-06  1.1259057e+08
   2645000   2.5468401e-10  107465         107395.54      131054.47      2.749032e-06   5.1680357e-07  2.2322284e-06  1.1259961e+08
   2646000   2.547803e-10   107446.15      107375.56      131415.22      2.7490398e-06  5.17203e-07    2.2318368e-06  1.125923e+08 
   2647000   2.5487659e-10  107436.32      107365.49      131485.97      2.7490283e-06  5.1739563e-07  2.2316327e-06  1.1258787e+08
   2648000   2.5497288e-10  107431.48      107360.67      131471.08      2.7490159e-06  5.174838e-07   2.2315321e-06  1.1258429e+08
   2649000   2.5506917e-10  107453.66      107383.4       131310.29      2.7490088e-06  5.1701599e-07  2.2319928e-06  1.1259146e+08
   2650000   2.5516546e-10  107443.34      107374.26      130906.6       2.7490157e-06  5.1723716e-07  2.2317785e-06  1.1258756e+08
   2651000   2.5526174e-10  107445.26      107378.45      130148.45      2.7490114e-06  5.1719313e-07  2.2318183e-06  1.1258836e+08
   2652000   2.5535803e-10  107437.58      107370.35      130283.65      2.749019e-06   5.173601e-07   2.2316589e-06  1.1258587e+08
   2653000   2.5545432e-10  107434.79      107367.24      130385.28      2.7490265e-06  5.1742574e-07  2.2316008e-06  1.1258621e+08
   2654000   2.5555061e-10  107448.02      107381.79      129956.58      2.749032e-06   5.1715636e-07  2.2318756e-06  1.1259318e+08
   2655000   2.556469e-10   107440.64      107374.72      129847.45      2.7490434e-06  5.1732094e-07  2.2317224e-06  1.1259154e+08
   2656000   2.5574319e-10  107442.05      107377.12      129515.79      2.7490412e-06  5.1728961e-07  2.2317516e-06  1.1259186e+08
   2657000   2.5583948e-10  107427.61      107362.12      129689.48      2.7490536e-06  5.1760179e-07  2.2314518e-06  1.1258697e+08
   2658000   2.5593577e-10  107437.38      107369.49      130502.76      2.7490527e-06  5.1739797e-07  2.2316547e-06  1.1259023e+08
   2659000   2.5603206e-10  107452.69      107385.61      130245.28      2.7490397e-06  5.1706707e-07  2.2319726e-06  1.1259402e+08
   2660000   2.5612834e-10  107447.72      107382.19      129723.82      2.7490378e-06  5.1716841e-07  2.2318694e-06  1.1259223e+08
   2661000   2.5622463e-10  107452.31      107388.56      129130.85      2.7490307e-06  5.1706598e-07  2.2319647e-06  1.1259362e+08
   2662000   2.5632092e-10  107435.14      107371.68      129018.74      2.7490324e-06  5.1742417e-07  2.2316082e-06  1.1258622e+08
   2663000   2.5641721e-10  107442.65      107379.54      128906.28      2.749032e-06   5.172679e-07   2.2317641e-06  1.1258874e+08
   2664000   2.565135e-10   107440.34      107378.39      128519.78      2.7490267e-06  5.1731051e-07  2.2317162e-06  1.12589e+08  
   2665000   2.5660979e-10  107436.85      107373.98      128823.09      2.7490235e-06  5.173798e-07   2.2316437e-06  1.1258817e+08
   2666000   2.5670608e-10  107437.9       107374.75      128917.77      2.7490179e-06  5.1735232e-07  2.2316656e-06  1.1258883e+08
   2667000   2.5680237e-10  107425.7       107363.15      128705.34      2.7490266e-06  5.1761442e-07  2.2314121e-06  1.1258669e+08
   2668000   2.5689865e-10  107420.96      107359.14      128452.65      2.749036e-06   5.1772244e-07  2.2313135e-06  1.1258683e+08
   2669000   2.5699494e-10  107432.48      107370.75      128436.88      2.7490286e-06  5.1747559e-07  2.231553e-06   1.1259047e+08
   2670000   2.5709123e-10  107424.36      107363.52      128129.38      2.7490244e-06  5.1764022e-07  2.2313841e-06  1.1258643e+08
   2671000   2.5718752e-10  107433.46      107373.93      127703.37      2.7490118e-06  5.1743857e-07  2.2315732e-06  1.1258686e+08
   2672000   2.5728381e-10  107440.78      107382.3       127356.97      2.7490085e-06  5.1728334e-07  2.2317252e-06  1.1258792e+08
   2673000   2.573801e-10   107456.31      107397.3       127552.12      2.7490232e-06  5.1697531e-07  2.2320479e-06  1.1259307e+08
   2674000   2.5747639e-10  107461.67      107401.83      127834.76      2.7490186e-06  5.1685938e-07  2.2321592e-06  1.1259431e+08
   2675000   2.5757268e-10  107448.84      107389.18      127760.25      2.7490158e-06  5.1712304e-07  2.2318927e-06  1.1258954e+08
   2676000   2.5766897e-10  107455.05      107395.26      127810.21      2.7490105e-06  5.1698874e-07  2.2320217e-06  1.1259127e+08
   2677000   2.5776525e-10  107456.76      107396.82      127865.26      2.7490203e-06  5.1696301e-07  2.2320573e-06  1.1259142e+08
   2678000   2.5786154e-10  107466.25      107406.81      127704.21      2.7490215e-06  5.1676716e-07  2.2322544e-06  1.1259566e+08
   2679000   2.5795783e-10  107443.96      107385.54      127341.46      2.7490154e-06  5.1722407e-07  2.2317913e-06  1.1258829e+08
   2680000   2.5805412e-10  107453.96      107397.31      126761.1       2.749012e-06   5.1701289e-07  2.2319991e-06  1.125925e+08 
   2681000   2.5815041e-10  107444.02      107389.73      125962.63      2.7490245e-06  5.1723185e-07  2.2317927e-06  1.1258984e+08
   2682000   2.582467e-10   107449.02      107395.2       125808.17      2.749034e-06   5.1713752e-07  2.2318965e-06  1.1259255e+08
   2683000   2.5834299e-10  107425.14      107371.9       125590.08      2.7490398e-06  5.1763941e-07  2.2314004e-06  1.1258433e+08
   2684000   2.5843928e-10  107435.78      107383.4       125312.28      2.7490183e-06  5.1739693e-07  2.2316214e-06  1.125864e+08 
   2685000   2.5853557e-10  107442.32      107391.03      124956.16      2.7490225e-06  5.1726516e-07  2.2317574e-06  1.1258886e+08
   2686000   2.5863185e-10  107441.54      107387.81      125768.47      2.7490147e-06  5.1727368e-07  2.231741e-06   1.1258896e+08
   2687000   2.5872814e-10  107439.03      107384.37      126079.74      2.7490359e-06  5.1734701e-07  2.2316889e-06  1.1258997e+08
   2688000   2.5882443e-10  107429.32      107375.03      125947.98      2.7490371e-06  5.1754984e-07  2.2314873e-06  1.1258713e+08
   2689000   2.5892072e-10  107437.49      107384.18      125626.56      2.749042e-06   5.1738498e-07  2.231657e-06   1.125918e+08 
   2690000   2.5901701e-10  107427.4       107374.87      125355.02      2.7490349e-06  5.1758749e-07  2.2314474e-06  1.1258767e+08
   2691000   2.591133e-10   107435.15      107381.8       125637.18      2.7490275e-06  5.174192e-07   2.2316083e-06  1.1258882e+08
   2692000   2.5920959e-10  107449.43      107394.26      126260.21      2.7490335e-06  5.1712847e-07  2.231905e-06   1.1259239e+08
   2693000   2.5930588e-10  107466.75      107410.86      126517.49      2.7490348e-06  5.1677012e-07  2.2322647e-06  1.1259694e+08
   2694000   2.5940217e-10  107443.29      107385.18      127235.46      2.7490369e-06  5.1725954e-07  2.2317774e-06  1.1258859e+08
   2695000   2.5949845e-10  107436.13      107377.09      127541.7       2.7490417e-06  5.1741294e-07  2.2316287e-06  1.1258802e+08
   2696000   2.5959474e-10  107425.9       107367.33      127375.9       2.749027e-06   5.1761073e-07  2.2314163e-06  1.1258499e+08
   2697000   2.5969103e-10  107416.68      107358.58      127207.49      2.7490119e-06  5.1778713e-07  2.2312248e-06  1.1258128e+08
   2698000   2.5978732e-10  107429.6       107371.22      127314.16      2.7490457e-06  5.1755262e-07  2.231493e-06   1.1258912e+08
   2699000   2.5988361e-10  107435.19      107376.87      127300.12      2.7490422e-06  5.1743295e-07  2.2316092e-06  1.125893e+08 
   2700000   2.599799e-10   107457.17      107396.76      128021.48      2.7490179e-06  5.1695216e-07  2.2320658e-06  1.1259345e+08
   2701000   2.6007619e-10  107461.12      107400.5       128093.24      2.7490197e-06  5.1687191e-07  2.2321478e-06  1.1259322e+08
   2702000   2.6017248e-10  107448.72      107387.1       128413.83      2.7490142e-06  5.1712409e-07  2.2318902e-06  1.1258908e+08
   2703000   2.6026876e-10  107422.16      107359.43      128763.93      2.7490037e-06  5.1766508e-07  2.2313386e-06  1.1258035e+08
   2704000   2.6036505e-10  107430.46      107369.47      128185.99      2.748998e-06   5.1748712e-07  2.2315109e-06  1.1258287e+08
   2705000   2.6046134e-10  107460.14      107400.1       127899.21      2.7490156e-06  5.1688813e-07  2.2321274e-06  1.1259375e+08
   2706000   2.6055763e-10  107445.89      107385.89      127869.55      2.7490077e-06  5.1717633e-07  2.2318314e-06  1.1258658e+08
   2707000   2.6065392e-10  107450.2       107388.91      128307.02      2.7490066e-06  5.1708562e-07  2.231921e-06   1.1258875e+08
   2708000   2.6075021e-10  107461.03      107398.91      128596.31      2.749026e-06   5.1688011e-07  2.2321459e-06  1.1259372e+08
   2709000   2.608465e-10   107458.32      107396.8       128392.51      2.7490307e-06  5.1694101e-07  2.2320896e-06  1.125927e+08 
   2710000   2.6094279e-10  107437.3       107374.42      128828.42      2.7490298e-06  5.173767e-07   2.2316531e-06  1.1258717e+08
   2711000   2.6103908e-10  107452.03      107388.59      129026.5       2.7490272e-06  5.1706832e-07  2.2319589e-06  1.1259389e+08
   2712000   2.6113536e-10  107437.88      107375.41      128688.35      2.7490152e-06  5.1735015e-07  2.231665e-06   1.1258538e+08
   2713000   2.6123165e-10  107432.8       107371.79      128198.24      2.7490149e-06  5.1745527e-07  2.2315596e-06  1.1258233e+08
   2714000   2.6132794e-10  107445         107386.83      127258.6       2.7490278e-06  5.172149e-07   2.2318129e-06  1.1258994e+08
   2715000   2.6142423e-10  107437.6       107380.52      126885.89      2.7490034e-06  5.173442e-07   2.2316592e-06  1.1258702e+08
   2716000   2.6152052e-10  107429.19      107371.03      127240.86      2.7490283e-06  5.1754372e-07  2.2314845e-06  1.1258549e+08
   2717000   2.6161681e-10  107459.23      107400.49      127463.75      2.7490231e-06  5.1691456e-07  2.2321086e-06  1.1259411e+08
   2718000   2.617131e-10   107444.74      107385.36      127664.73      2.7490359e-06  5.1722826e-07  2.2318076e-06  1.1259e+08   
   2719000   2.6180939e-10  107441.11      107381.66      127680.88      2.7490256e-06  5.1729352e-07  2.2317321e-06  1.1258756e+08
   2720000   2.6190568e-10  107449.57      107388.88      128106.51      2.7490214e-06  5.1711348e-07  2.231908e-06   1.125898e+08 
   2721000   2.6200196e-10  107441.16      107380.23      128177.33      2.7490154e-06  5.1728218e-07  2.2317332e-06  1.1258731e+08
   2722000   2.6209825e-10  107437.2       107375.97      128275.61      2.7490138e-06  5.1736272e-07  2.231651e-06   1.1258676e+08
   2723000   2.6219454e-10  107437.98      107377.25      128109.31      2.7490249e-06  5.1735774e-07  2.2316672e-06  1.1258831e+08
   2724000   2.6229083e-10  107443.64      107383.37      127959.57      2.7490239e-06  5.172392e-07   2.2317847e-06  1.1259084e+08
   2725000   2.6238712e-10  107431.97      107371.28      128089.39      2.7490245e-06  5.1748227e-07  2.2315422e-06  1.125876e+08 
   2726000   2.6248341e-10  107434.27      107372.38      128492.54      2.7490174e-06  5.1742739e-07  2.23159e-06    1.125879e+08 
   2727000   2.625797e-10   107430.7       107367.92      128787.77      2.7490271e-06  5.1751116e-07  2.2315159e-06  1.1258806e+08
   2728000   2.6267599e-10  107417.06      107354.12      128825.91      2.7490238e-06  5.1779114e-07  2.2312327e-06  1.1258444e+08
   2729000   2.6277227e-10  107422.42      107359.34      128877.72      2.7490534e-06  5.1770956e-07  2.2313439e-06  1.1258917e+08
   2730000   2.6286856e-10  107430.05      107366.28      129117.86      2.7490599e-06  5.175574e-07   2.2315025e-06  1.1259244e+08
   2731000   2.6296485e-10  107410.32      107346.29      129184.13      2.7490529e-06  5.1796033e-07  2.2310925e-06  1.1258416e+08
   2732000   2.6306114e-10  107425.94      107361.41      129368.02      2.7490316e-06  5.176145e-07   2.2314171e-06  1.1258886e+08
   2733000   2.6315743e-10  107417.56      107353.48      129209.63      2.7490433e-06  5.1780019e-07  2.2312431e-06  1.1258662e+08
   2734000   2.6325372e-10  107427.22      107361.52      129757.21      2.7490449e-06  5.1760133e-07  2.2314436e-06  1.1258921e+08
   2735000   2.6335001e-10  107442.03      107376.34      129772.7       2.7490285e-06  5.172771e-07   2.2317514e-06  1.1259142e+08
   2736000   2.634463e-10   107440.72      107375.67      129556.69      2.7490269e-06  5.1730287e-07  2.231724e-06   1.1258872e+08
   2737000   2.6354259e-10  107450.73      107386.97      129133.67      2.7490186e-06  5.1708661e-07  2.231932e-06   1.1259089e+08
   2738000   2.6363887e-10  107453.4       107389.3       129251.7       2.7490152e-06  5.1702779e-07  2.2319875e-06  1.1259214e+08
   2739000   2.6373516e-10  107435.36      107372.07      128962.54      2.7490156e-06  5.1740295e-07  2.2316127e-06  1.125857e+08 
   2740000   2.6383145e-10  107436.91      107373.51      128997.9       2.7490264e-06  5.1738157e-07  2.2316449e-06  1.1258847e+08
   2741000   2.6392774e-10  107429.16      107366.63      128701.36      2.7490125e-06  5.1752857e-07  2.2314839e-06  1.1258491e+08
   2742000   2.6402403e-10  107446.87      107382.95      129183.04      2.7490097e-06  5.1715786e-07  2.2318518e-06  1.125911e+08 
   2743000   2.6412032e-10  107430.22      107366.56      129077.71      2.7490136e-06  5.1750771e-07  2.2315059e-06  1.1258454e+08
   2744000   2.6421661e-10  107446.16      107382.26      129175.58      2.7490148e-06  5.1717775e-07  2.2318371e-06  1.1259102e+08
   2745000   2.643129e-10   107441.94      107376.36      129734.25      2.7490148e-06  5.1726543e-07  2.2317494e-06  1.1258958e+08
   2746000   2.6440919e-10  107439         107372.34      130092.32      2.7490343e-06  5.1734585e-07  2.2316884e-06  1.1259039e+08
   2747000   2.6450547e-10  107450.57      107384.17      130014.99      2.7490283e-06  5.1709964e-07  2.2319286e-06  1.1259352e+08
   2748000   2.6460176e-10  107451.58      107384.25      130330.63      2.7490472e-06  5.1709747e-07  2.2319497e-06  1.1259404e+08
   2749000   2.6469805e-10  107454.87      107386.73      130603.27      2.7490379e-06  5.1701993e-07  2.232018e-06   1.1259537e+08
   2750000   2.6479434e-10  107437.69      107368.49      130941.97      2.7490103e-06  5.1734914e-07  2.2316612e-06  1.1258862e+08
   2751000   2.6489063e-10  107430.22      107359.89      131311.66      2.7490081e-06  5.1750219e-07  2.2315059e-06  1.1258451e+08
   2752000   2.6498692e-10  107453.76      107383.87      131187.23      2.7490215e-06  5.1702665e-07  2.2319949e-06  1.1259197e+08
   2753000   2.6508321e-10  107455.23      107385.15      131250.19      2.7490222e-06  5.169968e-07   2.2320254e-06  1.1259193e+08
   2754000   2.651795e-10   107452.18      107383.85      130663.2       2.7490186e-06  5.1705649e-07  2.2319621e-06  1.1259088e+08
   2755000   2.6527579e-10  107439.71      107372.01      130442.54      2.7490117e-06  5.1730855e-07  2.2317032e-06  1.1258522e+08
   2756000   2.6537207e-10  107448.41      107377.43      131546.74      2.7490234e-06  5.171397e-07   2.2318837e-06  1.1258901e+08
   2757000   2.6546836e-10  107452.99      107381.17      131833.96      2.7490048e-06  5.1702583e-07  2.231979e-06   1.1259032e+08
   2758000   2.6556465e-10  107448.93      107377.15      131813.54      2.7490152e-06  5.1712058e-07  2.2318946e-06  1.1258913e+08
   2759000   2.6566094e-10  107442.8       107371.1       131781.43      2.749005e-06   5.1723778e-07  2.2317672e-06  1.1258643e+08
   2760000   2.6575723e-10  107427.37      107355.41      131853.47      2.7490054e-06  5.1755873e-07  2.2314467e-06  1.1258167e+08
   2761000   2.6585352e-10  107418.46      107345.96      132026.41      2.7490034e-06  5.1774163e-07  2.2312618e-06  1.1257929e+08
   2762000   2.6594981e-10  107432.13      107358.18      132525.51      2.7490078e-06  5.1746212e-07  2.2315457e-06  1.1258386e+08
   2763000   2.660461e-10   107459.66      107386.73      132208.81      2.7490167e-06  5.1689933e-07  2.2321174e-06  1.1259383e+08
   2764000   2.6614238e-10  107453.1       107380.56      132072.86      2.749002e-06   5.1702071e-07  2.2319813e-06  1.1258934e+08
   2765000   2.6623867e-10  107446.5       107374.08      132028.15      2.7489976e-06  5.171534e-07   2.2318442e-06  1.1258791e+08
   2766000   2.6633496e-10  107444         107370.48      132389.54      2.7490067e-06  5.1721454e-07  2.2317921e-06  1.1258759e+08
   2767000   2.6643125e-10  107456.85      107381.93      132870.6       2.7490075e-06  5.1694841e-07  2.2320591e-06  1.125922e+08 
   2768000   2.6652754e-10  107446.47      107368.65      133830         2.7490048e-06  5.1716135e-07  2.2318435e-06  1.1258883e+08
   2769000   2.6662383e-10  107430.09      107351.47      134082.03      2.7490201e-06  5.1751698e-07  2.2315032e-06  1.1258466e+08
   2770000   2.6672012e-10  107434.82      107356.55      133968.19      2.7490339e-06  5.1743252e-07  2.2316014e-06  1.1258909e+08
   2771000   2.6681641e-10  107437.8       107360.4       133686         2.7490394e-06  5.1737593e-07  2.2316635e-06  1.1259266e+08
   2772000   2.669127e-10   107423.5       107346.35      133587.71      2.7490337e-06  5.1766725e-07  2.2313664e-06  1.1258704e+08
   2773000   2.6700898e-10  107430.85      107353.75      133576.92      2.7490584e-06  5.1753936e-07  2.231519e-06   1.1259163e+08
   2774000   2.6710527e-10  107414.25      107336.29      133844.33      2.7490452e-06  5.1787108e-07  2.2311741e-06  1.1258649e+08
   2775000   2.6720156e-10  107430.12      107351.95      133932.19      2.7490564e-06  5.1755244e-07  2.2315039e-06  1.1259279e+08
   2776000   2.6729785e-10  107452.94      107375.37      133755.18      2.7490754e-06  5.1709743e-07  2.2319779e-06  1.1260128e+08
   2777000   2.6739414e-10  107438.94      107361.2       133798.83      2.7490536e-06  5.1736648e-07  2.2316871e-06  1.12594e+08  
   2778000   2.6749043e-10  107425.53      107347.95      133729.31      2.7490468e-06  5.1763831e-07  2.2314085e-06  1.1258879e+08
   2779000   2.6758672e-10  107426.15      107349.21      133518.79      2.7490583e-06  5.1763688e-07  2.2314214e-06  1.1258985e+08
   2780000   2.6768301e-10  107435.09      107357.97      133588.97      2.7490445e-06  5.1743727e-07  2.2316072e-06  1.1259016e+08
   2781000   2.677793e-10   107441.19      107364.22      133545.27      2.7490321e-06  5.1729822e-07  2.2317339e-06  1.1258818e+08
   2782000   2.6787558e-10  107449.08      107370.47      134100.55      2.7490262e-06  5.1712845e-07  2.2318977e-06  1.125894e+08 
   2783000   2.6797187e-10  107443.55      107364.48      134248.03      2.7490118e-06  5.1722898e-07  2.2317828e-06  1.1258792e+08
   2784000   2.6806816e-10  107432.33      107352.68      134429.23      2.7490182e-06  5.1746844e-07  2.2315498e-06  1.1258535e+08
   2785000   2.6816445e-10  107434.97      107356.91      133902.35      2.7490265e-06  5.1742187e-07  2.2316047e-06  1.1258719e+08
   2786000   2.6826074e-10  107445.71      107370.52      132953.03      2.749021e-06   5.1719325e-07  2.2318278e-06  1.1259083e+08
   2787000   2.6835703e-10  107444.38      107368.97      133025.67      2.7490255e-06  5.1722533e-07  2.2318002e-06  1.1258932e+08
   2788000   2.6845332e-10  107453.14      107376.3       133511.85      2.7490204e-06  5.1703836e-07  2.2319821e-06  1.12593e+08  
   2789000   2.6854961e-10  107426.56      107349.11      133689.15      2.7490295e-06  5.1759962e-07  2.2314299e-06  1.1258579e+08
   2790000   2.6864589e-10  107442.51      107364.3       133957.26      2.7490343e-06  5.1727305e-07  2.2317612e-06  1.1259207e+08
   2791000   2.6874218e-10  107432.88      107353.99      134175.21      2.7490258e-06  5.1746465e-07  2.2315611e-06  1.1258705e+08
   2792000   2.6883847e-10  107425.69      107346.11      134399.81      2.7490236e-06  5.1761171e-07  2.2314119e-06  1.1258396e+08
   2793000   2.6893476e-10  107442.14      107362.48      134442.01      2.7490355e-06  5.1728196e-07  2.2317536e-06  1.1259155e+08
   2794000   2.6903105e-10  107441.97      107361.57      134690.31      2.749037e-06   5.1728698e-07  2.23175e-06    1.1259181e+08
   2795000   2.6912734e-10  107444.16      107363.42      134807.4       2.7490364e-06  5.1724087e-07  2.2317955e-06  1.1259361e+08
   2796000   2.6922363e-10  107437.93      107357.79      134599.45      2.7490391e-06  5.17373e-07    2.2316661e-06  1.1259241e+08
   2797000   2.6931992e-10  107442.52      107362.25      134647.57      2.7490336e-06  5.1727207e-07  2.2317615e-06  1.1259407e+08
   2798000   2.6941621e-10  107422.93      107342.79      134585.48      2.7490237e-06  5.1766912e-07  2.2313545e-06  1.1258648e+08
   2799000   2.6951249e-10  107439.29      107360.05      134302.22      2.7490244e-06  5.1733003e-07  2.2316944e-06  1.1259323e+08
   2800000   2.6960878e-10  107428.76      107348.67      134574.1       2.7490276e-06  5.1755202e-07  2.2314756e-06  1.1258845e+08
   2801000   2.6970507e-10  107430.22      107350.08      134591.03      2.7490353e-06  5.1752929e-07  2.231506e-06   1.1258917e+08
   2802000   2.6980136e-10  107444.16      107363.84      134665.18      2.7490398e-06  5.1724425e-07  2.2317955e-06  1.1259325e+08
   2803000   2.6989765e-10  107441.58      107359.46      135267.05      2.7490617e-06  5.1731963e-07  2.231742e-06   1.1259404e+08
   2804000   2.6999394e-10  107440.58      107356.74      135837.94      2.7490752e-06  5.1735411e-07  2.2317211e-06  1.1259499e+08
   2805000   2.7009023e-10  107440.95      107357.61      135671.99      2.749069e-06   5.1734023e-07  2.2317288e-06  1.1259655e+08
   2806000   2.7018652e-10  107432.55      107347.24      136321.69      2.7490523e-06  5.1749797e-07  2.2315543e-06  1.1259346e+08
   2807000   2.7028281e-10  107423.37      107338.07      136308.99      2.7490398e-06  5.1767617e-07  2.2313637e-06  1.1258862e+08
   2808000   2.7037909e-10  107432.06      107346.58      136379.63      2.7490444e-06  5.1750016e-07  2.2315442e-06  1.1259154e+08
   2809000   2.7047538e-10  107434.23      107347.23      136888.14      2.7490354e-06  5.1744625e-07  2.2315892e-06  1.125904e+08 
   2810000   2.7057167e-10  107440.88      107353.7       136957.19      2.7490224e-06  5.17295e-07    2.2317274e-06  1.1258948e+08
   2811000   2.7066796e-10  107451.33      107364.97      136693.37      2.7490266e-06  5.1708218e-07  2.2319444e-06  1.1259163e+08
   2812000   2.7076425e-10  107435.12      107348.69      136698.33      2.7490296e-06  5.1742197e-07  2.2316077e-06  1.1258563e+08
   2813000   2.7086054e-10  107446.85      107361.22      136443.37      2.7490329e-06  5.171815e-07   2.2318514e-06  1.1259186e+08
   2814000   2.7095683e-10  107438.15      107352.91      136303.98      2.7490358e-06  5.1736522e-07  2.2316706e-06  1.1259023e+08
   2815000   2.7105312e-10  107428.35      107343.13      136290.53      2.7490458e-06  5.1757869e-07  2.2314671e-06  1.1258825e+08
   2816000   2.711494e-10   107430.63      107346.17      136036.74      2.7490497e-06  5.1753529e-07  2.2315144e-06  1.125904e+08 
   2817000   2.7124569e-10  107430.46      107345.24      136290.29      2.7490525e-06  5.1754158e-07  2.2315109e-06  1.1259065e+08
   2818000   2.7134198e-10  107442.63      107356.32      136668.78      2.7490385e-06  5.1727477e-07  2.2317637e-06  1.1259382e+08
   2819000   2.7143827e-10  107436.83      107349.45      137018.76      2.7490526e-06  5.1740939e-07  2.2316432e-06  1.1259238e+08
   2820000   2.7153456e-10  107428.14      107341.89      136633.54      2.7490529e-06  5.1759022e-07  2.2314627e-06  1.1258924e+08
   2821000   2.7163085e-10  107438.21      107351.33      136852.03      2.7490479e-06  5.1737608e-07  2.2316718e-06  1.1259272e+08
   2822000   2.7172714e-10  107420.86      107335.71      136258.92      2.7490419e-06  5.1773042e-07  2.2313115e-06  1.1258529e+08
   2823000   2.7182343e-10  107437.2       107353.61      135750.43      2.7490314e-06  5.1738054e-07  2.2316508e-06  1.1259039e+08
   2824000   2.7191972e-10  107438.75      107356.59      135275.06      2.7490216e-06  5.1733857e-07  2.2316831e-06  1.1258942e+08
   2825000   2.72016e-10    107440.58      107358.96      135094.74      2.7490089e-06  5.1728778e-07  2.2317211e-06  1.1258932e+08
   2826000   2.7211229e-10  107452.78      107371.16      135109.44      2.7489967e-06  5.1702209e-07  2.2319746e-06  1.1259211e+08
   2827000   2.7220858e-10  107448.77      107366.61      135285.35      2.7489855e-06  5.1709423e-07  2.2318913e-06  1.1258879e+08
   2828000   2.7230487e-10  107439.58      107357.75      135166.51      2.748997e-06   5.1729672e-07  2.2317003e-06  1.1258586e+08
   2829000   2.7240116e-10  107437.86      107356.84      134891.8       2.7490089e-06  5.1734437e-07  2.2316646e-06  1.1258692e+08
   2830000   2.7249745e-10  107442.34      107360.12      135301.71      2.7490249e-06  5.1726717e-07  2.2317578e-06  1.1259058e+08
   2831000   2.7259374e-10  107430.48      107347.46      135555.39      2.749035e-06   5.1752358e-07  2.2315114e-06  1.1258815e+08
   2832000   2.7269003e-10  107421.9       107340.02      135167.19      2.7490261e-06  5.1769299e-07  2.2313331e-06  1.1258448e+08
   2833000   2.7278632e-10  107434.32      107353.31      134888.55      2.7490297e-06  5.1743856e-07  2.2315911e-06  1.1258808e+08
   2834000   2.728826e-10   107445.16      107364.43      134803.84      2.7490208e-06  5.172045e-07   2.2318163e-06  1.1259131e+08
   2835000   2.7297889e-10  107444.01      107365         134229.95      2.7490081e-06  5.1721566e-07  2.2317925e-06  1.125901e+08 
   2836000   2.7307518e-10  107429.61      107351.5       133912.89      2.7490124e-06  5.1751905e-07  2.2314934e-06  1.1258439e+08
   2837000   2.7317147e-10  107451.19      107375.14      133244.18      2.7490246e-06  5.1708317e-07  2.2319414e-06  1.1259289e+08
   2838000   2.7326776e-10  107436.76      107362.24      132718.87      2.7490252e-06  5.1738331e-07  2.2316419e-06  1.1258761e+08
   2839000   2.7336405e-10  107448.14      107372.42      133134.2       2.7490312e-06  5.1715296e-07  2.2318783e-06  1.1259332e+08
   2840000   2.7346034e-10  107422.22      107345.39      133477.98      2.7490359e-06  5.1769611e-07  2.2313398e-06  1.1258511e+08
   2841000   2.7355663e-10  107438.49      107361.6       133513.72      2.7490423e-06  5.173645e-07   2.2316778e-06  1.1259185e+08
   2842000   2.7365292e-10  107427.15      107350.6       133389.27      2.7490483e-06  5.176061e-07   2.2314422e-06  1.1258848e+08
   2843000   2.737492e-10   107441.56      107365.05      133389.25      2.7490629e-06  5.1732144e-07  2.2317414e-06  1.1259471e+08
   2844000   2.7384549e-10  107432.51      107354.51      133878.43      2.7490506e-06  5.1749709e-07  2.2315536e-06  1.1259082e+08
   2845000   2.7394178e-10  107422.98      107343.86      134241.41      2.7490557e-06  5.1770014e-07  2.2313555e-06  1.1258931e+08
   2846000   2.7403807e-10  107430.5       107352.16      133989.34      2.749051e-06   5.1753923e-07  2.2315117e-06  1.1259125e+08
   2847000   2.7413436e-10  107436.91      107356.84      134575.82      2.7490427e-06  5.1739774e-07  2.231645e-06   1.1259144e+08
   2848000   2.7423065e-10  107448.05      107367.26      134825.83      2.7490289e-06  5.1715265e-07  2.2318763e-06  1.1259336e+08
   2849000   2.7432694e-10  107449.74      107368.59      134950.12      2.749024e-06   5.171125e-07   2.2319115e-06  1.1259272e+08
   2850000   2.7442323e-10  107434.24      107353.64      134747.95      2.7490088e-06  5.1741941e-07  2.2315894e-06  1.1258602e+08
   2851000   2.7451951e-10  107429.21      107349.24      134532.82      2.7490138e-06  5.1752891e-07  2.2314849e-06  1.1258518e+08
   2852000   2.746158e-10   107437         107357.31      134449.47      2.7490117e-06  5.1736484e-07  2.2316469e-06  1.1258776e+08
   2853000   2.7471209e-10  107435.38      107355.97      134353.39      2.7490042e-06  5.1739114e-07  2.2316131e-06  1.1258475e+08
   2854000   2.7480838e-10  107427.5       107347.19      134645.93      2.7489993e-06  5.1754979e-07  2.2314495e-06  1.1257927e+08
   2855000   2.7490467e-10  107456.2       107374.59      135108.86      2.7489998e-06  5.1695418e-07  2.2320457e-06  1.1258929e+08
   2856000   2.7500096e-10  107451.73      107369.59      135282.61      2.7490062e-06  5.1705345e-07  2.2319527e-06  1.1258974e+08
   2857000   2.7509725e-10  107423.68      107340.51      135598.27      2.7490145e-06  5.1764437e-07  2.2313702e-06  1.1258355e+08
   2858000   2.7519354e-10  107424.96      107342.55      135345.32      2.749018e-06   5.1762138e-07  2.2313966e-06  1.1258597e+08
   2859000   2.7528983e-10  107435.12      107352.63      135385.38      2.7490228e-06  5.1741497e-07  2.2316078e-06  1.1259015e+08
   2860000   2.7538611e-10  107435.77      107353.71      135240.2       2.7490263e-06  5.1740506e-07  2.2316213e-06  1.1259028e+08
   2861000   2.754824e-10   107430.15      107348.8       134995         2.7490291e-06  5.1752467e-07  2.2315045e-06  1.1258778e+08
   2862000   2.7557869e-10  107434.51      107352.88      135096.14      2.7490218e-06  5.1742671e-07  2.2315951e-06  1.1258793e+08
   2863000   2.7567498e-10  107436.4       107355         135021.95      2.7490289e-06  5.1739447e-07  2.2316344e-06  1.1258876e+08
   2864000   2.7577127e-10  107449.84      107368.42      135040.55      2.7490364e-06  5.1712288e-07  2.2319135e-06  1.1259305e+08
   2865000   2.7586756e-10  107453.85      107372.43      135044.42      2.7490357e-06  5.1703894e-07  2.2319968e-06  1.1259336e+08
   2866000   2.7596385e-10  107439.78      107359.5       134650.21      2.7490249e-06  5.1732033e-07  2.2317046e-06  1.1258733e+08
   2867000   2.7606014e-10  107423.46      107344.24      134278.89      2.7490206e-06  5.1765504e-07  2.2313656e-06  1.1258235e+08
   2868000   2.7615643e-10  107427.87      107348.74      134252.19      2.7490346e-06  5.175774e-07   2.2314572e-06  1.125866e+08 
   2869000   2.7625271e-10  107433.85      107354.92      134192.32      2.7490299e-06  5.1744853e-07  2.2315814e-06  1.1258865e+08
   2870000   2.76349e-10    107438.45      107359.16      134315.37      2.7490271e-06  5.1735016e-07  2.2316769e-06  1.1259093e+08
   2871000   2.7644529e-10  107440.64      107363.56      133580.43      2.7490143e-06  5.1729187e-07  2.2317224e-06  1.1258949e+08
   2872000   2.7654158e-10  107449.45      107372.36      133594.13      2.7490199e-06  5.1711437e-07  2.2319055e-06  1.1259163e+08
   2873000   2.7663787e-10  107441.51      107363.91      133753.54      2.7490182e-06  5.1727778e-07  2.2317404e-06  1.1258763e+08
   2874000   2.7673416e-10  107442.38      107366.17      133290.81      2.74902e-06    5.1726149e-07  2.2317585e-06  1.1258891e+08
   2875000   2.7683045e-10  107432.67      107358.99      132432.25      2.7490141e-06  5.1745729e-07  2.2315568e-06  1.1258589e+08
   2876000   2.7692674e-10  107441.65      107370.32      131657.6       2.7490135e-06  5.1727018e-07  2.2317433e-06  1.1258868e+08
   2877000   2.7702302e-10  107443.28      107371.98      131648.11      2.7490283e-06  5.1725112e-07  2.2317772e-06  1.1258952e+08
   2878000   2.7711931e-10  107438.66      107365.46      132278.79      2.7490295e-06  5.1734836e-07  2.2316812e-06  1.1258791e+08
   2879000   2.772156e-10   107454.59      107381.07      132403.24      2.7490169e-06  5.1700476e-07  2.2320121e-06  1.1259316e+08
   2880000   2.7731189e-10  107446.23      107373.11      132260.27      2.7490155e-06  5.1717709e-07  2.2318384e-06  1.1258947e+08
   2881000   2.7740818e-10  107448.22      107376.34      131847.21      2.7489949e-06  5.1711508e-07  2.2318798e-06  1.1258905e+08
   2882000   2.7750447e-10  107450.8       107381.15      131106.2       2.7490109e-06  5.1707744e-07  2.2319335e-06  1.1259088e+08
   2883000   2.7760076e-10  107448.82      107379.14      131112.32      2.7490252e-06  5.1713283e-07  2.2318923e-06  1.1259226e+08
   2884000   2.7769705e-10  107436.93      107365.95      131537.79      2.7490207e-06  5.1737523e-07  2.2316454e-06  1.1258838e+08
   2885000   2.7779334e-10  107423.05      107350.28      132119.17      2.7490207e-06  5.1766374e-07  2.231357e-06   1.1258433e+08
   2886000   2.7788962e-10  107427.08      107354.67      132003.88      2.7490267e-06  5.1758602e-07  2.2314407e-06  1.1258596e+08
   2887000   2.7798591e-10  107442.94      107372.7       131295.07      2.7490099e-06  5.1723966e-07  2.2317702e-06  1.1258868e+08
   2888000   2.780822e-10   107437.41      107367.71      131107.2       2.7490133e-06  5.1735798e-07  2.2316553e-06  1.1258651e+08
   2889000   2.7817849e-10  107446.15      107375.92      131291.25      2.749026e-06   5.1718926e-07  2.2318368e-06  1.1259168e+08
   2890000   2.7827478e-10  107443.44      107372.02      131688.11      2.7490249e-06  5.1724439e-07  2.2317805e-06  1.1259058e+08
   2891000   2.7837107e-10  107438.32      107366.5       131815.85      2.749026e-06   5.1735184e-07  2.2316742e-06  1.1258917e+08
   2892000   2.7846736e-10  107432.35      107361.6       131454.1       2.7490377e-06  5.174874e-07   2.2315503e-06  1.1258858e+08
   2893000   2.7856365e-10  107432.98      107362.38      131404.32      2.7490429e-06  5.1747968e-07  2.2315632e-06  1.1258943e+08
   2894000   2.7865994e-10  107448.7       107378.81      131182.37      2.7490288e-06  5.1713895e-07  2.2318898e-06  1.1259405e+08
   2895000   2.7875622e-10  107431.64      107363.07      130725.19      2.7490294e-06  5.1749391e-07  2.2315355e-06  1.1258617e+08
   2896000   2.7885251e-10  107462.25      107393.48      130820.44      2.7490228e-06  5.1685147e-07  2.2321713e-06  1.1259592e+08
   2897000   2.789488e-10   107442.39      107374.68      130449.13      2.7490097e-06  5.1725094e-07  2.2317588e-06  1.1258763e+08
   2898000   2.7904509e-10  107430.05      107365.02      129536.31      2.7490115e-06  5.1750917e-07  2.2315023e-06  1.1258421e+08
   2899000   2.7914138e-10  107436.36      107372.32      129215.19      2.7490136e-06  5.1738007e-07  2.2316335e-06  1.1258613e+08
   2900000   2.7923767e-10  107440.28      107375.73      129388.84      2.7490249e-06  5.1731003e-07  2.2317149e-06  1.1258905e+08
   2901000   2.7933396e-10  107436.37      107371.09      129626.8       2.7490389e-06  5.1740525e-07  2.2316336e-06  1.1259035e+08
   2902000   2.7943025e-10  107438.18      107374.23      129183.8       2.7490376e-06  5.1736644e-07  2.2316712e-06  1.1259123e+08
   2903000   2.7952654e-10  107442.18      107378.76      129011.54      2.7490379e-06  5.1728359e-07  2.2317543e-06  1.125924e+08 
   2904000   2.7962282e-10  107427.41      107364.77      128737.68      2.7490157e-06  5.1756807e-07  2.2314476e-06  1.1258531e+08
   2905000   2.7971911e-10  107436.17      107372.98      128931.71      2.7490068e-06  5.1737713e-07  2.2316296e-06  1.1258673e+08
   2906000   2.798154e-10   107443.89      107381.92      128527.51      2.7490134e-06  5.1722354e-07  2.2317899e-06  1.1258823e+08
   2907000   2.7991169e-10  107444.96      107382.47      128703.25      2.7490286e-06  5.1721645e-07  2.2318122e-06  1.1259042e+08
   2908000   2.8000798e-10  107434.61      107370.74      129153.82      2.7490181e-06  5.1742107e-07  2.2315971e-06  1.1258585e+08
   2909000   2.8010427e-10  107452.31      107390.19      128588.57      2.7490287e-06  5.1706384e-07  2.2319649e-06  1.1259353e+08
   2910000   2.8020056e-10  107448.77      107386.81      128529.65      2.74902e-06    5.1712877e-07  2.2318912e-06  1.1259155e+08
   2911000   2.8029685e-10  107450.86      107388.95      128515.4       2.7490267e-06  5.1709192e-07  2.2319347e-06  1.1259216e+08
   2912000   2.8039313e-10  107449.41      107387.66      128463.18      2.749009e-06   5.1710435e-07  2.2319047e-06  1.1258966e+08
   2913000   2.8048942e-10  107438.55      107376.53      128541.38      2.749022e-06   5.1734299e-07  2.231679e-06   1.1258679e+08
   2914000   2.8058571e-10  107438.63      107376.52      128567.65      2.7490264e-06  5.173458e-07   2.2316806e-06  1.1258918e+08
   2915000   2.80682e-10    107436.28      107372.15      129244.52      2.7490586e-06  5.1742677e-07  2.2316318e-06  1.1259137e+08
   2916000   2.8077829e-10  107437.54      107373.37      129259.67      2.7490389e-06  5.1738085e-07  2.231658e-06   1.1259116e+08
   2917000   2.8087458e-10  107432.22      107368.82      128992.79      2.7490229e-06  5.1747553e-07  2.2315474e-06  1.1258838e+08
   2918000   2.8097087e-10  107424.29      107361.66      128730.29      2.7490187e-06  5.1763581e-07  2.2313829e-06  1.1258549e+08
   2919000   2.8106716e-10  107428.65      107366.57      128549.92      2.7490309e-06  5.1755748e-07  2.2314734e-06  1.1258907e+08
   2920000   2.8116345e-10  107437.46      107374.93      128710.04      2.7490346e-06  5.1737831e-07  2.2316563e-06  1.1259306e+08
   2921000   2.8125973e-10  107438.21      107376.23      128525.45      2.7490327e-06  5.1736075e-07  2.2316719e-06  1.1259189e+08
   2922000   2.8135602e-10  107440.18      107379.87      127968.64      2.7490527e-06  5.1733989e-07  2.2317128e-06  1.1259179e+08
   2923000   2.8145231e-10  107441.03      107381.66      127656.34      2.7490307e-06  5.1730023e-07  2.2317305e-06  1.1258872e+08
   2924000   2.815486e-10   107449.42      107389.38      127886.45      2.7490152e-06  5.1711051e-07  2.2319047e-06  1.1259062e+08
   2925000   2.8164489e-10  107422.86      107362.92      127830         2.7490056e-06  5.1765245e-07  2.2313532e-06  1.1257967e+08
   2926000   2.8174118e-10  107442.72      107381.54      128263.65      2.7490115e-06  5.172459e-07   2.2317656e-06  1.1258757e+08
   2927000   2.8183747e-10  107442.99      107381.04      128521.64      2.7490093e-06  5.1723796e-07  2.2317713e-06  1.1258866e+08
   2928000   2.8193376e-10  107448.66      107387.41      128293.78      2.7490289e-06  5.1713983e-07  2.2318891e-06  1.1259186e+08
   2929000   2.8203005e-10  107440.07      107378.58      128363.73      2.7490337e-06  5.1732325e-07  2.2317105e-06  1.125876e+08 
   2930000   2.8212633e-10  107451.12      107388.74      128673.06      2.7490407e-06  5.1710066e-07  2.2319401e-06  1.1259264e+08
   2931000   2.8222262e-10  107444.4       107381.6       128804.12      2.7490293e-06  5.1722894e-07  2.2318004e-06  1.125901e+08 
   2932000   2.8231891e-10  107446.49      107384.27      128616.12      2.7490207e-06  5.1717674e-07  2.2318439e-06  1.1259056e+08
   2933000   2.824152e-10   107438.2       107376.67      128374.94      2.7490437e-06  5.1737203e-07  2.2316717e-06  1.1259027e+08
   2934000   2.8251149e-10  107426.75      107365.9       128136.03      2.7490329e-06  5.1759911e-07  2.2314338e-06  1.1258645e+08
   2935000   2.8260778e-10  107441.77      107380.58      128267.8       2.7490439e-06  5.1729804e-07  2.2317459e-06  1.1259196e+08
   2936000   2.8270407e-10  107434.02      107373.68      127970.99      2.7490487e-06  5.1746391e-07  2.2315848e-06  1.1258825e+08
   2937000   2.8280036e-10  107453.02      107391.85      128271.95      2.7490311e-06  5.1705143e-07  2.2319796e-06  1.1259319e+08
   2938000   2.8289664e-10  107453.67      107392.74      128191.59      2.749031e-06   5.1703793e-07  2.2319931e-06  1.1259283e+08
   2939000   2.8299293e-10  107452.04      107391.83      127947.16      2.749033e-06   5.1707381e-07  2.2319592e-06  1.1259091e+08
   2940000   2.8308922e-10  107447.91      107388.26      127756.62      2.7490366e-06  5.1716316e-07  2.2318734e-06  1.1258896e+08
   2941000   2.8318551e-10  107438.36      107377.84      128040.85      2.7490398e-06  5.1736469e-07  2.2316751e-06  1.1258775e+08
   2942000   2.832818e-10   107443.48      107381.57      128509.04      2.749027e-06   5.1724565e-07  2.2317814e-06  1.1259043e+08
   2943000   2.8337809e-10  107427.73      107365.4       128634.55      2.7490327e-06  5.1757846e-07  2.2314543e-06  1.1258624e+08
   2944000   2.8347438e-10  107429.76      107367.12      128740.15      2.7490366e-06  5.1754018e-07  2.2314965e-06  1.1258804e+08
   2945000   2.8357067e-10  107436.86      107374.48      128659.19      2.7490393e-06  5.1739543e-07  2.2316439e-06  1.1259244e+08
   2946000   2.8366696e-10  107427.25      107365.01      128603.29      2.7490404e-06  5.1759605e-07  2.2314443e-06  1.1258848e+08
   2947000   2.8376324e-10  107436.86      107372.57      129297.17      2.7490347e-06  5.1739087e-07  2.2316439e-06  1.1259136e+08
   2948000   2.8385953e-10  107441.34      107376.94      129340.11      2.7490427e-06  5.1730568e-07  2.231737e-06   1.1259258e+08
   2949000   2.8395582e-10  107418.42      107353.52      129483.54      2.74902e-06    5.1775904e-07  2.2312609e-06  1.1258074e+08
   2950000   2.8405211e-10  107436.41      107372.06      129314.74      2.7490104e-06  5.1737601e-07  2.2316344e-06  1.1258589e+08
   2951000   2.841484e-10   107449.44      107385.47      129202.15      2.749019e-06   5.1711383e-07  2.2319052e-06  1.125916e+08 
   2952000   2.8424469e-10  107440.24      107376.33      129175.23      2.7490225e-06  5.1730836e-07  2.2317142e-06  1.1258906e+08
   2953000   2.8434098e-10  107438         107374.41      129066.25      2.7490228e-06  5.1735518e-07  2.2316676e-06  1.1258877e+08
   2954000   2.8443727e-10  107436.05      107373.55      128698.81      2.7490107e-06  5.1738359e-07  2.2316271e-06  1.125866e+08 
   2955000   2.8453356e-10  107438.17      107376.43      128445.51      2.7490133e-06  5.1734222e-07  2.2316711e-06  1.1258564e+08
   2956000   2.8462984e-10  107445.11      107383.49      128411.82      2.7490217e-06  5.172065e-07   2.2318152e-06  1.1258869e+08
   2957000   2.8472613e-10  107427.08      107365.87      128255.33      2.7490169e-06  5.1757625e-07  2.2314407e-06  1.1258405e+08
   2958000   2.8482242e-10  107405.86      107344.24      128372.93      2.7490284e-06  5.180284e-07   2.231e-06      1.1258047e+08
   2959000   2.8491871e-10  107432.11      107371.46      128074.33      2.7490329e-06  5.1748764e-07  2.2315452e-06  1.1259083e+08
   2960000   2.85015e-10    107420.8       107359.33      128336.33      2.749023e-06   5.1771276e-07  2.2313102e-06  1.1258433e+08
   2961000   2.8511129e-10  107438.79      107378.95      127813.6       2.7490289e-06  5.173449e-07   2.231684e-06   1.1259039e+08
   2962000   2.8520758e-10  107428.99      107369.06      127829.62      2.7490258e-06  5.1754541e-07  2.2314804e-06  1.1258746e+08
   2963000   2.8530387e-10  107424.03      107363.29      128097.46      2.7490327e-06  5.1765528e-07  2.2313774e-06  1.1258655e+08
   2964000   2.8540015e-10  107437.71      107375.22      128693.97      2.7490437e-06  5.1738226e-07  2.2316615e-06  1.1259168e+08
   2965000   2.8549644e-10  107434.22      107371.06      128914.96      2.7490539e-06  5.1746492e-07  2.2315889e-06  1.1259175e+08
   2966000   2.8559273e-10  107424.47      107359.38      129554.56      2.749047e-06   5.176604e-07   2.2313866e-06  1.1258906e+08
   2967000   2.8568902e-10  107442.61      107376.75      129829.46      2.749064e-06   5.1730066e-07  2.2317633e-06  1.125962e+08 
   2968000   2.8578531e-10  107432.74      107367.31      129675.29      2.7490704e-06  5.1751215e-07  2.2315583e-06  1.1259166e+08
   2969000   2.858816e-10   107429.79      107363.99      129797.44      2.7490775e-06  5.1758048e-07  2.231497e-06   1.1259105e+08
   2970000   2.8597789e-10  107429.29      107363.64      129744.41      2.7490635e-06  5.175768e-07   2.2314867e-06  1.1259098e+08
   2971000   2.8607418e-10  107438.48      107373.17      129638.08      2.7490666e-06  5.1738911e-07  2.2316775e-06  1.1259483e+08
   2972000   2.8617047e-10  107428.57      107363.21      129645.93      2.7490615e-06  5.1758988e-07  2.2314717e-06  1.1258954e+08
   2973000   2.8626675e-10  107431.18      107366.3       129487.73      2.749038e-06   5.1751216e-07  2.2315259e-06  1.125885e+08 
   2974000   2.8636304e-10  107433.28      107369.09      129262.02      2.7490334e-06  5.1746384e-07  2.2315696e-06  1.1258848e+08
   2975000   2.8645933e-10  107450.84      107388.1       128795.12      2.7490412e-06  5.1710682e-07  2.2319343e-06  1.1259412e+08
   2976000   2.8655562e-10  107437.61      107374.58      128877.77      2.7490185e-06  5.1735894e-07  2.2316596e-06  1.1258554e+08
   2977000   2.8665191e-10  107446.43      107383.04      129006.44      2.749013e-06   5.1717042e-07  2.2318426e-06  1.1258775e+08
   2978000   2.867482e-10   107443.85      107379.94      129175         2.7489832e-06  5.1719426e-07  2.231789e-06   1.1258538e+08
   2979000   2.8684449e-10  107432.9       107370.54      128646.3       2.7489923e-06  5.1743073e-07  2.2315616e-06  1.1258241e+08
   2980000   2.8694078e-10  107442.49      107381.66      128143.03      2.7490083e-06  5.1724757e-07  2.2317607e-06  1.1258711e+08
   2981000   2.8703707e-10  107447.3       107387.36      127852.14      2.7490107e-06  5.1715001e-07  2.2318607e-06  1.1258884e+08
   2982000   2.8713335e-10  107431.01      107372.95      127207.86      2.7490161e-06  5.1749363e-07  2.2315224e-06  1.1258484e+08
   2983000   2.8722964e-10  107437.68      107380.34      126973.74      2.7490304e-06  5.173695e-07   2.2316609e-06  1.1258967e+08
   2984000   2.8732593e-10  107443.32      107386.18      126912.79      2.7490294e-06  5.1725146e-07  2.231778e-06   1.1259171e+08
   2985000   2.8742222e-10  107445.27      107388.31      126854.48      2.7490237e-06  5.1720523e-07  2.2318185e-06  1.1259062e+08
   2986000   2.8751851e-10  107444.96      107388.11      126819.88      2.7490061e-06  5.1719387e-07  2.2318122e-06  1.1258749e+08
   2987000   2.876148e-10   107459.79      107404.07      126455.5       2.7490097e-06  5.1688943e-07  2.2321203e-06  1.1259263e+08
   2988000   2.8771109e-10  107440.14      107382.75      126993         2.7490038e-06  5.1729177e-07  2.231712e-06   1.1258522e+08
   2989000   2.8780738e-10  107441.39      107384.09      126965.08      2.7490179e-06  5.1728e-07     2.2317379e-06  1.1258699e+08
   2990000   2.8790367e-10  107448.32      107391.47      126820.61      2.7490023e-06  5.1712051e-07  2.2318818e-06  1.1258874e+08
   2991000   2.8799995e-10  107449.37      107391.63      127118.44      2.7490115e-06  5.1710777e-07  2.2319037e-06  1.1259029e+08
   2992000   2.8809624e-10  107443.91      107387.6       126637.65      2.7490239e-06  5.1723358e-07  2.2317903e-06  1.1258944e+08
   2993000   2.8819253e-10  107438.72      107382.18      126708.76      2.7490222e-06  5.173397e-07   2.2316825e-06  1.1258839e+08
   2994000   2.8828882e-10  107426.49      107368.85      127060.89      2.7490315e-06  5.1760308e-07  2.2314284e-06  1.1258507e+08
   2995000   2.8838511e-10  107422.93      107363.62      127615.43      2.7490315e-06  5.1767701e-07  2.2313545e-06  1.1258489e+08
   2996000   2.884814e-10   107432.77      107374.49      127282.83      2.7490455e-06  5.174866e-07   2.2315589e-06  1.1258913e+08
   2997000   2.8857769e-10  107447.08      107390.34      126781.72      2.7490461e-06  5.1719004e-07  2.2318561e-06  1.125938e+08 
   2998000   2.8867398e-10  107436.66      107379.53      126902.56      2.7490386e-06  5.1739893e-07  2.2316396e-06  1.1258921e+08
   2999000   2.8877026e-10  107440.08      107382.69      126995         2.7490318e-06  5.1732099e-07  2.2317108e-06  1.1259053e+08
   3000000   2.8886655e-10  107424.22      107367.42      126780.13      2.7490332e-06  5.1765183e-07  2.2313813e-06  1.1258394e+08
   3001000   2.8896284e-10  107436.35      107379.49      126811.26      2.7490341e-06  5.1740081e-07  2.2316333e-06  1.1258762e+08
   3002000   2.8905913e-10  107442.02      107385.42      126732.86      2.7490309e-06  5.1727979e-07  2.2317511e-06  1.1259059e+08
   3003000   2.8915542e-10  107437.92      107381.82      126560.33      2.7490226e-06  5.1735671e-07  2.2316659e-06  1.1258957e+08
   3004000   2.8925171e-10  107438.44      107384.08      125978.25      2.7490285e-06  5.1735181e-07  2.2316767e-06  1.1258934e+08
   3005000   2.89348e-10    107435.91      107381.37      126035.15      2.7490345e-06  5.174104e-07   2.2316241e-06  1.1258819e+08
   3006000   2.8944429e-10  107423.98      107368.57      126315.19      2.7490229e-06  5.1764646e-07  2.2313764e-06  1.1258478e+08
   3007000   2.8954058e-10  107420.8       107364.26      126690.5       2.7490324e-06  5.1772206e-07  2.2313104e-06  1.1258517e+08
   3008000   2.8963686e-10  107424         107365.52      127339.52      2.7490292e-06  5.176525e-07   2.2313767e-06  1.1258632e+08
   3009000   2.8973315e-10  107427.76      107369.06      127419.77      2.7490454e-06  5.1759047e-07  2.2314549e-06  1.1258842e+08
   3010000   2.8982944e-10  107436.98      107378.67      127299.28      2.7490445e-06  5.1739805e-07  2.2316464e-06  1.1259165e+08
   3011000   2.8992573e-10  107444.99      107385.89      127568.37      2.7490458e-06  5.1723311e-07  2.2318127e-06  1.125928e+08 
   3012000   2.9002202e-10  107456.92      107398.03      127513.42      2.7490558e-06  5.1699527e-07  2.2320606e-06  1.1259544e+08
   3013000   2.9011831e-10  107436.76      107377.87      127493.46      2.749021e-06   5.173791e-07   2.2316419e-06  1.1258554e+08
   3014000   2.902146e-10   107442         107383.54      127352.83      2.7490081e-06  5.1725737e-07  2.2317507e-06  1.1258704e+08
   3015000   2.9031089e-10  107448.94      107391.58      126992.61      2.7490077e-06  5.1711278e-07  2.2318949e-06  1.1258939e+08
   3016000   2.9040718e-10  107441.55      107386.51      126209.65      2.7490088e-06  5.1726748e-07  2.2317413e-06  1.1258803e+08
   3017000   2.9050346e-10  107447.39      107393.47      125839.91      2.7490217e-06  5.1715907e-07  2.2318626e-06  1.1259246e+08
   3018000   2.9059975e-10  107441.34      107387.99      125642.61      2.7490184e-06  5.1728151e-07  2.2317369e-06  1.1258972e+08
   3019000   2.9069604e-10  107431.27      107377.49      125776.4       2.7490195e-06  5.1749176e-07  2.2315278e-06  1.1258666e+08
   3020000   2.9079233e-10  107445.14      107390.79      125979.83      2.7490277e-06  5.1721191e-07  2.2318158e-06  1.1259129e+08
   3021000   2.9088862e-10  107440.19      107385.58      126065.3       2.7490306e-06  5.1731757e-07  2.2317131e-06  1.1258833e+08
   3022000   2.9098491e-10  107453.41      107398.66      126122.36      2.7490221e-06  5.1703453e-07  2.2319876e-06  1.1259285e+08
   3023000   2.910812e-10   107447.52      107393.03      126030.4       2.749028e-06   5.171627e-07   2.2318653e-06  1.1259018e+08
   3024000   2.9117749e-10  107440.26      107385.81      126010.21      2.749014e-06   5.1729963e-07  2.2317144e-06  1.1258615e+08
   3025000   2.9127377e-10  107451.03      107396.79      125951.82      2.7490111e-06  5.1707277e-07  2.2319383e-06  1.1259075e+08
   3026000   2.9137006e-10  107430.85      107377.48      125641.43      2.7490245e-06  5.1750536e-07  2.2315191e-06  1.1258457e+08
   3027000   2.9146635e-10  107439.39      107386.78      125393.65      2.7490297e-06  5.1733319e-07  2.2316965e-06  1.1258926e+08
   3028000   2.9156264e-10  107433.98      107381.18      125450.61      2.7490371e-06  5.1745303e-07  2.2315841e-06  1.1258873e+08
   3029000   2.9165893e-10  107436.79      107382.56      125935.06      2.7490326e-06  5.1739007e-07  2.2316425e-06  1.1259216e+08
   3030000   2.9175522e-10  107423.72      107371.02      125406.38      2.7490542e-06  5.1768333e-07  2.2313709e-06  1.1258845e+08
   3031000   2.9185151e-10  107421.89      107369.94      125153.55      2.7490384e-06  5.1770547e-07  2.2313329e-06  1.1258537e+08
   3032000   2.919478e-10   107447.97      107397.74      124603.67      2.749043e-06   5.1716844e-07  2.2318746e-06  1.1259263e+08
   3033000   2.9204409e-10  107457.39      107408.19      124273.78      2.7490423e-06  5.1697189e-07  2.2320704e-06  1.1259397e+08
   3034000   2.9214037e-10  107466.19      107416.89      124314.07      2.7490294e-06  5.1677622e-07  2.2322532e-06  1.1259679e+08
   3035000   2.9223666e-10  107452.22      107403.66      124051.09      2.7490242e-06  5.170613e-07   2.2319629e-06  1.1259056e+08
   3036000   2.9233295e-10  107442.01      107394.71      123620.15      2.7490174e-06  5.1726655e-07  2.2317508e-06  1.1258682e+08
   3037000   2.9242924e-10  107433.09      107386.06      123520.93      2.7490024e-06  5.1743683e-07  2.2315655e-06  1.1258313e+08
   3038000   2.9252553e-10  107448.96      107402.58      123319.88      2.7490001e-06  5.1710486e-07  2.2318952e-06  1.1258958e+08
   3039000   2.9262182e-10  107461.83      107416.53      122970.45      2.7490233e-06  5.1686074e-07  2.2321626e-06  1.125958e+08 
   3040000   2.9271811e-10  107454.41      107409.07      122975.48      2.7490347e-06  5.1702627e-07  2.2320084e-06  1.1259403e+08
   3041000   2.928144e-10   107443.54      107399.94      122384.23      2.7490308e-06  5.1724819e-07  2.2317826e-06  1.1259047e+08
   3042000   2.9291069e-10  107432.85      107389.66      122238.05      2.7490326e-06  5.1747201e-07  2.2315606e-06  1.1258643e+08
   3043000   2.9300697e-10  107438.82      107396.21      122049.54      2.7490286e-06  5.1734399e-07  2.2316846e-06  1.1258794e+08
   3044000   2.9310326e-10  107425.94      107382.95      122162.14      2.7490285e-06  5.1761156e-07  2.231417e-06   1.1258296e+08
   3045000   2.9319955e-10  107434.6       107390.11      122672.84      2.749025e-06   5.1742802e-07  2.2315969e-06  1.1258576e+08
   3046000   2.9329584e-10  107445.59      107401.8       122451.4       2.7490165e-06  5.1719124e-07  2.2318252e-06  1.1258861e+08
   3047000   2.9339213e-10  107456.8       107412.95      122483.25      2.7490121e-06  5.16954e-07    2.2320581e-06  1.1259174e+08
   3048000   2.9348842e-10  107441.44      107399.56      121804.76      2.7490227e-06  5.1728375e-07  2.2317389e-06  1.125872e+08 
   3049000   2.9358471e-10  107447.21      107406.94      121274.23      2.7490178e-06  5.1715887e-07  2.2318589e-06  1.1259037e+08
   3050000   2.93681e-10    107441.63      107400.17      121667.47      2.7490385e-06  5.1729552e-07  2.231743e-06   1.1258984e+08
   3051000   2.9377729e-10  107444.9       107403.16      121762.6       2.7490397e-06  5.1722892e-07  2.2318108e-06  1.1259081e+08
   3052000   2.9387357e-10  107452.78      107410.73      121873.48      2.7490448e-06  5.1707027e-07  2.2319745e-06  1.1259445e+08
   3053000   2.9396986e-10  107453.55      107409.02      122704.88      2.7490313e-06  5.1704081e-07  2.2319905e-06  1.1259392e+08
   3054000   2.9406615e-10  107437.74      107391.97      123104.09      2.7490313e-06  5.1736918e-07  2.2316621e-06  1.1258856e+08
   3055000   2.9416244e-10  107438.14      107393.28      122802.85      2.7490418e-06  5.1737134e-07  2.2316705e-06  1.125909e+08 
   3056000   2.9425873e-10  107441.46      107398.83      122059.15      2.7490439e-06  5.1730447e-07  2.2317394e-06  1.1259401e+08
   3057000   2.9435502e-10  107438         107395.94      121863.58      2.7490543e-06  5.1738665e-07  2.2316676e-06  1.1259483e+08
   3058000   2.9445131e-10  107436.93      107396.74      121237.4       2.7490479e-06  5.1740257e-07  2.2316453e-06  1.1259448e+08
   3059000   2.945476e-10   107425.82      107383.46      121950.55      2.7490405e-06  5.1762603e-07  2.2314145e-06  1.1259027e+08
   3060000   2.9464388e-10  107416.35      107371.93      122631.15      2.7490549e-06  5.1783715e-07  2.2312178e-06  1.125877e+08 
   3061000   2.9474017e-10  107424.94      107380.88      122520.6       2.7490623e-06  5.1766592e-07  2.2313963e-06  1.1259055e+08
   3062000   2.9483646e-10  107426.41      107383.25      122222.22      2.7490572e-06  5.176303e-07   2.2314269e-06  1.1259085e+08
   3063000   2.9493275e-10  107426.02      107383.5       122004.72      2.7490507e-06  5.1763203e-07  2.2314187e-06  1.125892e+08 
   3064000   2.9502904e-10  107447.59      107405.86      121762.32      2.7490444e-06  5.1717766e-07  2.2318668e-06  1.1259543e+08
   3065000   2.9512533e-10  107445.16      107402.11      122200.73      2.7490586e-06  5.1724242e-07  2.2318162e-06  1.1259462e+08
   3066000   2.9522162e-10  107447.32      107402.23      122886.16      2.7490488e-06  5.1718762e-07  2.2318612e-06  1.1259456e+08
   3067000   2.9531791e-10  107448.28      107400.88      123660.87      2.7490443e-06  5.1716328e-07  2.231881e-06   1.1259414e+08
   3068000   2.954142e-10   107443.67      107395.51      123907.74      2.749049e-06   5.1726372e-07  2.2317852e-06  1.1259384e+08
   3069000   2.9551048e-10  107420.34      107372.26      123860.47      2.7490531e-06  5.1775239e-07  2.2313007e-06  1.1258692e+08
   3070000   2.9560677e-10  107433.16      107385.12      123861         2.7490397e-06  5.1747256e-07  2.2315671e-06  1.1259123e+08
   3071000   2.9570306e-10  107425.62      107375.92      124408.04      2.749035e-06   5.1762449e-07  2.2314105e-06  1.1258685e+08
   3072000   2.9579935e-10  107427.53      107378.12      124309.19      2.7490224e-06  5.1757234e-07  2.23145e-06    1.1258557e+08
   3073000   2.9589564e-10  107446.53      107396.4       124570.62      2.7490242e-06  5.171795e-07   2.2318447e-06  1.1259287e+08
   3074000   2.9599193e-10  107450.91      107399.49      125007.79      2.7490366e-06  5.1710088e-07  2.2319358e-06  1.1259573e+08
   3075000   2.9608822e-10  107439.43      107388.01      124995.96      2.7490475e-06  5.1735015e-07  2.2316973e-06  1.1259194e+08
   3076000   2.9618451e-10  107449.32      107397.87      125016.42      2.7490449e-06  5.171422e-07   2.2319027e-06  1.1259572e+08
   3077000   2.962808e-10   107438.05      107385.94      125225.6       2.7490534e-06  5.1738484e-07  2.2316686e-06  1.12592e+08  
   3078000   2.9637708e-10  107449.6       107398.96      124747.21      2.7490315e-06  5.171229e-07   2.2319086e-06  1.1259438e+08
   3079000   2.9647337e-10  107452.05      107403.82      123941.06      2.7490482e-06  5.1708883e-07  2.2319594e-06  1.1259544e+08
   3080000   2.9656966e-10  107454.58      107407.05      123708.46      2.7490388e-06  5.1702685e-07  2.2320119e-06  1.1259369e+08
   3081000   2.9666595e-10  107448.42      107403.17      122942         2.7490432e-06  5.1715917e-07  2.231884e-06   1.1259075e+08
   3082000   2.9676224e-10  107444.75      107399.83      122828.1       2.7490164e-06  5.1720869e-07  2.2318077e-06  1.1258814e+08
   3083000   2.9685853e-10  107456.68      107411.77      122835.95      2.7490144e-06  5.1695877e-07  2.2320557e-06  1.1259412e+08
   3084000   2.9695482e-10  107437.24      107391.24      123182.06      2.7490134e-06  5.1736158e-07  2.2316518e-06  1.1258796e+08
   3085000   2.9705111e-10  107431.37      107385.3       123198.45      2.7490188e-06  5.1748901e-07  2.2315298e-06  1.1258499e+08
   3086000   2.9714739e-10  107458.7       107412.68      123210.03      2.7490224e-06  5.1692489e-07  2.2320975e-06  1.1259505e+08
   3087000   2.9724368e-10  107434.01      107387.39      123383.18      2.7490064e-06  5.1742179e-07  2.2315847e-06  1.1258401e+08
   3088000   2.9733997e-10  107439.3       107393.29      123185.87      2.7490019e-06  5.1730738e-07  2.2316945e-06  1.1258549e+08
   3089000   2.9743626e-10  107438.86      107394.18      122742.2       2.7490123e-06  5.1732686e-07  2.2316855e-06  1.125873e+08 
   3090000   2.9753255e-10  107432.86      107389.06      122440.34      2.7490208e-06  5.1745991e-07  2.2315609e-06  1.1258685e+08
   3091000   2.9762884e-10  107448.82      107404.73      122552.41      2.7490328e-06  5.1714054e-07  2.2318922e-06  1.1259417e+08
   3092000   2.9772513e-10  107428.37      107382.91      122992.76      2.7490298e-06  5.1756215e-07  2.2314676e-06  1.1258699e+08
   3093000   2.9782142e-10  107445.67      107400.36      122957.56      2.7490271e-06  5.1720024e-07  2.2318268e-06  1.1259231e+08
   3094000   2.9791771e-10  107461.7       107418.71      122200.25      2.7490382e-06  5.1687831e-07  2.2321599e-06  1.1259827e+08
   3095000   2.9801399e-10  107443.29      107401.61      121742.1       2.7490351e-06  5.1725768e-07  2.2317774e-06  1.1259192e+08
   3096000   2.9811028e-10  107436.75      107395.31      121657.61      2.7490178e-06  5.1737615e-07  2.2316417e-06  1.1258848e+08
   3097000   2.9820657e-10  107440.79      107397.83      122169.12      2.7490359e-06  5.1731043e-07  2.2317255e-06  1.125909e+08 
   3098000   2.9830286e-10  107439.98      107397.28      122081.49      2.7490429e-06  5.1733415e-07  2.2317088e-06  1.1259078e+08
   3099000   2.9839915e-10  107440.22      107395.55      122741.26      2.7490595e-06  5.1734581e-07  2.2317137e-06  1.1259219e+08
   3100000   2.9849544e-10  107433.46      107390.47      122172.07      2.7490423e-06  5.1746895e-07  2.2315733e-06  1.1259003e+08
   3101000   2.9859173e-10  107431.04      107389.1       121816         2.7490289e-06  5.175059e-07   2.231523e-06   1.125902e+08 
   3102000   2.9868802e-10  107432.09      107390.19      121806.18      2.7490247e-06  5.1747987e-07  2.2315449e-06  1.1258955e+08
   3103000   2.9878431e-10  107440.67      107397.43      122261.33      2.7490079e-06  5.1728483e-07  2.231723e-06   1.125898e+08 
   3104000   2.9888059e-10  107438.51      107397.13      121638.33      2.7490235e-06  5.1734537e-07  2.2316782e-06  1.1258851e+08
   3105000   2.9897688e-10  107462.6       107422.97      121074.54      2.7490149e-06  5.1683644e-07  2.2321785e-06  1.1259569e+08
   3106000   2.9907317e-10  107444.17      107404.25      121153.58      2.7490361e-06  5.1724046e-07  2.2317957e-06  1.1259007e+08
   3107000   2.9916946e-10  107451.1       107411.65      121005.1       2.7490337e-06  5.1709406e-07  2.2319397e-06  1.1259165e+08
   3108000   2.9926575e-10  107455.15      107416.07      120885.01      2.749027e-06   5.1700318e-07  2.2320238e-06  1.1259205e+08
   3109000   2.9936204e-10  107442.7       107402.28      121321.23      2.749018e-06   5.172527e-07   2.2317653e-06  1.1258817e+08
   3110000   2.9945833e-10  107447.61      107405.69      121827.65      2.7490348e-06  5.1716763e-07  2.2318672e-06  1.1259269e+08
   3111000   2.9955462e-10  107450.8       107407.39      122326.71      2.7490274e-06  5.1709409e-07  2.2319333e-06  1.1259357e+08
   3112000   2.996509e-10   107448.51      107404.23      122615.63      2.7490318e-06  5.1714602e-07  2.2318858e-06  1.1259336e+08
   3113000   2.9974719e-10  107440.09      107395.77      122622.89      2.7490324e-06  5.1732139e-07  2.231711e-06   1.1259103e+08
   3114000   2.9984348e-10  107437.12      107393.09      122521.87      2.7490239e-06  5.173746e-07   2.2316494e-06  1.1258908e+08
   3115000   2.9993977e-10  107431.49      107388.36      122213.64      2.7490313e-06  5.1749902e-07  2.2315323e-06  1.125874e+08 
   3116000   3.0003606e-10  107446.27      107402.55      122427.58      2.7490392e-06  5.1719996e-07  2.2318392e-06  1.1259384e+08
   3117000   3.0013235e-10  107441.31      107397.55      122433.9       2.7490375e-06  5.1730119e-07  2.2317363e-06  1.1259214e+08
   3118000   3.0022864e-10  107446.77      107402.47      122622.01      2.7490322e-06  5.1718246e-07  2.2318498e-06  1.1259336e+08
   3119000   3.0032493e-10  107439.22      107395.12      122550.04      2.7490477e-06  5.1735478e-07  2.231693e-06   1.1259095e+08
   3120000   3.0042122e-10  107438.32      107394.76      122364.17      2.7490322e-06  5.1735806e-07  2.2316741e-06  1.1258989e+08
   3121000   3.005175e-10   107426.72      107381.36      122957.26      2.7490352e-06  5.1760187e-07  2.2314333e-06  1.125862e+08 
   3122000   3.0061379e-10  107443.38      107397.92      123009.46      2.749042e-06   5.1726261e-07  2.2317794e-06  1.1259434e+08
   3123000   3.0071008e-10  107431.5       107386.19      122944.94      2.7490386e-06  5.1750597e-07  2.2315326e-06  1.1258944e+08
   3124000   3.0080637e-10  107438.53      107393.62      122816.11      2.7490433e-06  5.1736474e-07  2.2316785e-06  1.1259136e+08
   3125000   3.0090266e-10  107455.9       107410.14      123120.76      2.7490381e-06  5.1699868e-07  2.2320395e-06  1.1259717e+08
   3126000   3.0099895e-10  107445.97      107399.17      123456.27      2.7490464e-06  5.1721338e-07  2.2318331e-06  1.1259381e+08
   3127000   3.0109524e-10  107432.65      107384.33      123952.39      2.74904e-06    5.1748361e-07  2.2315564e-06  1.1258865e+08
   3128000   3.0119153e-10  107436.57      107388.99      123710.04      2.7490127e-06  5.1737483e-07  2.2316379e-06  1.1258794e+08
   3129000   3.0128782e-10  107430.47      107382.77      123743.58      2.7490245e-06  5.1751336e-07  2.2315111e-06  1.1258544e+08
   3130000   3.013841e-10   107430.41      107383         123646.16      2.7490381e-06  5.1752824e-07  2.2315098e-06  1.125859e+08 
   3131000   3.0148039e-10  107447.55      107398.32      124271.49      2.7490482e-06  5.171823e-07   2.2318659e-06  1.1259371e+08
   3132000   3.0157668e-10  107429.7       107381.21      124006.29      2.7490255e-06  5.1753032e-07  2.2314952e-06  1.1258554e+08
   3133000   3.0167297e-10  107432.61      107385.07      123691.67      2.7490151e-06  5.174595e-07   2.2315557e-06  1.1258557e+08
   3134000   3.0176926e-10  107444.21      107395.87      123969.82      2.7490079e-06  5.1721139e-07  2.2317965e-06  1.1258974e+08
   3135000   3.0186555e-10  107420.94      107372.28      124055.85      2.7490331e-06  5.1771983e-07  2.2313132e-06  1.1258484e+08
   3136000   3.0196184e-10  107422.75      107373.93      124107.27      2.7490188e-06  5.1766801e-07  2.2313507e-06  1.1258492e+08
   3137000   3.0205813e-10  107442.49      107393.49      124188.85      2.7490397e-06  5.1727879e-07  2.2317609e-06  1.1259266e+08
   3138000   3.0215442e-10  107443.55      107392.91      124737.76      2.7490277e-06  5.1724483e-07  2.2317828e-06  1.1258963e+08
   3139000   3.022507e-10   107474.08      107424.08      124558.39      2.7490248e-06  5.1660769e-07  2.2324171e-06  1.125994e+08 
   3140000   3.0234699e-10  107458.02      107408.95      124228.04      2.7490203e-06  5.1693683e-07  2.2320834e-06  1.1259289e+08
   3141000   3.0244328e-10  107449.43      107401.82      123730.94      2.7490142e-06  5.1710933e-07  2.2319049e-06  1.1259043e+08
   3142000   3.0253957e-10  107442.33      107392.39      124504.52      2.749014e-06   5.1725653e-07  2.2317575e-06  1.125909e+08 
   3143000   3.0263586e-10  107439.09      107388.28      124792.69      2.7490266e-06  5.1733636e-07  2.2316903e-06  1.125927e+08 
   3144000   3.0273215e-10  107420.02      107367.98      125183.28      2.7490141e-06  5.1772011e-07  2.231294e-06   1.1258316e+08
   3145000   3.0282844e-10  107442.88      107391.58      124961.13      2.7490121e-06  5.172431e-07   2.231769e-06   1.1258921e+08
   3146000   3.0292473e-10  107447.59      107396.88      124766.37      2.7490121e-06  5.1714545e-07  2.2318667e-06  1.1258934e+08
   3147000   3.0302101e-10  107435.57      107384.35      124925.51      2.749008e-06   5.173909e-07   2.2316171e-06  1.125856e+08 
   3148000   3.031173e-10   107441.56      107389.82      125105.2       2.7490009e-06  5.1725948e-07  2.2317414e-06  1.1258718e+08
   3149000   3.0321359e-10  107442.65      107390.43      125264.3       2.749014e-06   5.172499e-07   2.2317641e-06  1.125875e+08 
   3150000   3.0330988e-10  107450.76      107398.27      125366.6       2.7490158e-06  5.1708314e-07  2.2319326e-06  1.1259099e+08
   3151000   3.0340617e-10  107438.71      107387.66      124872.13      2.7490371e-06  5.1735475e-07  2.2316823e-06  1.1259085e+08
   3152000   3.0350246e-10  107425.88      107375.67      124578.01      2.7490337e-06  5.1761784e-07  2.2314159e-06  1.125877e+08 
   3153000   3.0359875e-10  107450.19      107400.57      124405.72      2.7490331e-06  5.171123e-07   2.2319208e-06  1.1259521e+08
   3154000   3.0369504e-10  107441.83      107391.74      124552.84      2.7490263e-06  5.1727923e-07  2.2317471e-06  1.1258898e+08
   3155000   3.0379133e-10  107457.56      107407.05      124707.61      2.7490327e-06  5.1695893e-07  2.2320738e-06  1.1259482e+08
   3156000   3.0388761e-10  107440.21      107389.83      124650.26      2.749013e-06   5.1729952e-07  2.2317135e-06  1.1258773e+08
   3157000   3.039839e-10   107445.42      107396.08      124304.4       2.749013e-06   5.1719141e-07  2.2318216e-06  1.1259101e+08
   3158000   3.0408019e-10  107431.95      107382.72      124253.96      2.7490244e-06  5.1748252e-07  2.2315418e-06  1.1258728e+08
   3159000   3.0417648e-10  107434.01      107384.69      124288.55      2.7490181e-06  5.1743338e-07  2.2315847e-06  1.1258714e+08
   3160000   3.0427277e-10  107446.47      107397.11      124314.77      2.749021e-06   5.171775e-07   2.2318435e-06  1.1259013e+08
   3161000   3.0436906e-10  107438.68      107389.85      124128.72      2.7490279e-06  5.173462e-07   2.2316817e-06  1.1258732e+08
   3162000   3.0446535e-10  107438.2       107388.36      124466.24      2.7490256e-06  5.1735394e-07  2.2316716e-06  1.1258998e+08
   3163000   3.0456164e-10  107432.76      107382.66      124548.06      2.749033e-06   5.1747424e-07  2.2315587e-06  1.1259199e+08
   3164000   3.0465793e-10  107416.91      107366.18      124742.67      2.7490479e-06  5.1781839e-07  2.2312295e-06  1.1258862e+08
   3165000   3.0475421e-10  107432.09      107380.76      124958.16      2.7490263e-06  5.1748158e-07  2.2315447e-06  1.1259126e+08
   3166000   3.048505e-10   107436.69      107383.62      125546.59      2.7490387e-06  5.1739831e-07  2.2316404e-06  1.1259083e+08
   3167000   3.0494679e-10  107444.02      107391.34      125422.89      2.7490427e-06  5.1725006e-07  2.2317927e-06  1.1259142e+08
   3168000   3.0504308e-10  107443.91      107390.48      125672.22      2.749039e-06   5.1724879e-07  2.2317902e-06  1.1259061e+08
   3169000   3.0513937e-10  107445.54      107390.56      126190.12      2.7490406e-06  5.1721654e-07  2.2318241e-06  1.1259136e+08
   3170000   3.0523566e-10  107436.25      107379.38      126813.88      2.7490534e-06  5.1742223e-07  2.2316312e-06  1.1258862e+08
   3171000   3.0533195e-10  107451.37      107394.51      126826.52      2.7490505e-06  5.1710517e-07  2.2319453e-06  1.1259447e+08
   3172000   3.0542824e-10  107447.04      107389.75      126967.2       2.7490265e-06  5.171711e-07   2.2318554e-06  1.1259057e+08
   3173000   3.0552452e-10  107435.37      107377.34      127200.03      2.7490205e-06  5.1740763e-07  2.2316128e-06  1.1258592e+08
   3174000   3.0562081e-10  107455.02      107396.48      127393.74      2.7490174e-06  5.1699631e-07  2.2320211e-06  1.1259182e+08
   3175000   3.057171e-10   107450.26      107391.03      127618.18      2.7490269e-06  5.171047e-07   2.2319222e-06  1.1259074e+08
   3176000   3.0581339e-10  107451.92      107392.63      127638.73      2.7490332e-06  5.170765e-07   2.2319567e-06  1.1259388e+08
   3177000   3.0590968e-10  107437.84      107378.81      127538.88      2.7490344e-06  5.1737015e-07  2.2316642e-06  1.1259024e+08
   3178000   3.0600597e-10  107431.83      107373.3       127365.24      2.7490406e-06  5.1750127e-07  2.2315393e-06  1.1258887e+08
   3179000   3.0610226e-10  107438.62      107380         127404.2       2.7490344e-06  5.1735382e-07  2.2316805e-06  1.1258958e+08
   3180000   3.0619855e-10  107456.78      107398.43      127331.07      2.7490387e-06  5.1698109e-07  2.2320577e-06  1.1259502e+08
   3181000   3.0629484e-10  107445.05      107388.27      126796.17      2.7490389e-06  5.1722489e-07  2.231814e-06   1.1259076e+08
   3182000   3.0639112e-10  107434.71      107378.12      126721.49      2.7490223e-06  5.1742298e-07  2.2315993e-06  1.1258671e+08
   3183000   3.0648741e-10  107446.55      107390.89      126421.41      2.7490262e-06  5.1718099e-07  2.2318452e-06  1.1259219e+08
   3184000   3.065837e-10   107444.93      107391.26      125755.09      2.7490214e-06  5.172099e-07   2.2318115e-06  1.1259073e+08
   3185000   3.0667999e-10  107445.83      107394.02      125132.82      2.7490442e-06  5.1721397e-07  2.2318302e-06  1.1259187e+08
   3186000   3.0677628e-10  107438.01      107386.93      124881.52      2.7490345e-06  5.1736673e-07  2.2316677e-06  1.1258881e+08
   3187000   3.0687257e-10  107433.92      107382.4       125025.84      2.7490152e-06  5.1743231e-07  2.2315828e-06  1.1258635e+08
   3188000   3.0696886e-10  107438.78      107387.2       125049.71      2.7490221e-06  5.1733825e-07  2.2316838e-06  1.1258715e+08
   3189000   3.0706515e-10  107441.72      107390.27      125007.31      2.7490147e-06  5.1726989e-07  2.2317448e-06  1.1258713e+08
   3190000   3.0716144e-10  107449.59      107399.49      124566.16      2.7490079e-06  5.1709957e-07  2.2319083e-06  1.1259112e+08
   3191000   3.0725772e-10  107439.65      107391.18      124008.07      2.7490148e-06  5.1731298e-07  2.2317018e-06  1.1258901e+08
   3192000   3.0735401e-10  107430.36      107382.71      123725.82      2.7490313e-06  5.1752242e-07  2.2315088e-06  1.125858e+08 
   3193000   3.074503e-10   107440.58      107392.65      123827.16      2.749037e-06   5.1731588e-07  2.2317211e-06  1.1258935e+08
   3194000   3.0754659e-10  107437.56      107389.08      124012.6       2.7490289e-06  5.1737041e-07  2.2316585e-06  1.125887e+08 
   3195000   3.0764288e-10  107434.24      107386.52      123751.82      2.7490333e-06  5.1744392e-07  2.2315894e-06  1.1258931e+08
   3196000   3.0773917e-10  107429.4       107381.49      123812.81      2.7490356e-06  5.1754657e-07  2.231489e-06   1.1258825e+08
   3197000   3.0783546e-10  107431.86      107384.4       123664.47      2.7490147e-06  5.1747463e-07  2.2315401e-06  1.1258694e+08
   3198000   3.0793175e-10  107424.56      107379.02      123016.28      2.7490194e-06  5.1763102e-07  2.2313884e-06  1.1258525e+08
   3199000   3.0802803e-10  107430.28      107385.23      122856.07      2.7490347e-06  5.1752753e-07  2.2315072e-06  1.1258933e+08
   3200000   3.0812432e-10  107434.72      107388.56      123234.24      2.7490329e-06  5.1743333e-07  2.2315995e-06  1.1258973e+08
   3201000   3.0822061e-10  107427.24      107383.67      122357.63      2.7490336e-06  5.1758963e-07  2.231444e-06   1.125862e+08 
   3202000   3.083169e-10   107432.07      107389.5       122027.23      2.7490181e-06  5.1747369e-07  2.2315444e-06  1.1258808e+08
   3203000   3.0841319e-10  107424.56      107382.58      121822.56      2.7490262e-06  5.1763789e-07  2.2313883e-06  1.1258517e+08
   3204000   3.0850948e-10  107428.53      107387.32      121571.04      2.7490281e-06  5.1755723e-07  2.2314709e-06  1.125848e+08 
   3205000   3.0860577e-10  107441.06      107400.62      121326.99      2.7490182e-06  5.1728713e-07  2.2317311e-06  1.1258969e+08
   3206000   3.0870206e-10  107438.67      107397.54      121554.01      2.749025e-06   5.1734355e-07  2.2316814e-06  1.125895e+08 
   3207000   3.0879835e-10  107439.51      107397.93      121704.66      2.7490288e-06  5.1732992e-07  2.2316989e-06  1.1258903e+08
   3208000   3.0889463e-10  107442.84      107400.26      122042.55      2.7490285e-06  5.1726041e-07  2.2317681e-06  1.1259006e+08
   3209000   3.0899092e-10  107457.52      107414.89      122073.6       2.7490234e-06  5.1695046e-07  2.232073e-06   1.1259504e+08
   3210000   3.0908721e-10  107443.95      107402.71      121598.44      2.7490365e-06  5.1724522e-07  2.2317913e-06  1.1259194e+08
   3211000   3.091835e-10   107435.77      107394.7       121531.52      2.7490355e-06  5.1741423e-07  2.2316213e-06  1.1258902e+08
   3212000   3.0927979e-10  107441.65      107401.23      121318.83      2.7490335e-06  5.1729019e-07  2.2317433e-06  1.1259087e+08
   3213000   3.0937608e-10  107434.13      107392.99      121552.41      2.7490331e-06  5.1744593e-07  2.2315872e-06  1.1258724e+08
   3214000   3.0947237e-10  107438.76      107397.49      121602.3       2.7490515e-06  5.1736816e-07  2.2316834e-06  1.1259047e+08
   3215000   3.0956866e-10  107458.43      107417.53      121495.85      2.7490179e-06  5.1692596e-07  2.232092e-06   1.1259471e+08
   3216000   3.0966495e-10  107459.46      107417.54      121836.76      2.7490201e-06  5.1690682e-07  2.2321133e-06  1.125957e+08 
   3217000   3.0976123e-10  107433.04      107389.13      122479         2.7490265e-06  5.17462e-07    2.2315645e-06  1.1258707e+08
   3218000   3.0985752e-10  107444.43      107399.49      122834.11      2.7490394e-06  5.172383e-07   2.2318011e-06  1.1259243e+08
   3219000   3.0995381e-10  107436.9       107390.09      123450.09      2.7490307e-06  5.17386e-07    2.2316447e-06  1.1258919e+08
   3220000   3.100501e-10   107447.5       107400.4       123558.39      2.7490218e-06  5.1715696e-07  2.2318649e-06  1.1259185e+08
   3221000   3.1014639e-10  107445.01      107398.36      123405.6       2.7490175e-06  5.1720432e-07  2.2318132e-06  1.1258958e+08
   3222000   3.1024268e-10  107438.45      107391.52      123490.88      2.7490269e-06  5.1735005e-07  2.2316768e-06  1.1258806e+08
   3223000   3.1033897e-10  107437.33      107389.96      123639.16      2.7490152e-06  5.1736146e-07  2.2316537e-06  1.1258743e+08
   3224000   3.1043526e-10  107436.18      107389.28      123479.46      2.7490116e-06  5.1738191e-07  2.2316297e-06  1.125864e+08 
   3225000   3.1053155e-10  107443.49      107397.14      123306.08      2.7490115e-06  5.1722983e-07  2.2317817e-06  1.1258898e+08
   3226000   3.1062783e-10  107433.07      107386.76      123278.37      2.7489956e-06  5.1743047e-07  2.2315651e-06  1.1258399e+08
   3227000   3.1072412e-10  107443.88      107397.91      123176.44      2.7490001e-06  5.1721036e-07  2.2317897e-06  1.1258711e+08
   3228000   3.1082041e-10  107448.8       107403.46      122973.07      2.7490019e-06  5.1710991e-07  2.231892e-06   1.1258741e+08
   3229000   3.109167e-10   107453.89      107408.02      123153.72      2.7490039e-06  5.1700641e-07  2.2319975e-06  1.1259058e+08
   3230000   3.1101299e-10  107432.2       107387.1       122876.94      2.7490191e-06  5.1747194e-07  2.2315471e-06  1.1258575e+08
   3231000   3.1110928e-10  107427.59      107383.98      122373.68      2.7490299e-06  5.1757845e-07  2.2314514e-06  1.1258693e+08
   3232000   3.1120557e-10  107427.11      107384.81      121934.48      2.7490452e-06  5.1760382e-07  2.2314413e-06  1.1258898e+08
   3233000   3.1130186e-10  107437.45      107395.42      121853.58      2.7490549e-06  5.1739869e-07  2.2316562e-06  1.1259366e+08
   3234000   3.1139814e-10  107446.07      107404.06      121855.6       2.7490604e-06  5.1722516e-07  2.2318352e-06  1.1259623e+08
   3235000   3.1149443e-10  107442.58      107402.31      121269.63      2.7490536e-06  5.1729086e-07  2.2317627e-06  1.1259517e+08
   3236000   3.1159072e-10  107428.01      107387.8       121236.1       2.7490404e-06  5.1758027e-07  2.2314601e-06  1.1258955e+08
   3237000   3.1168701e-10  107417.85      107377.57      121247.88      2.7490434e-06  5.1779443e-07  2.231249e-06   1.1258646e+08
   3238000   3.117833e-10   107421.47      107381.02      121309.01      2.7490502e-06  5.1772593e-07  2.2313243e-06  1.1258848e+08
   3239000   3.1187959e-10  107432.87      107391.87      121507         2.7490587e-06  5.1749768e-07  2.2315611e-06  1.125926e+08 
   3240000   3.1197588e-10  107440.25      107397.81      121993.22      2.7490495e-06  5.1733529e-07  2.2317143e-06  1.125948e+08 
   3241000   3.1207217e-10  107421.72      107378.77      122144.98      2.7490364e-06  5.1770705e-07  2.2313294e-06  1.1258671e+08
   3242000   3.1216846e-10  107437.1       107394.14      122163.15      2.7490341e-06  5.1738525e-07  2.2316488e-06  1.1259165e+08
   3243000   3.1226474e-10  107420.7       107378.56      121872.93      2.7490513e-06  5.1774314e-07  2.2313082e-06  1.1258671e+08
   3244000   3.1236103e-10  107417.25      107374.73      121995.86      2.7490383e-06  5.1780182e-07  2.2312365e-06  1.1258477e+08
   3245000   3.1245732e-10  107440.82      107400.67      121227.73      2.7490397e-06  5.1731357e-07  2.2317262e-06  1.1259198e+08
   3246000   3.1255361e-10  107455.42      107416.1       120966.33      2.7490516e-06  5.1702217e-07  2.2320295e-06  1.1259835e+08
   3247000   3.126499e-10   107440.24      107400.59      121061.98      2.7490489e-06  5.1733485e-07  2.2317141e-06  1.1259246e+08
   3248000   3.1274619e-10  107446.73      107407.68      120865.5       2.7490401e-06  5.1719123e-07  2.2318489e-06  1.1259264e+08
   3249000   3.1284248e-10  107462.98      107424.4       120725.96      2.7490152e-06  5.1682877e-07  2.2321864e-06  1.1259466e+08
   3250000   3.1293877e-10  107450.11      107410.66      121005.51      2.749006e-06   5.1708686e-07  2.2319192e-06  1.1258863e+08
   3251000   3.1303506e-10  107445.22      107405.63      121045.64      2.7490016e-06  5.1718412e-07  2.2318175e-06  1.1258737e+08
   3252000   3.1313134e-10  107448.61      107409.94      120741.43      2.749019e-06   5.171311e-07   2.2318879e-06  1.1259094e+08
   3253000   3.1322763e-10  107461.53      107423.08      120677.6       2.7490267e-06  5.1687049e-07  2.2321562e-06  1.1259731e+08
   3254000   3.1332392e-10  107452.2       107415.84      119972.8       2.7490591e-06  5.1709667e-07  2.2319625e-06  1.1259684e+08
   3255000   3.1342021e-10  107442.61      107407.35      119594.29      2.7490502e-06  5.1728688e-07  2.2317634e-06  1.1259371e+08
   3256000   3.135165e-10   107428.77      107394.21      119345.14      2.7490452e-06  5.175693e-07   2.2314758e-06  1.1258841e+08
   3257000   3.1361279e-10  107432.28      107398.02      119250.63      2.7490582e-06  5.1750942e-07  2.2315488e-06  1.1259121e+08
   3258000   3.1370908e-10  107438.84      107404.38      119322.22      2.7490769e-06  5.173919e-07   2.231685e-06   1.1259562e+08
   3259000   3.1380537e-10  107439.21      107405.6       119040.71      2.7490676e-06  5.1737482e-07  2.2316927e-06  1.1259638e+08
   3260000   3.1390165e-10  107437.03      107403.87      118886.68      2.7490625e-06  5.1741506e-07  2.2316474e-06  1.1259583e+08
   3261000   3.1399794e-10  107436.58      107402.05      119345.49      2.7490465e-06  5.1740845e-07  2.2316381e-06  1.1259351e+08
   3262000   3.1409423e-10  107426.45      107392.99      118974.62      2.7490443e-06  5.1761673e-07  2.2314276e-06  1.1258814e+08
   3263000   3.1419052e-10  107431.38      107397.31      119185.25      2.7490248e-06  5.1749473e-07  2.2315301e-06  1.1258686e+08
   3264000   3.1428681e-10  107443.59      107410.22      118964.89      2.7490249e-06  5.1724123e-07  2.2317837e-06  1.1258891e+08
   3265000   3.143831e-10   107449.27      107415.64      119058.04      2.7490054e-06  5.1710374e-07  2.2319017e-06  1.1258865e+08
   3266000   3.1447939e-10  107432.34      107398.69      119045.09      2.7490022e-06  5.1745226e-07  2.2315499e-06  1.1258321e+08
   3267000   3.1457568e-10  107438.49      107406.32      118557.3       2.7490218e-06  5.1734408e-07  2.2316777e-06  1.1258885e+08
   3268000   3.1467197e-10  107443.31      107412.48      118114.16      2.7490266e-06  5.1724881e-07  2.2317778e-06  1.1259191e+08
   3269000   3.1476825e-10  107438.06      107406.49      118356.69      2.7490336e-06  5.1736482e-07  2.2316688e-06  1.1259029e+08
   3270000   3.1486454e-10  107438.11      107406.38      118409.53      2.7490353e-06  5.1736548e-07  2.2316699e-06  1.1259052e+08
   3271000   3.1496083e-10  107434.3       107401.73      118688.87      2.7490427e-06  5.174519e-07   2.2315908e-06  1.1259043e+08
   3272000   3.1505712e-10  107436.61      107404.17      118642.8       2.7490249e-06  5.1738626e-07  2.2316386e-06  1.1258904e+08
   3273000   3.1515341e-10  107445.6       107414.07      118349.93      2.7490289e-06  5.1720348e-07  2.2318254e-06  1.1259127e+08
   3274000   3.152497e-10   107445.99      107415.82      117895.04      2.7490244e-06  5.1719097e-07  2.2318335e-06  1.1259047e+08
   3275000   3.1534599e-10  107445.14      107415.33      117774.22      2.7490211e-06  5.1720534e-07  2.2318158e-06  1.1259074e+08
   3276000   3.1544228e-10  107448.28      107418.05      117915.91      2.7490237e-06  5.1714274e-07  2.231881e-06   1.1259284e+08
   3277000   3.1553857e-10  107447.04      107417.43      117707.64      2.7490227e-06  5.1716745e-07  2.2318553e-06  1.1259145e+08
   3278000   3.1563485e-10  107419.1       107390.05      117493.36      2.7490341e-06  5.1775916e-07  2.231275e-06   1.1258098e+08
   3279000   3.1573114e-10  107440.25      107410.63      117704.06      2.7490126e-06  5.1729833e-07  2.2317143e-06  1.1258657e+08
   3280000   3.1582743e-10  107455.2       107424.84      117966.68      2.7490062e-06  5.1698136e-07  2.2320248e-06  1.1259129e+08
   3281000   3.1592372e-10  107443.37      107411.9       118329.84      2.7490158e-06  5.1723664e-07  2.2317792e-06  1.1258798e+08
   3282000   3.1602001e-10  107429.38      107397.59      118420.2       2.749006e-06   5.175176e-07   2.2314884e-06  1.1258222e+08
   3283000   3.161163e-10   107457.9       107425.07      118797.71      2.749019e-06   5.1693796e-07  2.232081e-06   1.1259398e+08
   3284000   3.1621259e-10  107442.07      107410.29      118430.81      2.7490265e-06  5.1727437e-07  2.2317521e-06  1.1258987e+08
   3285000   3.1630888e-10  107436.25      107405.73      118003.53      2.749017e-06   5.1738576e-07  2.2316312e-06  1.1258897e+08
   3286000   3.1640517e-10  107415.8       107387.05      117391.27      2.7490114e-06  5.1780498e-07  2.2312065e-06  1.1258133e+08
   3287000   3.1650145e-10  107441.95      107414.87      116857.93      2.749016e-06   5.1726648e-07  2.2317496e-06  1.125893e+08 
   3288000   3.1659774e-10  107441.94      107414.87      116855.94      2.7490202e-06  5.1727081e-07  2.2317494e-06  1.1258828e+08
   3289000   3.1669403e-10  107429.02      107402.85      116542.77      2.7490147e-06  5.1753363e-07  2.2314811e-06  1.1258394e+08
   3290000   3.1679032e-10  107433.49      107406.18      116925.05      2.7489954e-06  5.1742156e-07  2.2315738e-06  1.1258356e+08
   3291000   3.1688661e-10  107455.06      107427.52      117023.27      2.7489858e-06  5.1696387e-07  2.2320219e-06  1.1258941e+08
   3292000   3.169829e-10   107442.01      107414.93      116858.62      2.7490023e-06  5.1725143e-07  2.2317509e-06  1.1258721e+08
   3293000   3.1707919e-10  107445.1       107416.21      117466.7       2.7490022e-06  5.1718729e-07  2.231815e-06   1.125895e+08 
   3294000   3.1717548e-10  107441.42      107412.66      117421.59      2.7489997e-06  5.1726102e-07  2.2317387e-06  1.1258706e+08
   3295000   3.1727176e-10  107451.05      107422.99      117193.91      2.7489996e-06  5.1706099e-07  2.2319386e-06  1.1258894e+08
   3296000   3.1736805e-10  107446.58      107419.38      116903.01      2.7490041e-06  5.1715822e-07  2.2318459e-06  1.1258615e+08
   3297000   3.1746434e-10  107469.95      107442.4       117043.33      2.7490023e-06  5.1667098e-07  2.2323313e-06  1.1259542e+08
   3298000   3.1756063e-10  107451.77      107424.62      116892.81      2.7490085e-06  5.1705484e-07  2.2319536e-06  1.1259073e+08
   3299000   3.1765692e-10  107440.67      107413.47      116896.91      2.7490339e-06  5.1731094e-07  2.231723e-06   1.1258986e+08
   3300000   3.1775321e-10  107432.23      107406.56      116377.48      2.7490345e-06  5.174868e-07   2.2315477e-06  1.1258725e+08
   3301000   3.178495e-10   107435.27      107409.94      116265.64      2.749034e-06   5.1742316e-07  2.2316108e-06  1.1258841e+08
   3302000   3.1794579e-10  107446.29      107419.1       116900.71      2.7490448e-06  5.1720494e-07  2.2318399e-06  1.1259384e+08
   3303000   3.1804208e-10  107430.17      107402.29      117113.33      2.7490404e-06  5.1753549e-07  2.2315049e-06  1.12588e+08  
   3304000   3.1813836e-10  107441.9       107413.1       117434.22      2.7490235e-06  5.1727485e-07  2.2317487e-06  1.125921e+08 
   3305000   3.1823465e-10  107434.78      107404.96      117768.11      2.7490187e-06  5.1741795e-07  2.2316007e-06  1.1258938e+08
   3306000   3.1833094e-10  107443.66      107414.54      117541.61      2.7490332e-06  5.1724811e-07  2.2317851e-06  1.1259241e+08
   3307000   3.1842723e-10  107430.21      107401.2       117494.38      2.7490031e-06  5.1749726e-07  2.2315058e-06  1.125838e+08 
   3308000   3.1852352e-10  107452.74      107422.77      117834.06      2.7490138e-06  5.1704006e-07  2.2319737e-06  1.1259226e+08
   3309000   3.1861981e-10  107456.91      107426.18      118092.44      2.7490078e-06  5.1694748e-07  2.2320603e-06  1.1259044e+08
   3310000   3.187161e-10   107457.23      107425.19      118532.56      2.7489863e-06  5.1691926e-07  2.2320671e-06  1.1258716e+08
   3311000   3.1881239e-10  107452.96      107420.91      118530.29      2.7489762e-06  5.1699797e-07  2.2319782e-06  1.1258565e+08
   3312000   3.1890868e-10  107445.48      107413.97      118343.2       2.7489725e-06  5.1714944e-07  2.231823e-06   1.1258599e+08
   3313000   3.1900496e-10  107441.83      107410.38      118318.95      2.748998e-06   5.1725088e-07  2.2317471e-06  1.1258872e+08
   3314000   3.1910125e-10  107449.66      107417.85      118445.91      2.7490107e-06  5.17101e-07    2.2319097e-06  1.1259202e+08
   3315000   3.1919754e-10  107441.13      107410.32      118104.38      2.7490106e-06  5.1727798e-07  2.2317326e-06  1.1258685e+08
   3316000   3.1929383e-10  107442.12      107411.13      118165.74      2.7490058e-06  5.1725264e-07  2.2317532e-06  1.1258568e+08
   3317000   3.1939012e-10  107459.82      107429.88      117832.27      2.7489995e-06  5.1687872e-07  2.2321208e-06  1.1259222e+08
   3318000   3.1948641e-10  107442.47      107413.29      117561.83      2.7490061e-06  5.1724566e-07  2.2317604e-06  1.1258545e+08
   3319000   3.195827e-10   107435.94      107406.59      117610.55      2.7490245e-06  5.1739975e-07  2.2316247e-06  1.1258652e+08
   3320000   3.1967899e-10  107440.36      107410         117950.82      2.7490219e-06  5.1730537e-07  2.2317165e-06  1.1258987e+08
   3321000   3.1977527e-10  107446.64      107414.91      118415.52      2.7490412e-06  5.1719425e-07  2.2318469e-06  1.1259458e+08
   3322000   3.1987156e-10  107433.54      107401.46      118520.25      2.7490372e-06  5.1746233e-07  2.2315749e-06  1.1258973e+08
   3323000   3.1996785e-10  107436.05      107404.68      118286.81      2.7490358e-06  5.1740876e-07  2.2316271e-06  1.125892e+08 
   3324000   3.2006414e-10  107438.16      107406.36      118432.21      2.7490272e-06  5.1735625e-07  2.2316709e-06  1.1258934e+08
   3325000   3.2016043e-10  107438.95      107406.6       118618.66      2.7490213e-06  5.1733397e-07  2.2316874e-06  1.1258985e+08
   3326000   3.2025672e-10  107431.76      107399.74      118501.77      2.7490327e-06  5.1749466e-07  2.231538e-06   1.1258844e+08
   3327000   3.2035301e-10  107420.47      107387.58      118781.04      2.7490438e-06  5.1774037e-07  2.2313035e-06  1.1258607e+08
   3328000   3.204493e-10   107430.35      107398.24      118528.28      2.7490298e-06  5.1752123e-07  2.2315086e-06  1.1258915e+08
   3329000   3.2054559e-10  107425.53      107393.56      118478.13      2.7490317e-06  5.1762315e-07  2.2314086e-06  1.1258749e+08
   3330000   3.2064187e-10  107430.39      107397.4       118821.7       2.7490422e-06  5.1753271e-07  2.2315094e-06  1.1258982e+08
   3331000   3.2073816e-10  107452.25      107418.44      119119.05      2.7490473e-06  5.1708377e-07  2.2319636e-06  1.125974e+08 
   3332000   3.2083445e-10  107428.04      107394.77      118915.07      2.7490628e-06  5.1760208e-07  2.2314608e-06  1.1258949e+08
   3333000   3.2093074e-10  107429.28      107396.54      118737.79      2.7490536e-06  5.1756728e-07  2.2314864e-06  1.1259061e+08
   3334000   3.2102703e-10  107428.61      107396.14      118648.11      2.7490411e-06  5.175685e-07   2.2314726e-06  1.1258855e+08
   3335000   3.2112332e-10  107433.23      107400.11      118870.79      2.7490428e-06  5.1747428e-07  2.2315686e-06  1.125889e+08 
   3336000   3.2121961e-10  107433.07      107399.59      118987.36      2.7490374e-06  5.1747235e-07  2.2315651e-06  1.1258869e+08
   3337000   3.213159e-10   107438.65      107405.07      119028.42      2.7490301e-06  5.1734912e-07  2.231681e-06   1.1259211e+08
   3338000   3.2141219e-10  107433.68      107399.58      119196.86      2.7490225e-06  5.1744467e-07  2.2315778e-06  1.1258951e+08
   3339000   3.2150847e-10  107413.43      107377.4       119824.84      2.7490495e-06  5.1789222e-07  2.2311573e-06  1.1258539e+08
   3340000   3.2160476e-10  107424.93      107388.91      119830.54      2.7490537e-06  5.1765764e-07  2.2313961e-06  1.1259105e+08
   3341000   3.2170105e-10  107428.5       107391.79      120065         2.7490678e-06  5.1759766e-07  2.2314702e-06  1.1259345e+08
   3342000   3.2179734e-10  107435.18      107398.06      120209.84      2.7490491e-06  5.1744016e-07  2.231609e-06   1.1259497e+08
   3343000   3.2189363e-10  107432.8       107397.09      119733.2       2.7490567e-06  5.174972e-07   2.2315595e-06  1.1259365e+08
   3344000   3.2198992e-10  107411.23      107374.86      119934.94      2.7490528e-06  5.1794121e-07  2.2311116e-06  1.1258321e+08
   3345000   3.2208621e-10  107449.07      107413.21      119803.32      2.7490454e-06  5.1714783e-07  2.2318976e-06  1.1259488e+08
   3346000   3.221825e-10   107454.11      107417.98      119896.91      2.7490285e-06  5.1702626e-07  2.2320023e-06  1.1259356e+08
   3347000   3.2227878e-10  107448.52      107412.61      119816.57      2.7490249e-06  5.1713877e-07  2.2318861e-06  1.1259084e+08
   3348000   3.2237507e-10  107450.12      107414.44      119742.23      2.7490069e-06  5.1708749e-07  2.2319194e-06  1.1259112e+08
   3349000   3.2247136e-10  107449.81      107414.61      119580.17      2.7490231e-06  5.171103e-07   2.2319128e-06  1.125923e+08 
   3350000   3.2256765e-10  107448.06      107412.77      119610.06      2.7490435e-06  5.1716695e-07  2.2318766e-06  1.1259324e+08
   3351000   3.2266394e-10  107435.78      107399.1       120061.16      2.7490428e-06  5.1742133e-07  2.2316214e-06  1.1258899e+08
   3352000   3.2276023e-10  107430.65      107393.81      120112.26      2.7490305e-06  5.1751566e-07  2.2315149e-06  1.1258743e+08
   3353000   3.2285652e-10  107428.94      107393.07      119786.7       2.7490413e-06  5.1756187e-07  2.2314794e-06  1.1258939e+08
   3354000   3.2295281e-10  107420.06      107383.56      119986.29      2.7490317e-06  5.1773676e-07  2.2312949e-06  1.1258676e+08
   3355000   3.230491e-10   107406.41      107370.36      119820.31      2.7490229e-06  5.1801155e-07  2.2310113e-06  1.1258094e+08
   3356000   3.2314538e-10  107437.84      107400.86      120163.87      2.7490129e-06  5.1734867e-07  2.2316642e-06  1.125886e+08 
   3357000   3.2324167e-10  107428.11      107390.81      120262.27      2.7490153e-06  5.1755309e-07  2.2314622e-06  1.1258282e+08
   3358000   3.2333796e-10  107441.61      107403.81      120441.55      2.7490077e-06  5.172652e-07   2.2317425e-06  1.1258646e+08
   3359000   3.2343425e-10  107452.33      107414.08      120606.77      2.7490106e-06  5.1704527e-07  2.2319653e-06  1.1259051e+08
   3360000   3.2353054e-10  107435.13      107398.11      120175.62      2.7490073e-06  5.1739923e-07  2.231608e-06   1.1258436e+08
   3361000   3.2362683e-10  107440.91      107406.49      119312.35      2.7490119e-06  5.1728386e-07  2.2317281e-06  1.1258907e+08
   3362000   3.2372312e-10  107434.38      107400         119293.26      2.7490173e-06  5.1742489e-07  2.2315924e-06  1.1258658e+08
   3363000   3.2381941e-10  107433.47      107399.49      119158.9       2.74903e-06    5.1745656e-07  2.2315735e-06  1.1258689e+08
   3364000   3.239157e-10   107439.71      107405.56      119222.66      2.7490261e-06  5.1732291e-07  2.2317032e-06  1.1258844e+08
   3365000   3.2401198e-10  107447.9       107412.76      119558.07      2.749029e-06   5.1715586e-07  2.2318731e-06  1.1259203e+08
   3366000   3.2410827e-10  107449.29      107412.92      119971.84      2.7490127e-06  5.1711069e-07  2.231902e-06   1.1259109e+08
   3367000   3.2420456e-10  107466         107430.68      119638.65      2.7490351e-06  5.1678589e-07  2.2322492e-06  1.1259926e+08
   3368000   3.2430085e-10  107422.54      107387.53      119492.02      2.7490476e-06  5.1770122e-07  2.2313464e-06  1.125852e+08 
   3369000   3.2439714e-10  107422.26      107388.24      119158.93      2.7490453e-06  5.177047e-07   2.2313406e-06  1.1258645e+08
   3370000   3.2449343e-10  107433.34      107399.69      119046.07      2.7490405e-06  5.1746971e-07  2.2315708e-06  1.1258938e+08
   3371000   3.2458972e-10  107444.47      107409.96      119342.61      2.7490242e-06  5.1722236e-07  2.2318019e-06  1.1259217e+08
   3372000   3.2468601e-10  107443.32      107410.42      118806.41      2.7490203e-06  5.1724212e-07  2.2317781e-06  1.125899e+08 
   3373000   3.247823e-10   107443.94      107411.33      118708.36      2.7490192e-06  5.1722822e-07  2.231791e-06   1.1258925e+08
   3374000   3.2487858e-10  107437.37      107406         118290.6       2.749012e-06   5.1735743e-07  2.2316545e-06  1.1258625e+08
   3375000   3.2497487e-10  107448.43      107417.61      118113.93      2.7490286e-06  5.1714448e-07  2.2318841e-06  1.1259186e+08
   3376000   3.2507116e-10  107447.53      107416.72      118112.04      2.7490397e-06  5.1717413e-07  2.2318656e-06  1.1259217e+08
   3377000   3.2516745e-10  107441.95      107410.64      118271.77      2.7490399e-06  5.1729036e-07  2.2317496e-06  1.1259134e+08
   3378000   3.2526374e-10  107432.09      107401.23      118114.17      2.749039e-06   5.1749413e-07  2.2315449e-06  1.1258894e+08
   3379000   3.2536003e-10  107437.89      107407.78      117867.65      2.7490495e-06  5.1738424e-07  2.2316652e-06  1.1259264e+08
   3380000   3.2545632e-10  107420.71      107391.6       117517.38      2.7490316e-06  5.1772311e-07  2.2313085e-06  1.12585e+08  
   3381000   3.2555261e-10  107424.99      107397.43      117000.45      2.749043e-06   5.1764581e-07  2.2313972e-06  1.1258758e+08
   3382000   3.2564889e-10  107423.64      107396.46      116870.93      2.7490425e-06  5.1767326e-07  2.2313692e-06  1.1258789e+08
   3383000   3.2574518e-10  107410.04      107381.21      117412.16      2.7490308e-06  5.1794392e-07  2.2310869e-06  1.1258242e+08
   3384000   3.2584147e-10  107416.26      107386.97      117573.81      2.7490326e-06  5.1781652e-07  2.2312161e-06  1.1258395e+08
   3385000   3.2593776e-10  107437.35      107407.41      117810.3       2.7490292e-06  5.1737521e-07  2.231654e-06   1.1258941e+08
   3386000   3.2603405e-10  107424.64      107394         118030.87      2.7490256e-06  5.176356e-07   2.23139e-06    1.1258408e+08
   3387000   3.2613034e-10  107440.05      107410.4       117718.44      2.7490254e-06  5.1731514e-07  2.2317102e-06  1.1258873e+08
   3388000   3.2622663e-10  107446.61      107415.55      118194.94      2.7490232e-06  5.1717672e-07  2.2318464e-06  1.125912e+08 
   3389000   3.2632292e-10  107441.92      107409.32      118703.45      2.749034e-06   5.172851e-07   2.2317489e-06  1.1259309e+08
   3390000   3.2641921e-10  107443.93      107410.3       119049.25      2.7490445e-06  5.1725377e-07  2.2317907e-06  1.1259603e+08
   3391000   3.2651549e-10  107432.22      107398.31      119130.18      2.7490561e-06  5.1750867e-07  2.2315474e-06  1.1259359e+08
   3392000   3.2661178e-10  107413.54      107379.61      119121.41      2.7490722e-06  5.1791271e-07  2.2311595e-06  1.1258898e+08
   3393000   3.2670807e-10  107406.74      107371.5       119549.57      2.7490654e-06  5.1804726e-07  2.2310181e-06  1.1258633e+08
   3394000   3.2680436e-10  107417.73      107382.37      119603.78      2.7490467e-06  5.1780022e-07  2.2312465e-06  1.1258755e+08
   3395000   3.2690065e-10  107436.25      107402.38      119121.81      2.749034e-06   5.174028e-07   2.2316312e-06  1.125909e+08 
   3396000   3.2699694e-10  107428.57      107394.77      119094.7       2.7490229e-06  5.1755119e-07  2.2314717e-06  1.1258574e+08
   3397000   3.2709323e-10  107429.45      107394.6       119443.77      2.7490254e-06  5.1753544e-07  2.23149e-06    1.1258622e+08
   3398000   3.2718952e-10  107440.43      107404.74      119733.6       2.7490437e-06  5.1732578e-07  2.231718e-06   1.1259201e+08
   3399000   3.2728581e-10  107436.46      107401.36      119534.92      2.7490087e-06  5.1737306e-07  2.2316357e-06  1.1258708e+08
   3400000   3.2738209e-10  107434.36      107398.18      119893.24      2.7490099e-06  5.1741798e-07  2.231592e-06   1.1258518e+08
   3401000   3.2747838e-10  107428.3       107391.42      120122.25      2.7489935e-06  5.1752738e-07  2.2314662e-06  1.1258048e+08
   3402000   3.2757467e-10  107443.95      107406.47      120338.17      2.7489996e-06  5.1720848e-07  2.2317911e-06  1.1258651e+08
   3403000   3.2767096e-10  107445.88      107407.82      120536.01      2.7490006e-06  5.1716928e-07  2.2318313e-06  1.12588e+08  
   3404000   3.2776725e-10  107444.77      107406.33      120660.38      2.7490003e-06  5.1719202e-07  2.2318083e-06  1.1258843e+08
   3405000   3.2786354e-10  107427.96      107389.23      120740.28      2.749027e-06   5.1756797e-07  2.231459e-06   1.1258561e+08
   3406000   3.2795983e-10  107442.63      107405.4       120253.97      2.7490308e-06  5.1726706e-07  2.2317638e-06  1.1259254e+08
   3407000   3.2805612e-10  107440.98      107403.45      120353.23      2.7490207e-06  5.1729123e-07  2.2317295e-06  1.1259161e+08
   3408000   3.281524e-10   107429.66      107392.11      120348.09      2.7490222e-06  5.1752789e-07  2.2314943e-06  1.1258706e+08
   3409000   3.2824869e-10  107432.4       107395.19      120236.83      2.7490058e-06  5.1745449e-07  2.2315513e-06  1.1258396e+08
   3410000   3.2834498e-10  107445.66      107408.22      120326.15      2.7489963e-06  5.1716971e-07  2.2318266e-06  1.1258638e+08
   3411000   3.2844127e-10  107461.22      107423.42      120460.8       2.7489893e-06  5.1683948e-07  2.2321499e-06  1.1259048e+08
   3412000   3.2853756e-10  107461.15      107423.35      120460.12      2.7489951e-06  5.1684673e-07  2.2321483e-06  1.1259039e+08
   3413000   3.2863385e-10  107443.44      107405.04      120645.36      2.7489863e-06  5.1720575e-07  2.2317806e-06  1.1258392e+08
   3414000   3.2873014e-10  107456.12      107418.12      120522         2.7489955e-06  5.1695164e-07  2.2320439e-06  1.1259109e+08
   3415000   3.2882643e-10  107463.56      107425.7       120484.98      2.749004e-06   5.1680548e-07  2.2321985e-06  1.1259485e+08
   3416000   3.2892272e-10  107462.03      107423.35      120760.21      2.7490175e-06  5.1685071e-07  2.2321668e-06  1.1259426e+08
   3417000   3.29019e-10    107452.66      107412.5       121243.63      2.7490221e-06  5.1705004e-07  2.231972e-06   1.1259094e+08
   3418000   3.2911529e-10  107447.21      107405.54      121745.05      2.74902e-06    5.1716104e-07  2.231859e-06   1.1258941e+08
   3419000   3.2921158e-10  107440.1       107397.94      121900.78      2.7490211e-06  5.1730988e-07  2.2317112e-06  1.1258686e+08
   3420000   3.2930787e-10  107439.97      107397.09      122141.01      2.7490046e-06  5.1729611e-07  2.2317085e-06  1.1258724e+08
   3421000   3.2940416e-10  107438.92      107395.02      122481.52      2.7490157e-06  5.1732895e-07  2.2316867e-06  1.1258776e+08
   3422000   3.2950045e-10  107451.34      107407.65      122421.59      2.7490011e-06  5.170565e-07   2.2319446e-06  1.1258967e+08
   3423000   3.2959674e-10  107442.22      107400.02      121913.97      2.7490027e-06  5.1724746e-07  2.2317552e-06  1.1258544e+08
   3424000   3.2969303e-10  107449.09      107407.58      121688.99      2.7490054e-06  5.1710757e-07  2.2318979e-06  1.1258917e+08
   3425000   3.2978932e-10  107442.36      107399.08      122278.46      2.7490323e-06  5.1727406e-07  2.2317582e-06  1.1258929e+08
   3426000   3.298856e-10   107446.15      107402.31      122470.43      2.7490202e-06  5.1718327e-07  2.2318369e-06  1.1258923e+08
   3427000   3.2998189e-10  107455.59      107411.74      122480.4       2.7490242e-06  5.1699117e-07  2.232033e-06   1.1259337e+08
   3428000   3.3007818e-10  107450.89      107406.87      122531.43      2.7490322e-06  5.1709697e-07  2.2319352e-06  1.1259232e+08
   3429000   3.3017447e-10  107457.21      107413.44      122455.29      2.7490018e-06  5.1693511e-07  2.2320667e-06  1.1259196e+08
   3430000   3.3027076e-10  107447.32      107404.02      122287.56      2.7490153e-06  5.171541e-07   2.2318612e-06  1.1258952e+08
   3431000   3.3036705e-10  107440.55      107398.19      121966.78      2.7490149e-06  5.1729442e-07  2.2317205e-06  1.1258874e+08
   3432000   3.3046334e-10  107427.27      107384.93      121944.92      2.7490253e-06  5.1758074e-07  2.2314446e-06  1.1258688e+08
   3433000   3.3055963e-10  107425.86      107383.81      121847.92      2.7490413e-06  5.17626e-07    2.2314153e-06  1.1258901e+08
   3434000   3.3065592e-10  107415.76      107373.69      121846.2       2.7490499e-06  5.1784429e-07  2.2312056e-06  1.1258546e+08
   3435000   3.307522e-10   107426.34      107385.87      121322.23      2.7490416e-06  5.176162e-07   2.2314254e-06  1.1258937e+08
   3436000   3.3084849e-10  107428.54      107387.82      121407.22      2.7490404e-06  5.1756922e-07  2.2314711e-06  1.1258964e+08
   3437000   3.3094478e-10  107434.71      107394.34      121295.91      2.7490284e-06  5.1742928e-07  2.2315991e-06  1.1259083e+08
   3438000   3.3104107e-10  107431.73      107392.27      120988.11      2.7490185e-06  5.1748122e-07  2.2315373e-06  1.1258873e+08
   3439000   3.3113736e-10  107435.01      107395.63      120964.01      2.7490342e-06  5.1742876e-07  2.2316055e-06  1.1259059e+08
   3440000   3.3123365e-10  107423.65      107384.73      120798.92      2.7490344e-06  5.1766485e-07  2.2313695e-06  1.1258644e+08
   3441000   3.3132994e-10  107438.92      107398.83      121207.24      2.7490318e-06  5.1734507e-07  2.2316867e-06  1.125916e+08 
   3442000   3.3142623e-10  107422.64      107383.17      120983         2.7490357e-06  5.1768716e-07  2.2313486e-06  1.1258571e+08
   3443000   3.3152251e-10  107433.84      107393.83      121175.19      2.7490297e-06  5.1744856e-07  2.2315811e-06  1.1259029e+08
   3444000   3.316188e-10   107434.73      107394.62      121209.93      2.7490322e-06  5.1743256e-07  2.2315997e-06  1.1258949e+08
   3445000   3.3171509e-10  107440.26      107401.4       120793.5       2.7490362e-06  5.1732175e-07  2.2317144e-06  1.1259106e+08
   3446000   3.3181138e-10  107433.51      107394.26      120920.54      2.7490505e-06  5.174762e-07   2.2315743e-06  1.1259115e+08
   3447000   3.3190767e-10  107421.24      107381.79      120973.43      2.7490414e-06  5.1772199e-07  2.2313194e-06  1.1258781e+08
   3448000   3.3200396e-10  107423.5       107382.83      121386.25      2.7490434e-06  5.1767707e-07  2.2313664e-06  1.125878e+08 
   3449000   3.3210025e-10  107443.07      107402.95      121220.51      2.7490421e-06  5.1726921e-07  2.2317729e-06  1.1259351e+08
   3450000   3.3219654e-10  107427.04      107387.06      121155.72      2.7490332e-06  5.1759333e-07  2.2314399e-06  1.1258706e+08
   3451000   3.3229283e-10  107442.6       107403.94      120733.1       2.749017e-06   5.1725393e-07  2.2317631e-06  1.1259129e+08
   3452000   3.3238911e-10  107441.95      107403.38      120699.03      2.7490153e-06  5.1726576e-07  2.2317495e-06  1.125888e+08 
   3453000   3.324854e-10   107451.99      107413.31      120749.37      2.7490229e-06  5.1706467e-07  2.2319582e-06  1.1259168e+08
   3454000   3.3258169e-10  107452.06      107413.3       120774.29      2.7490152e-06  5.1705552e-07  2.2319597e-06  1.125914e+08 
   3455000   3.3267798e-10  107449.46      107409.06      121322.84      2.749011e-06   5.1710537e-07  2.2319057e-06  1.1259127e+08
   3456000   3.3277427e-10  107452.83      107411.82      121527.7       2.7490183e-06  5.1704267e-07  2.2319756e-06  1.1259348e+08
   3457000   3.3287056e-10  107453.95      107413.96      121187.9       2.7490199e-06  5.1702111e-07  2.2319988e-06  1.125928e+08 
   3458000   3.3296685e-10  107442.18      107400.94      121596.04      2.749017e-06   5.172625e-07   2.2317545e-06  1.1258813e+08
   3459000   3.3306314e-10  107439.61      107398.3       121614.2       2.7490009e-06  5.1729995e-07  2.2317009e-06  1.125872e+08 
   3460000   3.3315943e-10  107442.97      107402.09      121474.38      2.7490292e-06  5.1725851e-07  2.2317707e-06  1.1259287e+08
   3461000   3.3325571e-10  107431.94      107392.59      120952.01      2.7490314e-06  5.1748965e-07  2.2315417e-06  1.1259026e+08
   3462000   3.33352e-10    107426.83      107388.54      120593.89      2.7490355e-06  5.1759994e-07  2.2314356e-06  1.1258872e+08
   3463000   3.3344829e-10  107432.68      107394.07      120705.1       2.7490432e-06  5.1748627e-07  2.231557e-06   1.1259064e+08
   3464000   3.3354458e-10  107433.11      107394.25      120786.59      2.7490453e-06  5.1747938e-07  2.2315659e-06  1.1258979e+08
   3465000   3.3364087e-10  107429.96      107391.97      120495.54      2.7490364e-06  5.1753581e-07  2.2315006e-06  1.1258634e+08
   3466000   3.3373716e-10  107444.11      107407.33      120107.52      2.749026e-06   5.172314e-07   2.2317946e-06  1.1258937e+08
   3467000   3.3383345e-10  107446.33      107410.18      119897.04      2.7490163e-06  5.1717568e-07  2.2318406e-06  1.1258842e+08
   3468000   3.3392974e-10  107433.79      107396.73      120188.59      2.7490129e-06  5.1743276e-07  2.2315801e-06  1.1258302e+08
   3469000   3.3402602e-10  107451.1       107414.95      119900.89      2.7490215e-06  5.170818e-07   2.2319397e-06  1.1259211e+08
   3470000   3.3412231e-10  107445.97      107410.79      119572.74      2.749034e-06   5.1720089e-07  2.2318331e-06  1.1259309e+08
   3471000   3.342186e-10   107416.93      107383.89      118825.9       2.749019e-06   5.177891e-07   2.2312299e-06  1.1258332e+08
   3472000   3.3431489e-10  107416.14      107382.66      118974.68      2.7490573e-06  5.1784379e-07  2.2312135e-06  1.1258802e+08
   3473000   3.3441118e-10  107407.89      107373.95      119119.17      2.7490698e-06  5.1802762e-07  2.2310422e-06  1.1258568e+08
   3474000   3.3450747e-10  107432.63      107399.99      118707.86      2.7490607e-06  5.1750475e-07  2.2315559e-06  1.1259277e+08
   3475000   3.3460376e-10  107434.95      107403.05      118465.54      2.7490467e-06  5.1744244e-07  2.2316043e-06  1.1258992e+08
   3476000   3.3470005e-10  107447.7       107416.8       118140.61      2.7490301e-06  5.1716113e-07  2.2318689e-06  1.1259199e+08
   3477000   3.3479634e-10  107438.44      107407.73      118068.13      2.7490266e-06  5.173499e-07   2.2316766e-06  1.1258937e+08
   3478000   3.3489262e-10  107436.73      107406.42      117931.57      2.7490016e-06  5.1736045e-07  2.2316412e-06  1.1258782e+08
   3479000   3.3498891e-10  107430.55      107400.45      117856.78      2.7490127e-06  5.1749992e-07  2.2315128e-06  1.1258666e+08
   3480000   3.350852e-10   107419.58      107389.28      117912.88      2.7490256e-06  5.1774065e-07  2.231285e-06   1.125831e+08 
   3481000   3.3518149e-10  107436.58      107405.36      118235.49      2.7490378e-06  5.1739971e-07  2.231638e-06   1.1258966e+08
   3482000   3.3527778e-10  107431.49      107400.77      118065.9       2.7490403e-06  5.1750795e-07  2.2315323e-06  1.125879e+08 
   3483000   3.3537407e-10  107443.25      107413.05      117901.65      2.7490329e-06  5.1725636e-07  2.2317765e-06  1.1259157e+08
   3484000   3.3547036e-10  107442.15      107411.19      118154.88      2.749016e-06   5.1726232e-07  2.2317537e-06  1.1258899e+08
   3485000   3.3556665e-10  107445.85      107415.82      117848.37      2.7490159e-06  5.1718526e-07  2.2318306e-06  1.1258988e+08
   3486000   3.3566294e-10  107441         107410.34      118055.09      2.7490069e-06  5.1727695e-07  2.23173e-06    1.1258777e+08
   3487000   3.3575922e-10  107442.31      107410.8       118339.82      2.7490231e-06  5.1726594e-07  2.2317572e-06  1.1259017e+08
   3488000   3.3585551e-10  107434.79      107402.44      118614.64      2.7490348e-06  5.1743383e-07  2.231601e-06   1.1258854e+08
   3489000   3.359518e-10   107443.99      107411.98      118510.58      2.7490198e-06  5.172278e-07   2.231792e-06   1.1259107e+08
   3490000   3.3604809e-10  107432.35      107401.76      118024.22      2.749022e-06   5.1747176e-07  2.2315502e-06  1.1258539e+08
   3491000   3.3614438e-10  107455.15      107423.95      118249.01      2.7490231e-06  5.1699929e-07  2.2320238e-06  1.1259249e+08
   3492000   3.3624067e-10  107433.26      107401.29      118486.31      2.748995e-06   5.1742585e-07  2.2315691e-06  1.1258169e+08
   3493000   3.3633696e-10  107452.57      107420.29      118609.09      2.7489966e-06  5.1702636e-07  2.2319702e-06  1.1258937e+08
   3494000   3.3643325e-10  107436.15      107403.73      118638.65      2.7489944e-06  5.1736515e-07  2.2316292e-06  1.1258249e+08
   3495000   3.3652953e-10  107437.42      107404.34      118859.08      2.7490076e-06  5.1735211e-07  2.2316555e-06  1.1258296e+08
   3496000   3.3662582e-10  107454.76      107419.04      119758.57      2.7489941e-06  5.1697851e-07  2.2320156e-06  1.1258768e+08
   3497000   3.3672211e-10  107462.49      107425.55      120176.89      2.7490154e-06  5.1683911e-07  2.2321762e-06  1.1259294e+08
   3498000   3.368184e-10   107453.63      107417.24      119983.36      2.7490234e-06  5.1703105e-07  2.2319923e-06  1.1259441e+08
   3499000   3.3691469e-10  107423.95      107387.41      120001.79      2.7490392e-06  5.1766353e-07  2.2313757e-06  1.1258758e+08
   3500000   3.3701098e-10  107420.7       107385.67      119493.81      2.7490361e-06  5.1772789e-07  2.2313082e-06  1.1258699e+08
   3501000   3.3710727e-10  107429.55      107393.98      119685.09      2.7490249e-06  5.1753284e-07  2.2314921e-06  1.1258838e+08
   3502000   3.3720356e-10  107442.76      107407.19      119697.13      2.749019e-06   5.1725267e-07  2.2317664e-06  1.1259046e+08
   3503000   3.3729985e-10  107447.82      107411.5       119953.67      2.7490169e-06  5.1714542e-07  2.2318714e-06  1.1258987e+08
   3504000   3.3739613e-10  107443.75      107406.31      120324.66      2.7489933e-06  5.1720633e-07  2.231787e-06   1.1258513e+08
   3505000   3.3749242e-10  107465.92      107428.81      120234.91      2.7489939e-06  5.1674646e-07  2.2322474e-06  1.1259338e+08
   3506000   3.3758871e-10  107442.24      107405.04      120245.28      2.7490022e-06  5.1724655e-07  2.2317557e-06  1.1258696e+08
   3507000   3.37685e-10    107438.61      107400.89      120410.58      2.7490105e-06  5.1733037e-07  2.2316802e-06  1.1258706e+08
   3508000   3.3778129e-10  107445.17      107407.14      120521.08      2.7490117e-06  5.171953e-07   2.2318164e-06  1.1258774e+08
   3509000   3.3787758e-10  107452.24      107413.9       120631.93      2.7490172e-06  5.1705399e-07  2.2319633e-06  1.1259106e+08
   3510000   3.3797387e-10  107434.48      107396.54      120482.25      2.7490208e-06  5.1742641e-07  2.2315944e-06  1.1258613e+08
   3511000   3.3807016e-10  107442.05      107404.78      120266.79      2.7490337e-06  5.1728198e-07  2.2317517e-06  1.1259176e+08
   3512000   3.3816645e-10  107434.47      107396.55      120478.88      2.7490266e-06  5.1743231e-07  2.2315943e-06  1.1258806e+08
   3513000   3.3826273e-10  107450.42      107412.84      120375.53      2.7490192e-06  5.1709377e-07  2.2319254e-06  1.1259141e+08
   3514000   3.3835902e-10  107443.94      107407.3       120056.84      2.7490107e-06  5.1721981e-07  2.2317909e-06  1.1258761e+08
   3515000   3.3845531e-10  107444.56      107407.37      120240.2       2.749014e-06   5.1721023e-07  2.2318038e-06  1.1258852e+08
   3516000   3.385516e-10   107443.66      107407.56      119877.29      2.7490377e-06  5.1725259e-07  2.2317851e-06  1.1259208e+08
   3517000   3.3864789e-10  107429.38      107394.66      119402.3       2.7490347e-06  5.1754622e-07  2.2314885e-06  1.1258861e+08
   3518000   3.3874418e-10  107427.16      107393.8       118943.54      2.7490478e-06  5.1760535e-07  2.2314424e-06  1.125893e+08 
   3519000   3.3884047e-10  107430.52      107396.57      119142.01      2.7490285e-06  5.1751636e-07  2.2315121e-06  1.1258808e+08
   3520000   3.3893676e-10  107431.77      107398.43      118942.54      2.7490279e-06  5.1748972e-07  2.2315382e-06  1.1258757e+08
   3521000   3.3903305e-10  107424.72      107392.85      118442         2.7490366e-06  5.1764491e-07  2.2313917e-06  1.1258505e+08
   3522000   3.3912933e-10  107444.36      107413.21      118221.23      2.7490464e-06  5.1724674e-07  2.2317997e-06  1.1259212e+08
   3523000   3.3922562e-10  107444.82      107413.16      118391.86      2.7490419e-06  5.1723271e-07  2.2318092e-06  1.1259229e+08
   3524000   3.3932191e-10  107440.83      107408.71      118543.09      2.7490441e-06  5.1731784e-07  2.2317263e-06  1.1259224e+08
   3525000   3.394182e-10   107437.49      107403.94      119016.73      2.7490466e-06  5.173897e-07   2.2316569e-06  1.1259193e+08
   3526000   3.3951449e-10  107433.02      107399.02      119161.52      2.7490464e-06  5.1748238e-07  2.2315641e-06  1.1259111e+08
   3527000   3.3961078e-10  107443.1       107409.14      119158.91      2.7490444e-06  5.1727094e-07  2.2317734e-06  1.1259553e+08
   3528000   3.3970707e-10  107421.77      107387.81      119139.88      2.7490419e-06  5.177115e-07   2.2313304e-06  1.1258719e+08
   3529000   3.3980336e-10  107427.01      107393.48      118999.37      2.7490518e-06  5.1761258e-07  2.2314392e-06  1.1258832e+08
   3530000   3.3989964e-10  107447.75      107416.63      118217.24      2.7490676e-06  5.1719745e-07  2.2318702e-06  1.1259726e+08
   3531000   3.3999593e-10  107423.34      107392.35      118147.61      2.7490515e-06  5.1768842e-07  2.231363e-06   1.1258692e+08
   3532000   3.4009222e-10  107443.07      107411.62      118320.57      2.749047e-06   5.1727414e-07  2.2317728e-06  1.1259485e+08
   3533000   3.4018851e-10  107423.94      107392.95      118147.68      2.7490575e-06  5.1768198e-07  2.2313755e-06  1.1258859e+08
   3534000   3.402848e-10   107434.06      107405.07      117490.32      2.7490589e-06  5.174731e-07   2.2315858e-06  1.1259245e+08
   3535000   3.4038109e-10  107446.51      107418.06      117323.75      2.749037e-06   5.1719263e-07  2.2318444e-06  1.12595e+08  
   3536000   3.4047738e-10  107448.55      107420.3       117255.15      2.7490371e-06  5.1715045e-07  2.2318867e-06  1.125951e+08 
   3537000   3.4057367e-10  107432.97      107404.33      117367.59      2.7490476e-06  5.1748458e-07  2.231563e-06   1.1259005e+08
   3538000   3.4066996e-10  107439.35      107410.9       117312.65      2.7490437e-06  5.1734814e-07  2.2316955e-06  1.1259199e+08
   3539000   3.4076624e-10  107433.16      107403.95      117560.15      2.7490519e-06  5.1748489e-07  2.231567e-06   1.1259037e+08
   3540000   3.4086253e-10  107434.39      107404.72      117718.38      2.7490496e-06  5.1745694e-07  2.2315926e-06  1.1259002e+08
   3541000   3.4095882e-10  107434.15      107405.05      117524.38      2.7490545e-06  5.1746696e-07  2.2315875e-06  1.125901e+08 
   3542000   3.4105511e-10  107441.07      107410.99      117860.85      2.7490459e-06  5.1731449e-07  2.2317314e-06  1.1259223e+08
   3543000   3.411514e-10   107430.61      107401.31      117588.5       2.7490542e-06  5.1754023e-07  2.231514e-06   1.1259026e+08
   3544000   3.4124769e-10  107421.08      107392.99      117174.31      2.7490462e-06  5.1773019e-07  2.231316e-06   1.125865e+08 
   3545000   3.4134398e-10  107428.17      107399.37      117418.87      2.7490485e-06  5.1758508e-07  2.2314634e-06  1.1258802e+08
   3546000   3.4144027e-10  107448.69      107419.17      117682.01      2.7490337e-06  5.1714397e-07  2.2318897e-06  1.1259437e+08
   3547000   3.4153656e-10  107420.37      107391.49      117437.22      2.7490289e-06  5.1772759e-07  2.2313013e-06  1.1258347e+08
   3548000   3.4163284e-10  107453.45      107424.95      117344.88      2.7490348e-06  5.1704622e-07  2.2319886e-06  1.1259514e+08
   3549000   3.4172913e-10  107441.52      107414.02      116997.03      2.7490218e-06  5.1728118e-07  2.2317406e-06  1.1258798e+08
   3550000   3.4182542e-10  107448.69      107421.64      116857.3       2.749034e-06   5.1714428e-07  2.2318897e-06  1.1259112e+08
   3551000   3.4192171e-10  107440.45      107412.14      117267.83      2.7490302e-06  5.173117e-07   2.2317185e-06  1.1258965e+08
   3552000   3.42018e-10    107422.88      107394.91      117135.65      2.7490377e-06  5.1768417e-07  2.2313535e-06  1.1258565e+08
   3553000   3.4211429e-10  107430.06      107401.76      117253.79      2.7490372e-06  5.1753457e-07  2.2315026e-06  1.1258904e+08
   3554000   3.4221058e-10  107437.47      107408.87      117361.5       2.7490348e-06  5.173782e-07   2.2316566e-06  1.1259312e+08
   3555000   3.4230687e-10  107422.15      107393.01      117525.64      2.7490187e-06  5.1768033e-07  2.2313383e-06  1.1258493e+08
   3556000   3.4240315e-10  107429.95      107401.05      117452.82      2.7490283e-06  5.1752798e-07  2.2315003e-06  1.1258774e+08
   3557000   3.4249944e-10  107433.46      107404.87      117353.73      2.7490211e-06  5.1744786e-07  2.2315733e-06  1.1258808e+08
   3558000   3.4259573e-10  107437.76      107410.19      117020.08      2.7490191e-06  5.1735649e-07  2.2316627e-06  1.1258869e+08
   3559000   3.4269202e-10  107455.31      107429.91      116307.6       2.7490305e-06  5.1700352e-07  2.232027e-06   1.1259495e+08
   3560000   3.4278831e-10  107436.35      107410.73      116366.63      2.7490423e-06  5.1740892e-07  2.2316334e-06  1.1258903e+08
   3561000   3.428846e-10   107444.88      107421.86      115502.78      2.7490451e-06  5.1723454e-07  2.2318105e-06  1.1259054e+08
   3562000   3.4298089e-10  107454.42      107431.57      115455.91      2.7490447e-06  5.1703605e-07  2.2320087e-06  1.1259356e+08
   3563000   3.4307718e-10  107452.39      107429.21      115564.61      2.7490246e-06  5.1705811e-07  2.2319665e-06  1.1259188e+08
   3564000   3.4317347e-10  107453.21      107429.86      115623.44      2.749019e-06   5.1703544e-07  2.2319835e-06  1.1259139e+08
   3565000   3.4326975e-10  107455.42      107434.48      114819.61      2.7490256e-06  5.169961e-07   2.2320295e-06  1.1259266e+08
   3566000   3.4336604e-10  107443         107423.02      114483.82      2.749014e-06   5.1724266e-07  2.2317714e-06  1.1258835e+08
   3567000   3.4346233e-10  107444.76      107423.47      114927.08      2.7490123e-06  5.1720424e-07  2.2318081e-06  1.1259004e+08
   3568000   3.4355862e-10  107438.41      107417.68      114729.92      2.7489974e-06  5.1732125e-07  2.2316761e-06  1.125862e+08 
   3569000   3.4365491e-10  107448.8       107426.35      115316.21      2.7490063e-06  5.171144e-07   2.2318919e-06  1.1258978e+08
   3570000   3.437512e-10   107434.49      107412.8       115048.15      2.7490015e-06  5.1740685e-07  2.2315947e-06  1.1258384e+08
   3571000   3.4384749e-10  107441.04      107419.33      115059.16      2.7489926e-06  5.1726196e-07  2.2317306e-06  1.1258526e+08
   3572000   3.4394378e-10  107441.32      107418.94      115284.91      2.7489972e-06  5.1726076e-07  2.2317364e-06  1.1258467e+08
   3573000   3.4404007e-10  107446.39      107423.81      115358.93      2.748997e-06   5.1715519e-07  2.2318418e-06  1.1258621e+08
   3574000   3.4413635e-10  107458.94      107435.54      115643.47      2.7490001e-06  5.1689763e-07  2.2321024e-06  1.1259057e+08
   3575000   3.4423264e-10  107442.68      107418.95      115737.34      2.7490099e-06  5.172451e-07   2.2317648e-06  1.1258529e+08
   3576000   3.4432893e-10  107453.11      107430.5       115374.79      2.7490311e-06  5.1704965e-07  2.2319815e-06  1.1259275e+08
   3577000   3.4442522e-10  107446.99      107423.7       115595.4       2.74902e-06    5.1716582e-07  2.2318542e-06  1.1259145e+08
   3578000   3.4452151e-10  107436.72      107412.83      115784.75      2.7490227e-06  5.1738172e-07  2.231641e-06   1.1258851e+08
   3579000   3.446178e-10   107440.4       107414.89      116330.83      2.7490214e-06  5.17304e-07    2.2317174e-06  1.1258887e+08
   3580000   3.4471409e-10  107448.23      107423.12      116204.77      2.7490207e-06  5.1714068e-07  2.23188e-06    1.1259114e+08
   3581000   3.4481038e-10  107433.82      107408.48      116266.87      2.7490244e-06  5.1744377e-07  2.2315806e-06  1.1258659e+08
   3582000   3.4490666e-10  107443.27      107417.17      116532.09      2.7490255e-06  5.1724852e-07  2.231777e-06   1.1259032e+08
   3583000   3.4500295e-10  107441.1       107415.13      116486.13      2.7490362e-06  5.1730415e-07  2.231732e-06   1.1259053e+08
   3584000   3.4509924e-10  107442.21      107416.28      116474.29      2.7490368e-06  5.1728174e-07  2.231755e-06   1.1259076e+08
   3585000   3.4519553e-10  107440.32      107414.84      116321.99      2.7490507e-06  5.1733484e-07  2.2317159e-06  1.1259149e+08
   3586000   3.4529182e-10  107431.06      107409.4       115034.99      2.7490364e-06  5.1751299e-07  2.2315235e-06  1.1258799e+08
   3587000   3.4538811e-10  107424.62      107403.53      114837.13      2.7490223e-06  5.1763264e-07  2.2313896e-06  1.1258472e+08
   3588000   3.454844e-10   107425.77      107403.97      115074.62      2.7490266e-06  5.1761307e-07  2.2314135e-06  1.1258584e+08
   3589000   3.4558069e-10  107436.66      107414.45      115226.94      2.7490249e-06  5.1738506e-07  2.2316398e-06  1.1258885e+08
   3590000   3.4567698e-10  107445.04      107420.73      115934.7       2.749015e-06   5.1720112e-07  2.2318139e-06  1.1258839e+08
   3591000   3.4577326e-10  107465.03      107440.03      116187         2.7490215e-06  5.1679245e-07  2.232229e-06   1.1259512e+08
   3592000   3.4586955e-10  107441.22      107416.26      116147.47      2.7490086e-06  5.1727418e-07  2.2317344e-06  1.1258561e+08
   3593000   3.4596584e-10  107440.39      107415.87      116001.7       2.7490067e-06  5.1728943e-07  2.2317173e-06  1.1258597e+08
   3594000   3.4606213e-10  107447.01      107422.66      115951.21      2.7490213e-06  5.1716657e-07  2.2318547e-06  1.1259075e+08
   3595000   3.4615842e-10  107448.53      107422.64      116465.94      2.7490239e-06  5.1713773e-07  2.2318862e-06  1.1259122e+08
   3596000   3.4625471e-10  107442.01      107416.01      116496.53      2.7490288e-06  5.1727803e-07  2.2317508e-06  1.1258988e+08
   3597000   3.46351e-10    107449.08      107424.09      116167.16      2.7490272e-06  5.1712946e-07  2.2318977e-06  1.1259299e+08
   3598000   3.4644729e-10  107453.66      107428.49      116232.02      2.7490321e-06  5.1703917e-07  2.2319929e-06  1.1259578e+08
   3599000   3.4654358e-10  107440.71      107415.8       116131.19      2.7490315e-06  5.1730761e-07  2.2317239e-06  1.1259118e+08
   3600000   3.4663986e-10  107427.49      107402.82      116039.39      2.749022e-06   5.175726e-07   2.2314493e-06  1.1258536e+08
   3601000   3.4673615e-10  107434.23      107411.5       115395.02      2.7490251e-06  5.1743599e-07  2.2315891e-06  1.1258838e+08
   3602000   3.4683244e-10  107438.41      107417.44      114811.27      2.749006e-06   5.1732993e-07  2.2316761e-06  1.1258725e+08
   3603000   3.4692873e-10  107446.53      107425.55      114823.05      2.748998e-06   5.1715327e-07  2.2318447e-06  1.1258761e+08
   3604000   3.4702502e-10  107453.3       107433.22      114529.15      2.7490081e-06  5.170227e-07   2.2319854e-06  1.1258996e+08
   3605000   3.4712131e-10  107451.39      107433.86      113675.27      2.7489968e-06  5.17051e-07    2.2319458e-06  1.1258799e+08
   3606000   3.472176e-10   107460.15      107443.96      113236.44      2.7490109e-06  5.1688316e-07  2.2321277e-06  1.1259191e+08
   3607000   3.4731389e-10  107443         107425.86      113534.57      2.7490149e-06  5.1724346e-07  2.2317714e-06  1.1258619e+08
   3608000   3.4741018e-10  107426.45      107409.66      113401.55      2.7490218e-06  5.1759405e-07  2.2314277e-06  1.1258387e+08
   3609000   3.4750646e-10  107436.93      107418.3       114026.18      2.7490323e-06  5.1738707e-07  2.2316452e-06  1.125919e+08 
   3610000   3.4760275e-10  107438.13      107419.15      114147.67      2.7490307e-06  5.1736037e-07  2.2316704e-06  1.1259232e+08
   3611000   3.4769904e-10  107437.13      107418.03      114185.54      2.7490378e-06  5.1738833e-07  2.2316495e-06  1.1259114e+08
   3612000   3.4779533e-10  107433.95      107413.27      114708.6       2.7490302e-06  5.1744684e-07  2.2315834e-06  1.1258849e+08
   3613000   3.4789162e-10  107439.77      107417.87      115123.1       2.7490518e-06  5.1734747e-07  2.2317043e-06  1.1259269e+08
   3614000   3.4798791e-10  107418.49      107395.71      115395.05      2.7490381e-06  5.1777582e-07  2.2312623e-06  1.1258305e+08
   3615000   3.480842e-10   107443.52      107420.68      115440.62      2.7490282e-06  5.1724593e-07  2.2317822e-06  1.12591e+08  
   3616000   3.4818049e-10  107426         107403.35      115358.29      2.7490397e-06  5.1762141e-07  2.2314182e-06  1.1258605e+08
   3617000   3.4827677e-10  107437.39      107414.49      115454.73      2.7490385e-06  5.1738367e-07  2.2316548e-06  1.1259009e+08
   3618000   3.4837306e-10  107430.34      107407.98      115268.95      2.7490242e-06  5.175157e-07   2.2315085e-06  1.1258532e+08
   3619000   3.4846935e-10  107435.65      107413.81      115098.69      2.7490199e-06  5.1740115e-07  2.2316188e-06  1.1258666e+08
   3620000   3.4856564e-10  107436.9       107415.56      114933.43      2.7490092e-06  5.1736438e-07  2.2316448e-06  1.1258622e+08
   3621000   3.4866193e-10  107443.63      107421.48      115209.25      2.7489951e-06  5.1721065e-07  2.2317845e-06  1.1258791e+08
   3622000   3.4875822e-10  107442.63      107419.84      115426.87      2.7490098e-06  5.1724601e-07  2.2317638e-06  1.1258784e+08
   3623000   3.4885451e-10  107444.23      107420.65      115690.58      2.7490385e-06  5.1724149e-07  2.2317971e-06  1.1259063e+08
   3624000   3.489508e-10   107443.82      107418.65      116220.35      2.7490308e-06  5.172424e-07   2.2317884e-06  1.1259044e+08
   3625000   3.4904709e-10  107441.1       107415.11      116492.5       2.7490388e-06  5.1730689e-07  2.2317319e-06  1.1259089e+08
   3626000   3.4914337e-10  107428.01      107401.74      116571.79      2.7490537e-06  5.1759375e-07  2.23146e-06    1.1258879e+08
   3627000   3.4923966e-10  107431.09      107406.44      116034.13      2.7490445e-06  5.1752046e-07  2.231524e-06   1.1258967e+08
   3628000   3.4933595e-10  107441.61      107416.89      116069.31      2.7490402e-06  5.1729771e-07  2.2317425e-06  1.1259252e+08
   3629000   3.4943224e-10  107431.28      107406.55      116061.09      2.7490293e-06  5.1750134e-07  2.231528e-06   1.1258765e+08
   3630000   3.4952853e-10  107441.4       107416.53      116118.82      2.7490214e-06  5.1728309e-07  2.2317383e-06  1.125917e+08 
   3631000   3.4962482e-10  107430.76      107405.13      116360.76      2.7490265e-06  5.175094e-07   2.2315171e-06  1.1258687e+08
   3632000   3.4972111e-10  107454.78      107429.53      116261.89      2.7490288e-06  5.1701256e-07  2.2320162e-06  1.1259553e+08
   3633000   3.498174e-10   107448.68      107423.22      116322.69      2.7490279e-06  5.1713858e-07  2.2318894e-06  1.1259317e+08
   3634000   3.4991369e-10  107438.4       107413.86      116005.86      2.7490375e-06  5.1736157e-07  2.2316759e-06  1.1259051e+08
   3635000   3.5000997e-10  107441.5       107416.76      116076.13      2.7490253e-06  5.1728508e-07  2.2317403e-06  1.1259152e+08
   3636000   3.5010626e-10  107432.9       107407.81      116183.21      2.7490116e-06  5.1744991e-07  2.2315617e-06  1.1258634e+08
   3637000   3.5020255e-10  107444.7       107420.43      115920.45      2.749005e-06   5.1719825e-07  2.2318067e-06  1.125876e+08 
   3638000   3.5029884e-10  107447.95      107422.45      116334.89      2.7490173e-06  5.1714316e-07  2.2318742e-06  1.1258779e+08
   3639000   3.5039513e-10  107454.83      107429.71      116213.63      2.7490166e-06  5.1699957e-07  2.2320171e-06  1.1259054e+08
   3640000   3.5049142e-10  107443.31      107417.31      116495.72      2.7490024e-06  5.1722465e-07  2.2317778e-06  1.1258636e+08
   3641000   3.5058771e-10  107448.09      107421.28      116773.61      2.7490191e-06  5.1714201e-07  2.2318771e-06  1.1259042e+08
   3642000   3.50684e-10    107434.09      107405.67      117298.04      2.7490109e-06  5.1742465e-07  2.2315862e-06  1.1258552e+08
   3643000   3.5078028e-10  107432.81      107401.76      118176.12      2.7490022e-06  5.174425e-07   2.2315597e-06  1.1258581e+08
   3644000   3.5087657e-10  107432.95      107401.69      118246.91      2.7490109e-06  5.174483e-07   2.2315626e-06  1.1258531e+08
   3645000   3.5097286e-10  107437.99      107406.73      118253.39      2.7490211e-06  5.1735375e-07  2.2316674e-06  1.1258794e+08
   3646000   3.5106915e-10  107434.25      107401.72      118674.82      2.7490237e-06  5.1743399e-07  2.2315897e-06  1.1258759e+08
   3647000   3.5116544e-10  107446.06      107411.8       119262.47      2.7490235e-06  5.1718858e-07  2.2318349e-06  1.1259232e+08
   3648000   3.5126173e-10  107448.99      107414.6       119310.98      2.7490465e-06  5.1715063e-07  2.2318958e-06  1.125959e+08 
   3649000   3.5135802e-10  107423.55      107389.97      119015.78      2.7490425e-06  5.1767501e-07  2.2313675e-06  1.1258731e+08
   3650000   3.5145431e-10  107430.34      107397.5       118772.98      2.7490403e-06  5.1753186e-07  2.2315085e-06  1.1258933e+08
   3651000   3.515506e-10   107439.77      107407.17      118704.13      2.7490421e-06  5.1733775e-07  2.2317044e-06  1.1259233e+08
   3652000   3.5164688e-10  107430.97      107397.83      118873.93      2.749044e-06   5.1752254e-07  2.2315215e-06  1.1258866e+08
   3653000   3.5174317e-10  107445.76      107413.32      118652.6       2.7490252e-06  5.1719645e-07  2.2318287e-06  1.1259169e+08
   3654000   3.5183946e-10  107438.55      107406.26      118596.35      2.7490304e-06  5.1735145e-07  2.2316789e-06  1.1258769e+08
   3655000   3.5193575e-10  107461.15      107428.89      118610.69      2.7490306e-06  5.1688219e-07  2.2321484e-06  1.125946e+08 
   3656000   3.5203204e-10  107456.74      107424.91      118458.58      2.74902e-06    5.1696323e-07  2.2320567e-06  1.125911e+08 
   3657000   3.5212833e-10  107453.12      107422.14      118175.49      2.7490161e-06  5.1703442e-07  2.2319817e-06  1.1258938e+08
   3658000   3.5222462e-10  107453.51      107423.66      117798.64      2.7490163e-06  5.1702648e-07  2.2319898e-06  1.1258946e+08
   3659000   3.5232091e-10  107460.71      107431.57      117564.79      2.749012e-06   5.1687274e-07  2.2321393e-06  1.1259125e+08
   3660000   3.524172e-10   107441.01      107413.18      117107.47      2.7490106e-06  5.1728055e-07  2.2317301e-06  1.1258424e+08
   3661000   3.5251348e-10  107454.99      107427.2       117110.71      2.7490143e-06  5.1699384e-07  2.2320205e-06  1.1259121e+08
   3662000   3.5260977e-10  107444.85      107415.64      117575.63      2.7490005e-06  5.1719061e-07  2.2318099e-06  1.1258726e+08
   3663000   3.5270606e-10  107439.17      107410.57      117364.33      2.7490106e-06  5.1731877e-07  2.2316918e-06  1.125886e+08 
   3664000   3.5280235e-10  107425.68      107396.27      117620.99      2.7490357e-06  5.1762396e-07  2.2314117e-06  1.1258711e+08
   3665000   3.5289864e-10  107426.83      107396.17      118041.21      2.7490427e-06  5.1760709e-07  2.2314356e-06  1.1258739e+08
   3666000   3.5299493e-10  107437.55      107406.32      118240.91      2.7490277e-06  5.1736957e-07  2.2316582e-06  1.1258927e+08
   3667000   3.5309122e-10  107437.9       107406.21      118394.44      2.7490398e-06  5.1737439e-07  2.2316654e-06  1.125886e+08 
   3668000   3.5318751e-10  107448.64      107416.32      118617.01      2.7490257e-06  5.1713708e-07  2.2318886e-06  1.1259104e+08
   3669000   3.532838e-10   107445.02      107412.04      118837.4       2.7490199e-06  5.1720648e-07  2.2318135e-06  1.1259138e+08
   3670000   3.5338008e-10  107442.47      107409.43      118851.56      2.7490193e-06  5.1725892e-07  2.2317604e-06  1.125911e+08 
   3671000   3.5347637e-10  107443.65      107410.3       118957.11      2.7490162e-06  5.1723124e-07  2.231785e-06   1.125892e+08 
   3672000   3.5357266e-10  107440.67      107405.35      119611.78      2.7490187e-06  5.1729566e-07  2.231723e-06   1.1258829e+08
   3673000   3.5366895e-10  107436.15      107400.94      119568.76      2.7490051e-06  5.1737601e-07  2.2316291e-06  1.1258581e+08
   3674000   3.5376524e-10  107433.89      107397.99      119796.9       2.7490043e-06  5.1742219e-07  2.2315821e-06  1.1258444e+08
   3675000   3.5386153e-10  107455.44      107420.43      119525.42      2.7490064e-06  5.1697654e-07  2.2320299e-06  1.1259131e+08
   3676000   3.5395782e-10  107443.82      107407.85      119831.06      2.7490181e-06  5.1722974e-07  2.2317884e-06  1.1258885e+08
   3677000   3.5405411e-10  107443.97      107407.76      119912.79      2.7490238e-06  5.1723224e-07  2.2317916e-06  1.1259181e+08
   3678000   3.5415039e-10  107430.92      107393.5       120307.48      2.7490345e-06  5.1751393e-07  2.2315205e-06  1.125889e+08 
   3679000   3.5424668e-10  107443.36      107405.55      120450.9       2.7490359e-06  5.1725697e-07  2.231779e-06   1.1259363e+08
   3680000   3.5434297e-10  107441.99      107403.31      120738.56      2.7490393e-06  5.172888e-07   2.2317505e-06  1.1259271e+08
   3681000   3.5443926e-10  107443.95      107405.26      120742.13      2.7490343e-06  5.1724314e-07  2.2317911e-06  1.1259296e+08
   3682000   3.5453555e-10  107427.95      107389.76      120558.39      2.7490354e-06  5.1757661e-07  2.2314588e-06  1.1258605e+08
   3683000   3.5463184e-10  107431.06      107392.89      120554.47      2.7490201e-06  5.1749682e-07  2.2315233e-06  1.1258603e+08
   3684000   3.5472813e-10  107436.11      107397.47      120721.29      2.7490189e-06  5.1739051e-07  2.2316284e-06  1.1258832e+08
   3685000   3.5482442e-10  107434.19      107394.14      121187.7       2.7490265e-06  5.1743816e-07  2.2315883e-06  1.1258845e+08
   3686000   3.5492071e-10  107434.72      107392.01      122079.68      2.7490207e-06  5.1742126e-07  2.2315995e-06  1.1258827e+08
   3687000   3.5501699e-10  107434.25      107389.89      122627.88      2.7490334e-06  5.1744376e-07  2.2315896e-06  1.1258678e+08
   3688000   3.5511328e-10  107456.54      107409.42      123573.5       2.7490316e-06  5.1697892e-07  2.2320527e-06  1.1259429e+08
   3689000   3.5520957e-10  107433.35      107385.75      123711.65      2.7490346e-06  5.1746371e-07  2.2315709e-06  1.125872e+08 
   3690000   3.5530586e-10  107448.99      107401.87      123569.09      2.749027e-06   5.1713106e-07  2.2318959e-06  1.1259317e+08
   3691000   3.5540215e-10  107443.57      107396.34      123598.8       2.7490327e-06  5.1724949e-07  2.2317832e-06  1.1259164e+08
   3692000   3.5549844e-10  107466.72      107417.96      124131.6       2.7490276e-06  5.1676356e-07  2.2322641e-06  1.1259763e+08
   3693000   3.5559473e-10  107445.79      107395.51      124619.73      2.7490037e-06  5.1717434e-07  2.2318293e-06  1.125872e+08 
   3694000   3.5569102e-10  107464.53      107414.92      124416.26      2.7490214e-06  5.1680274e-07  2.2322187e-06  1.1259488e+08
   3695000   3.5578731e-10  107463.79      107411.55      125292.13      2.7490024e-06  5.1679919e-07  2.2322032e-06  1.1259267e+08
   3696000   3.5588359e-10  107460.72      107406.45      125971.95      2.7490153e-06  5.1687575e-07  2.2321396e-06  1.1259257e+08
   3697000   3.5597988e-10  107445.04      107388.98      126554.08      2.7490072e-06  5.1719342e-07  2.2318138e-06  1.1258634e+08
   3698000   3.5607617e-10  107464.18      107407.27      126855.41      2.7489996e-06  5.1678825e-07  2.2322113e-06  1.1259154e+08
   3699000   3.5617246e-10  107447.12      107389.36      127122.24      2.7489939e-06  5.1713695e-07  2.231857e-06   1.1258467e+08
   3700000   3.5626875e-10  107446.28      107388.22      127222.44      2.7490056e-06  5.1716612e-07  2.2318395e-06  1.1258602e+08
   3701000   3.5636504e-10  107455.44      107397.29      127263.03      2.749022e-06   5.169921e-07   2.2320299e-06  1.1259218e+08
   3702000   3.5646133e-10  107429.7       107372.64      126869.9       2.749018e-06   5.1752295e-07  2.2314951e-06  1.1258499e+08
   3703000   3.5655762e-10  107424.17      107369.34      126122.44      2.7490291e-06  5.176487e-07   2.2313804e-06  1.1258541e+08
   3704000   3.566539e-10   107430.3       107376.72      125708.3       2.7490393e-06  5.1753172e-07  2.2315076e-06  1.1258673e+08
   3705000   3.5675019e-10  107437.91      107386.04      125145.77      2.7490222e-06  5.1735641e-07  2.2316658e-06  1.1258762e+08
   3706000   3.5684648e-10  107439.3       107386.12      125582.79      2.7490063e-06  5.1731185e-07  2.2316945e-06  1.125882e+08 
   3707000   3.5694277e-10  107430.2       107376.74      125668.8       2.7490323e-06  5.175267e-07   2.2315056e-06  1.1258745e+08
   3708000   3.5703906e-10  107444.44      107391.86      125388.08      2.7490449e-06  5.1724353e-07  2.2318014e-06  1.125926e+08 
   3709000   3.5713535e-10  107458.89      107404.47      126021.68      2.74904e-06    5.169384e-07   2.2321016e-06  1.125973e+08 
   3710000   3.5723164e-10  107449.85      107394.23      126411.87      2.7490205e-06  5.1710685e-07  2.2319137e-06  1.1259206e+08
   3711000   3.5732793e-10  107443.41      107387.74      126420.65      2.7490258e-06  5.1724591e-07  2.2317799e-06  1.1258903e+08
   3712000   3.5742422e-10  107458.38      107403.07      126314.89      2.7489937e-06  5.1690282e-07  2.2320909e-06  1.1259206e+08
   3713000   3.575205e-10   107438.17      107384.23      125837.37      2.7489956e-06  5.1732449e-07  2.2316711e-06  1.1258539e+08
   3714000   3.5761679e-10  107434.82      107381.21      125722.32      2.7490082e-06  5.1740669e-07  2.2316015e-06  1.1258698e+08
   3715000   3.5771308e-10  107446.32      107391.41      126171.29      2.7490188e-06  5.1717844e-07  2.2318404e-06  1.1259145e+08
   3716000   3.5780937e-10  107436.21      107381.86      125974.22      2.7490307e-06  5.174002e-07   2.2316305e-06  1.1258805e+08
   3717000   3.5790566e-10  107445.6       107389.84      126454.41      2.7490415e-06  5.1721597e-07  2.2318255e-06  1.125943e+08 
   3718000   3.5800195e-10  107434         107379.09      126159.71      2.7490376e-06  5.17453e-07    2.2315845e-06  1.1259112e+08
   3719000   3.5809824e-10  107423.54      107368.7       126124.2       2.7490258e-06  5.1765865e-07  2.2313672e-06  1.1258529e+08
   3720000   3.5819453e-10  107433.54      107377.07      126678.39      2.7490281e-06  5.1745323e-07  2.2315749e-06  1.1258771e+08
   3721000   3.5829082e-10  107444.25      107386.6       127086.44      2.7490329e-06  5.1723553e-07  2.2317974e-06  1.1259174e+08
   3722000   3.583871e-10   107429.58      107371.35      127262.74      2.7490298e-06  5.1753715e-07  2.2314926e-06  1.1258805e+08
   3723000   3.5848339e-10  107419.59      107362.66      126819.43      2.7490315e-06  5.1774641e-07  2.2312851e-06  1.125852e+08 
   3724000   3.5857968e-10  107423.9       107367.24      126734.61      2.7490278e-06  5.1765312e-07  2.2313747e-06  1.1258537e+08
   3725000   3.5867597e-10  107422.27      107365         126936.73      2.7490389e-06  5.1769798e-07  2.2313409e-06  1.1258424e+08
   3726000   3.5877226e-10  107449.89      107394.11      126466.8       2.7490174e-06  5.1710276e-07  2.2319146e-06  1.1259135e+08
   3727000   3.5886855e-10  107443.4       107387.33      126557.94      2.7490216e-06  5.172418e-07   2.2317798e-06  1.1258834e+08
   3728000   3.5896484e-10  107448.13      107393.83      125968.63      2.7490055e-06  5.1712752e-07  2.231878e-06   1.1258826e+08
   3729000   3.5906113e-10  107456.32      107404.52      125141.05      2.7490115e-06  5.169634e-07   2.2320481e-06  1.1259118e+08
   3730000   3.5915741e-10  107457.96      107406.92      124886.52      2.7490085e-06  5.1692629e-07  2.2320822e-06  1.1259004e+08
   3731000   3.592537e-10   107464.68      107415.47      124280.5       2.7490191e-06  5.1679742e-07  2.2322217e-06  1.1259495e+08
   3732000   3.5934999e-10  107459.71      107410.97      124118.72      2.7490284e-06  5.1690991e-07  2.2321185e-06  1.1259517e+08
   3733000   3.5944628e-10  107457.56      107410.04      123709.66      2.7490338e-06  5.1695988e-07  2.2320739e-06  1.1259374e+08
   3734000   3.5954257e-10  107459.19      107411.46      123783.27      2.7490395e-06  5.1693167e-07  2.2321078e-06  1.1259602e+08
   3735000   3.5963886e-10  107438.43      107391.01      123656.07      2.7490183e-06  5.1734191e-07  2.2316764e-06  1.1258759e+08
   3736000   3.5973515e-10  107439.4       107392.77      123393.68      2.7490273e-06  5.1733063e-07  2.2316967e-06  1.1258892e+08
   3737000   3.5983144e-10  107443.35      107398.47      122811.5       2.7490268e-06  5.172482e-07   2.2317786e-06  1.1259033e+08
   3738000   3.5992773e-10  107443.9       107399.8       122551.08      2.7490385e-06  5.1724845e-07  2.23179e-06    1.1259146e+08
   3739000   3.6002401e-10  107442.56      107399.05      122355.27      2.7490222e-06  5.1725986e-07  2.2317623e-06  1.1259035e+08
   3740000   3.601203e-10   107429.93      107386.54      122300.66      2.7490223e-06  5.1752229e-07  2.2315e-06     1.1258542e+08
   3741000   3.6021659e-10  107450.45      107408.09      121976.95      2.7490362e-06  5.1710995e-07  2.2319262e-06  1.1259465e+08
   3742000   3.6031288e-10  107439.19      107397.92      121598.28      2.7490324e-06  5.1734022e-07  2.2316922e-06  1.1259129e+08
   3743000   3.6040917e-10  107432.99      107390.78      121908.15      2.7490406e-06  5.1747708e-07  2.2315635e-06  1.1259058e+08
   3744000   3.6050546e-10  107429.17      107387.07      121867.63      2.7490298e-06  5.175456e-07   2.2314842e-06  1.1258873e+08
   3745000   3.6060175e-10  107435.13      107392.79      121957.3       2.7490289e-06  5.1742089e-07  2.231608e-06   1.1258999e+08
   3746000   3.6069804e-10  107429.22      107385.66      122358.13      2.7490344e-06  5.1754916e-07  2.2314853e-06  1.125867e+08 
   3747000   3.6079433e-10  107425.39      107381.35      122512.28      2.7490377e-06  5.1763215e-07  2.2314056e-06  1.1258496e+08
   3748000   3.6089061e-10  107453.81      107410.5       122299.66      2.7490319e-06  5.1703583e-07  2.231996e-06   1.1259495e+08
   3749000   3.609869e-10   107453.98      107410.26      122435.08      2.7490172e-06  5.1701782e-07  2.2319994e-06  1.1259431e+08
   3750000   3.6108319e-10  107433.41      107390.77      122055.29      2.7490129e-06  5.1744068e-07  2.2315722e-06  1.1258618e+08
   3751000   3.6117948e-10  107446.16      107404.01      121899.61      2.749017e-06   5.1718e-07     2.231837e-06   1.1259084e+08
   3752000   3.6127577e-10  107431.28      107389.28      121837         2.7490133e-06  5.1748527e-07  2.2315281e-06  1.125841e+08 
   3753000   3.6137206e-10  107446.45      107403.26      122247.85      2.7490233e-06  5.1718033e-07  2.231843e-06   1.1259039e+08
   3754000   3.6146835e-10  107439.62      107396.42      122246.4       2.7490115e-06  5.1731032e-07  2.2317012e-06  1.1258594e+08
   3755000   3.6156464e-10  107439.87      107398.21      121733.83      2.7490197e-06  5.1731323e-07  2.2317065e-06  1.1258734e+08
   3756000   3.6166093e-10  107451.21      107410.39      121463.56      2.7490182e-06  5.1707627e-07  2.2319419e-06  1.1259242e+08
   3757000   3.6175721e-10  107438.69      107397.64      121526.89      2.7490255e-06  5.1734364e-07  2.2316818e-06  1.1258861e+08
   3758000   3.618535e-10   107440.46      107398.65      121781.13      2.7490279e-06  5.1730928e-07  2.2317186e-06  1.1259031e+08
   3759000   3.6194979e-10  107419.41      107375.18      122572         2.7490278e-06  5.1774641e-07  2.2312814e-06  1.1258346e+08
   3760000   3.6204608e-10  107422.72      107379.74      122154.98      2.7490422e-06  5.1769207e-07  2.2313501e-06  1.1258572e+08
   3761000   3.6214237e-10  107449.16      107406.76      121990.68      2.7490446e-06  5.1714514e-07  2.2318994e-06  1.1259637e+08
   3762000   3.6223866e-10  107431.16      107391.34      121106.66      2.7490471e-06  5.1752171e-07  2.2315254e-06  1.1259e+08   
   3763000   3.6233495e-10  107447.68      107408.21      121007.18      2.7490354e-06  5.1716688e-07  2.2318686e-06  1.1259488e+08
   3764000   3.6243124e-10  107429.43      107390.11      120938.74      2.7490266e-06  5.1753719e-07  2.2314895e-06  1.1258764e+08
   3765000   3.6252752e-10  107431.48      107393.68      120431.82      2.7490214e-06  5.1748935e-07  2.2315321e-06  1.1258687e+08
   3766000   3.6262381e-10  107443.47      107405.98      120342.99      2.7490293e-06  5.1724808e-07  2.2317813e-06  1.125905e+08 
   3767000   3.627201e-10   107434.09      107395.35      120749.69      2.7490345e-06  5.1744806e-07  2.2315864e-06  1.1258729e+08
   3768000   3.6281639e-10  107431.11      107391.86      120917.27      2.7490441e-06  5.1751964e-07  2.2315245e-06  1.1258717e+08
   3769000   3.6291268e-10  107439.35      107399.7       121059.76      2.7490369e-06  5.1734129e-07  2.2316956e-06  1.1258994e+08
   3770000   3.6300897e-10  107442.19      107401.28      121484.13      2.749035e-06   5.1728029e-07  2.2317547e-06  1.1259074e+08
   3771000   3.6310526e-10  107435.71      107395.4       121273.69      2.7490253e-06  5.1740536e-07  2.2316199e-06  1.1258691e+08
   3772000   3.6320155e-10  107422.01      107382.89      120865.04      2.7490293e-06  5.1769385e-07  2.2313354e-06  1.1258129e+08
   3773000   3.6329784e-10  107438.56      107397.58      121504.24      2.7490185e-06  5.1733927e-07  2.2316793e-06  1.1258798e+08
   3774000   3.6339412e-10  107441.88      107400.97      121485.07      2.7490253e-06  5.1727701e-07  2.2317482e-06  1.1259042e+08
   3775000   3.6349041e-10  107435.5       107394.84      121393.74      2.7490363e-06  5.1742064e-07  2.2316157e-06  1.1258834e+08
   3776000   3.635867e-10   107434.68      107392.93      121755.35      2.7490287e-06  5.1743011e-07  2.2315986e-06  1.1258779e+08
   3777000   3.6368299e-10  107446.6       107403.94      122076.02      2.7490335e-06  5.171872e-07   2.2318463e-06  1.1259318e+08
   3778000   3.6377928e-10  107433.36      107390.75      122044.74      2.7490329e-06  5.1746172e-07  2.2315712e-06  1.1258867e+08
   3779000   3.6387557e-10  107450.92      107409.36      121711.98      2.7490281e-06  5.1709206e-07  2.231936e-06   1.1259473e+08
   3780000   3.6397186e-10  107450.15      107408.59      121708.68      2.7490217e-06  5.1710186e-07  2.2319198e-06  1.1259388e+08
   3781000   3.6406815e-10  107429.78      107388.61      121556.34      2.7490306e-06  5.1753381e-07  2.2314968e-06  1.1258664e+08
   3782000   3.6416444e-10  107440.19      107399.74      121327.98      2.7490332e-06  5.1732009e-07  2.2317132e-06  1.125901e+08 
   3783000   3.6426072e-10  107453.79      107413.76      121200.84      2.7490312e-06  5.1703559e-07  2.2319956e-06  1.1259453e+08
   3784000   3.6435701e-10  107443.94      107405.43      120683.76      2.7490435e-06  5.1725255e-07  2.231791e-06   1.1259212e+08
   3785000   3.644533e-10   107449.41      107411.39      120525.19      2.7490303e-06  5.1712574e-07  2.2319045e-06  1.1259358e+08
   3786000   3.6454959e-10  107442.5       107403.4       120879.28      2.7490277e-06  5.172667e-07   2.231761e-06   1.1259183e+08
   3787000   3.6464588e-10  107445.5       107406.76      120760.49      2.7490288e-06  5.1720551e-07  2.2318232e-06  1.1259327e+08
   3788000   3.6474217e-10  107426.63      107388.34      120589.28      2.7490216e-06  5.1759032e-07  2.2314313e-06  1.1258479e+08
   3789000   3.6483846e-10  107440.53      107401.76      120766.68      2.74901e-06    5.1728992e-07  2.2317201e-06  1.1258755e+08
   3790000   3.6493475e-10  107448.76      107412.25      120017.2       2.7490028e-06  5.1711177e-07  2.231891e-06   1.1258967e+08
   3791000   3.6503103e-10  107440.2       107404.26      119818.04      2.7490126e-06  5.172993e-07   2.2317133e-06  1.1258813e+08
   3792000   3.6512732e-10  107420.26      107384.76      119649.96      2.7490195e-06  5.1772052e-07  2.231299e-06   1.1258302e+08
   3793000   3.6522361e-10  107427.78      107393.31      119316.61      2.749025e-06   5.175697e-07   2.2314553e-06  1.1258659e+08
   3794000   3.653199e-10   107423.14      107389.44      119052.85      2.749027e-06   5.1766804e-07  2.2313589e-06  1.1258455e+08
   3795000   3.6541619e-10  107437         107405.64      118285.5       2.7490275e-06  5.1738073e-07  2.2316468e-06  1.1258723e+08
   3796000   3.6551248e-10  107456.06      107426.84      117587.43      2.7490186e-06  5.1697587e-07  2.2320427e-06  1.1259131e+08
   3797000   3.6560877e-10  107460.95      107433.76      116917.03      2.7490241e-06  5.1687977e-07  2.2321444e-06  1.1259477e+08
   3798000   3.6570506e-10  107445.41      107420.84      116021.73      2.7490386e-06  5.1721719e-07  2.2318214e-06  1.1259163e+08
   3799000   3.6580135e-10  107436.55      107412.69      115778.77      2.7490306e-06  5.1739308e-07  2.2316375e-06  1.1258867e+08
   3800000   3.6589763e-10  107451.3       107427.73      115694.37      2.749026e-06   5.1708222e-07  2.2319438e-06  1.1259295e+08
   3801000   3.6599392e-10  107449.69      107427.28      115306.53      2.7490347e-06  5.1712426e-07  2.2319105e-06  1.1259138e+08
   3802000   3.6609021e-10  107449.84      107427.83      115171.89      2.7490239e-06  5.1711037e-07  2.2319135e-06  1.1259076e+08
   3803000   3.661865e-10   107437.17      107416.74      114628.51      2.7490292e-06  5.1737886e-07  2.2316504e-06  1.1258745e+08
   3804000   3.6628279e-10  107429.15      107407.71      114957.42      2.7490322e-06  5.1754848e-07  2.2314837e-06  1.1258577e+08
   3805000   3.6637908e-10  107435.23      107413.28      115136.08      2.7490436e-06  5.1743365e-07  2.23161e-06    1.1258944e+08
   3806000   3.6647537e-10  107445.22      107422.5       115401.15      2.7490472e-06  5.1722975e-07  2.2318175e-06  1.125941e+08 
   3807000   3.6657166e-10  107444.03      107420.46      115687.81      2.7490457e-06  5.1725283e-07  2.2317929e-06  1.1259246e+08
   3808000   3.6666795e-10  107450.54      107425.9       116051.72      2.7490438e-06  5.1711574e-07  2.2319281e-06  1.1259346e+08
   3809000   3.6676423e-10  107435.73      107410.91      116096.52      2.7490421e-06  5.174217e-07   2.2316204e-06  1.1258887e+08
   3810000   3.6686052e-10  107427.68      107402.16      116321.64      2.7490277e-06  5.1757448e-07  2.2314532e-06  1.125862e+08 
   3811000   3.6695681e-10  107448.7       107423.32      116296.44      2.7490289e-06  5.1713902e-07  2.2318899e-06  1.1259404e+08
   3812000   3.670531e-10   107447.07      107422.51      116021.56      2.7490327e-06  5.1717671e-07  2.2318559e-06  1.1259373e+08
   3813000   3.6714939e-10  107450.39      107426.09      115935.36      2.7490188e-06  5.1709393e-07  2.2319249e-06  1.125942e+08 
   3814000   3.6724568e-10  107448.66      107425.27      115633.52      2.7490278e-06  5.1713877e-07  2.2318891e-06  1.125936e+08 
   3815000   3.6734197e-10  107444.94      107422.02      115471.32      2.7490348e-06  5.17223e-07    2.2318118e-06  1.125918e+08 
   3816000   3.6743826e-10  107439.67      107418.16      114993.27      2.7490467e-06  5.1734438e-07  2.2317023e-06  1.125915e+08 
   3817000   3.6753455e-10  107424.11      107403.03      114832.72      2.7490421e-06  5.1766299e-07  2.2313791e-06  1.1258654e+08
   3818000   3.6763083e-10  107432.7       107413.26      114296.46      2.7490609e-06  5.1750332e-07  2.2315575e-06  1.1259063e+08
   3819000   3.6772712e-10  107424.1       107405.12      114130.51      2.7490499e-06  5.1767116e-07  2.2313787e-06  1.1258566e+08
   3820000   3.6782341e-10  107454.91      107436.37      114017.62      2.7490192e-06  5.1700033e-07  2.2320189e-06  1.1259413e+08
   3821000   3.679197e-10   107458.96      107442.34      113375.64      2.7490228e-06  5.1691995e-07  2.2321029e-06  1.1259551e+08
   3822000   3.6801599e-10  107444.92      107429.71      112890.56      2.749023e-06   5.1721167e-07  2.2318113e-06  1.1259143e+08
   3823000   3.6811228e-10  107424.93      107410.04      112764.46      2.7490254e-06  5.1762919e-07  2.2313962e-06  1.1258524e+08
   3824000   3.6820857e-10  107423.51      107408.26      112883.11      2.7490256e-06  5.1765898e-07  2.2313667e-06  1.1258483e+08
   3825000   3.6830486e-10  107421.3       107404.98      113239.33      2.7490299e-06  5.1770921e-07  2.2313206e-06  1.1258477e+08
   3826000   3.6840114e-10  107433.08      107418.79      112569.52      2.7490343e-06  5.1746902e-07  2.2315653e-06  1.1258997e+08
   3827000   3.6849743e-10  107421.61      107408.77      112074.73      2.7490424e-06  5.1771533e-07  2.2313271e-06  1.1258652e+08
   3828000   3.6859372e-10  107428.8       107416.07      112045.3       2.7490367e-06  5.1756021e-07  2.2314765e-06  1.1258797e+08
   3829000   3.6869001e-10  107448.92      107436.84      111849.58      2.749015e-06   5.1712055e-07  2.2318944e-06  1.125939e+08 
   3830000   3.687863e-10   107451.04      107439.53      111660.95      2.7490081e-06  5.1706969e-07  2.2319384e-06  1.1259373e+08
   3831000   3.6888259e-10  107430.25      107418.57      111697.4       2.7490034e-06  5.1749668e-07  2.2315067e-06  1.1258491e+08
   3832000   3.6897888e-10  107438.93      107426.11      112085.4       2.7490145e-06  5.1732764e-07  2.2316868e-06  1.1258669e+08
   3833000   3.6907517e-10  107453.38      107439.2       112555.92      2.7490226e-06  5.1703566e-07  2.231987e-06   1.1259268e+08
   3834000   3.6917146e-10  107437.61      107423.24      112601.52      2.7490231e-06  5.1736375e-07  2.2316594e-06  1.1258748e+08
   3835000   3.6926774e-10  107431.95      107416.85      112840.91      2.7490492e-06  5.1750739e-07  2.2315418e-06  1.1258746e+08
   3836000   3.6936403e-10  107448.39      107434.26      112533.26      2.7490393e-06  5.1715593e-07  2.2318834e-06  1.1259337e+08
   3837000   3.6946032e-10  107438.63      107426.06      112002.17      2.7490339e-06  5.1735328e-07  2.2316806e-06  1.1259018e+08
   3838000   3.6955661e-10  107420.21      107407.63      111988         2.7490253e-06  5.1772716e-07  2.2312981e-06  1.1258344e+08
   3839000   3.696529e-10   107413.69      107400.84      112069.74      2.7490322e-06  5.178696e-07   2.2311626e-06  1.1258059e+08
   3840000   3.6974919e-10  107434.8       107422.01      112072.42      2.7490202e-06  5.1741903e-07  2.2316012e-06  1.1258796e+08
   3841000   3.6984548e-10  107428.83      107416.42      111939.39      2.7490307e-06  5.1755367e-07  2.231477e-06   1.1258729e+08
   3842000   3.6994177e-10  107433.87      107421.45      111946.27      2.7490362e-06  5.1745442e-07  2.2315818e-06  1.1259037e+08
   3843000   3.7003806e-10  107427.08      107413.73      112249.3       2.749036e-06   5.1759533e-07  2.2314407e-06  1.1258737e+08
   3844000   3.7013434e-10  107425.36      107412.75      112002.18      2.7490364e-06  5.1763141e-07  2.231405e-06   1.1258578e+08
   3845000   3.7023063e-10  107445.03      107433.65      111613.67      2.749023e-06   5.1720928e-07  2.2318137e-06  1.1259193e+08
   3846000   3.7032692e-10  107428.05      107416.96      111496.34      2.7490197e-06  5.1755883e-07  2.2314609e-06  1.1258549e+08
   3847000   3.7042321e-10  107455.69      107444.76      111471.36      2.7490448e-06  5.1700979e-07  2.2320351e-06  1.125976e+08 
   3848000   3.705195e-10   107445.47      107435.51      111137.66      2.7490482e-06  5.172254e-07   2.2318228e-06  1.1259355e+08
   3849000   3.7061579e-10  107441.88      107431.05      111423.18      2.7490284e-06  5.1728018e-07  2.2317482e-06  1.1259129e+08
   3850000   3.7071208e-10  107424.09      107413.69      111259.94      2.7490122e-06  5.1763358e-07  2.2313786e-06  1.1258296e+08
   3851000   3.7080837e-10  107432.07      107422.22      111086.14      2.7490039e-06  5.1745956e-07  2.2315444e-06  1.1258441e+08
   3852000   3.7090465e-10  107448.29      107438.44      111104.81      2.7490099e-06  5.1712854e-07  2.2318814e-06  1.1258906e+08
   3853000   3.7100094e-10  107449.49      107439.83      111041.92      2.7490027e-06  5.1709644e-07  2.2319063e-06  1.1258772e+08
   3854000   3.7109723e-10  107444.23      107434.76      110971.55      2.7490035e-06  5.1720654e-07  2.231797e-06   1.1258542e+08
   3855000   3.7119352e-10  107455.02      107445.16      111109.23      2.7490102e-06  5.1698915e-07  2.232021e-06   1.1259058e+08
   3856000   3.7128981e-10  107458.58      107448.6       111157.68      2.7490098e-06  5.169147e-07   2.2320951e-06  1.1259225e+08
   3857000   3.713861e-10   107453.27      107445.8       110310.82      2.7490129e-06  5.170282e-07   2.2319847e-06  1.1259077e+08
   3858000   3.7148239e-10  107462.44      107454.86      110358.47      2.7490084e-06  5.1683314e-07  2.2321753e-06  1.1259396e+08
   3859000   3.7157868e-10  107455.54      107447.54      110489.76      2.7490045e-06  5.1697259e-07  2.232032e-06   1.1259118e+08
   3860000   3.7167497e-10  107438.96      107430.87      110502.59      2.7490257e-06  5.1733823e-07  2.2316875e-06  1.1258661e+08
   3861000   3.7177125e-10  107452.45      107444.21      110567.83      2.7490143e-06  5.1704658e-07  2.2319677e-06  1.1259217e+08
   3862000   3.7186754e-10  107458.24      107448.68      111013.25      2.749008e-06   5.1692006e-07  2.232088e-06   1.1259505e+08
   3863000   3.7196383e-10  107434.15      107421.39      112059.28      2.7490305e-06  5.1744304e-07  2.2315875e-06  1.1258822e+08
   3864000   3.7206012e-10  107433.29      107419.24      112492.98      2.749041e-06   5.1747121e-07  2.2315698e-06  1.1258955e+08
   3865000   3.7215641e-10  107449.25      107434.96      112588.34      2.7490436e-06  5.171423e-07   2.2319013e-06  1.1259622e+08
   3866000   3.722527e-10   107436.05      107422.05      112476.66      2.7490424e-06  5.1741545e-07  2.231627e-06   1.1259035e+08
   3867000   3.7234899e-10  107431.23      107416.97      112558.85      2.7490526e-06  5.1752574e-07  2.2315269e-06  1.1258869e+08
   3868000   3.7244528e-10  107446.52      107431.87      112707.91      2.7490697e-06  5.1722512e-07  2.2318446e-06  1.1259577e+08
   3869000   3.7254157e-10  107431.6       107415.75      113089.46      2.7490545e-06  5.1752001e-07  2.2315345e-06  1.1258911e+08
   3870000   3.7263785e-10  107434.7       107419.29      112945.08      2.7490371e-06  5.1743814e-07  2.2315989e-06  1.1258867e+08
   3871000   3.7273414e-10  107432.3       107417         112905.9       2.7490263e-06  5.1747726e-07  2.2315491e-06  1.125856e+08 
   3872000   3.7283043e-10  107438.95      107423.22      113059.21      2.7490401e-06  5.1735285e-07  2.2316873e-06  1.1258906e+08
   3873000   3.7292672e-10  107440.55      107425.5       112832.39      2.7490252e-06  5.1730474e-07  2.2317205e-06  1.1258938e+08
   3874000   3.7302301e-10  107439.83      107425.3       112658.49      2.7490186e-06  5.1731294e-07  2.2317057e-06  1.1258969e+08
   3875000   3.731193e-10   107440.02      107426.77      112228.22      2.7490121e-06  5.1730264e-07  2.2317094e-06  1.1258985e+08
   3876000   3.7321559e-10  107435.5       107421.1       112610.99      2.7490214e-06  5.174057e-07   2.2316157e-06  1.1258771e+08
   3877000   3.7331188e-10  107433.75      107419.64      112510.39      2.7490136e-06  5.174344e-07   2.2315792e-06  1.1258552e+08
   3878000   3.7340816e-10  107447.32      107434.85      111977.05      2.7490303e-06  5.1716918e-07  2.2318611e-06  1.1259106e+08
   3879000   3.7350445e-10  107447.67      107436.39      111580.14      2.749021e-06   5.1715265e-07  2.2318684e-06  1.1259127e+08
   3880000   3.7360074e-10  107417.61      107406.83      111384.17      2.7490311e-06  5.1778696e-07  2.2312441e-06  1.1258341e+08
   3881000   3.7369703e-10  107425.97      107415.2       111388.06      2.749017e-06   5.175993e-07   2.2314177e-06  1.1258645e+08
   3882000   3.7379332e-10  107432.67      107422.31      111258.61      2.7490364e-06  5.1747943e-07  2.2315569e-06  1.1258897e+08
   3883000   3.7388961e-10  107448.69      107436.5       111886.89      2.7490335e-06  5.1714383e-07  2.2318897e-06  1.1259325e+08
   3884000   3.739859e-10   107442.49      107428.97      112321.36      2.7490261e-06  5.1726532e-07  2.2317608e-06  1.1259e+08   
   3885000   3.7408219e-10  107422.53      107407.87      112687.54      2.7490233e-06  5.1767703e-07  2.2313463e-06  1.1258156e+08
   3886000   3.7417848e-10  107443.32      107430.15      112209.44      2.749054e-06   5.1727591e-07  2.2317781e-06  1.1259206e+08
   3887000   3.7427476e-10  107453.09      107440.97      111864.3       2.7490642e-06  5.1708325e-07  2.231981e-06   1.1259831e+08
   3888000   3.7437105e-10  107443.05      107432.57      111309.03      2.7490494e-06  5.1727684e-07  2.2317726e-06  1.1259447e+08
   3889000   3.7446734e-10  107446.5       107436.32      111211.54      2.7490443e-06  5.1720015e-07  2.2318442e-06  1.1259426e+08
   3890000   3.7456363e-10  107444.91      107433.4       111653.92      2.7490436e-06  5.1723262e-07  2.231811e-06   1.1259299e+08
   3891000   3.7465992e-10  107428.48      107414.43      112487.16      2.7490517e-06  5.1758195e-07  2.2314698e-06  1.1258819e+08
   3892000   3.7475621e-10  107445.94      107429.66      113252.26      2.7490508e-06  5.1721825e-07  2.2318326e-06  1.1259456e+08
   3893000   3.748525e-10   107455.4       107438.67      113409.8       2.7490415e-06  5.1701255e-07  2.2320289e-06  1.1259625e+08
   3894000   3.7494879e-10  107430.78      107414.21      113330.49      2.7490228e-06  5.1750528e-07  2.2315176e-06  1.1258548e+08
   3895000   3.7504508e-10  107434.81      107419.29      112984.66      2.7490196e-06  5.1741836e-07  2.2316012e-06  1.1258695e+08
   3896000   3.7514136e-10  107439.21      107424.42      112744.58      2.7490233e-06  5.1733054e-07  2.2316927e-06  1.1258785e+08
   3897000   3.7523765e-10  107433.9       107420.4       112309.31      2.749029e-06   5.1744651e-07  2.2315825e-06  1.1258499e+08
   3898000   3.7533394e-10  107437.81      107425.51      111913.7       2.7490292e-06  5.1736549e-07  2.2316637e-06  1.1258652e+08
   3899000   3.7543023e-10  107447.61      107436.11      111652.73      2.7490199e-06  5.1715283e-07  2.2318671e-06  1.1259185e+08
   3900000   3.7552652e-10  107443.71      107431.46      111898.07      2.7490229e-06  5.1723678e-07  2.2317861e-06  1.1259151e+08
   3901000   3.7562281e-10  107436.96      107424.2       112062.52      2.7490357e-06  5.173897e-07   2.231646e-06   1.1258888e+08
   3902000   3.757191e-10   107464.03      107451.29      112083.28      2.7490431e-06  5.1683491e-07  2.2322082e-06  1.1259988e+08
   3903000   3.7581539e-10  107449.9       107436.21      112389.65      2.7490423e-06  5.1712751e-07  2.2319148e-06  1.1259587e+08
   3904000   3.7591168e-10  107436.3       107422.97      112254.24      2.7490374e-06  5.174052e-07   2.2316322e-06  1.1259005e+08
   3905000   3.7600796e-10  107449.36      107436.54      112096.94      2.7490328e-06  5.1712916e-07  2.2319036e-06  1.125943e+08 
   3906000   3.7610425e-10  107443.18      107432.04      111528.51      2.7490249e-06  5.1724964e-07  2.2317752e-06  1.1259117e+08
   3907000   3.7620054e-10  107445.15      107435.28      111103.69      2.7490407e-06  5.1722466e-07  2.231816e-06   1.1259273e+08
   3908000   3.7629683e-10  107445.2       107435.96      110895.5       2.7490312e-06  5.1721402e-07  2.2318172e-06  1.1259071e+08
   3909000   3.7639312e-10  107452.03      107442.39      111035.36      2.7490297e-06  5.1707071e-07  2.231959e-06   1.125934e+08 
   3910000   3.7648941e-10  107440.86      107433.07      110406.37      2.7490161e-06  5.1728916e-07  2.2317269e-06  1.1258824e+08
   3911000   3.765857e-10   107444.81      107437.41      110278.9       2.7490201e-06  5.1721104e-07  2.2318091e-06  1.125901e+08 
   3912000   3.7668199e-10  107436.25      107429.01      110217.96      2.7490128e-06  5.1738157e-07  2.2316313e-06  1.12587e+08  
   3913000   3.7677827e-10  107444.46      107436.12      110594.34      2.7490073e-06  5.1720547e-07  2.2318018e-06  1.1259066e+08
   3914000   3.7687456e-10  107431.61      107422.24      110924.69      2.749019e-06   5.1748424e-07  2.2315348e-06  1.1258747e+08
   3915000   3.7697085e-10  107439.23      107430.04      110872.94      2.749027e-06   5.1733383e-07  2.2316931e-06  1.1259114e+08
   3916000   3.7706714e-10  107433.31      107424.7       110672.05      2.749029e-06   5.1745884e-07  2.2315701e-06  1.1258875e+08
   3917000   3.7716343e-10  107431.56      107422.82      110712.67      2.7490204e-06  5.1748659e-07  2.2315338e-06  1.1258763e+08
   3918000   3.7725972e-10  107433.52      107423.56      111123.74      2.7490268e-06  5.1745235e-07  2.2315744e-06  1.1258941e+08
   3919000   3.7735601e-10  107434.48      107422.5       111800.53      2.7490202e-06  5.1742568e-07  2.2315945e-06  1.1258988e+08
   3920000   3.774523e-10   107432.44      107419.63      112075.71      2.7490283e-06  5.1747613e-07  2.2315521e-06  1.1259012e+08
   3921000   3.7754859e-10  107422.07      107408.61      112283.1       2.7490254e-06  5.176887e-07   2.2313367e-06  1.125852e+08 
   3922000   3.7764487e-10  107434.22      107420.22      112474.94      2.7490282e-06  5.1743921e-07  2.231589e-06   1.1258828e+08
   3923000   3.7774116e-10  107439.22      107425.19      112493.35      2.7490273e-06  5.1733436e-07  2.231693e-06   1.1258872e+08
   3924000   3.7783745e-10  107444.32      107431.05      112239.58      2.7490523e-06  5.1725355e-07  2.2317988e-06  1.1259211e+08
   3925000   3.7793374e-10  107436.13      107422.9       112219.64      2.7490431e-06  5.1741436e-07  2.2316288e-06  1.1258904e+08
   3926000   3.7803003e-10  107438.69      107424.45      112559.53      2.749048e-06   5.1736617e-07  2.2316819e-06  1.1259158e+08
   3927000   3.7812632e-10  107453.79      107437.86      113140.74      2.7490391e-06  5.1704344e-07  2.2319956e-06  1.1259763e+08
   3928000   3.7822261e-10  107431.48      107415.11      113264.07      2.7490463e-06  5.1751417e-07  2.2315321e-06  1.1259025e+08
   3929000   3.783189e-10   107438.67      107422.2       113307.61      2.7490349e-06  5.1735339e-07  2.2316815e-06  1.1259128e+08
   3930000   3.7841519e-10  107438.12      107421.96      113202.88      2.7490444e-06  5.1737436e-07  2.2316701e-06  1.1259129e+08
   3931000   3.7851147e-10  107441.7       107425.76      113133.87      2.7490415e-06  5.1729708e-07  2.2317444e-06  1.1259239e+08
   3932000   3.7860776e-10  107445.33      107428.36      113480.43      2.7490283e-06  5.1720845e-07  2.2318198e-06  1.1259211e+08
   3933000   3.7870405e-10  107451.19      107434.65      113339.94      2.7490082e-06  5.1706679e-07  2.2319414e-06  1.1259158e+08
   3934000   3.7880034e-10  107444.82      107426.84      113816.63      2.7490142e-06  5.1720503e-07  2.2318091e-06  1.1258826e+08
   3935000   3.7889663e-10  107437.91      107419.82      113848.04      2.7490093e-06  5.1734354e-07  2.2316658e-06  1.1258507e+08
   3936000   3.7899292e-10  107451.09      107433.39      113731.68      2.7489919e-06  5.1705244e-07  2.2319395e-06  1.1258979e+08
   3937000   3.7908921e-10  107433.39      107414.9       113976.16      2.7490094e-06  5.1743756e-07  2.2315719e-06  1.1258568e+08
   3938000   3.791855e-10   107440.97      107423.06      113789.53      2.7490058e-06  5.1727652e-07  2.2317293e-06  1.1258746e+08
   3939000   3.7928178e-10  107451.46      107433.52      113811.65      2.749005e-06   5.1705784e-07  2.2319471e-06  1.1259075e+08
   3940000   3.7937807e-10  107443.22      107425.04      113885.48      2.7490171e-06  5.1724099e-07  2.2317761e-06  1.1258849e+08
   3941000   3.7947436e-10  107445.16      107427.05      113860.11      2.7490283e-06  5.1721199e-07  2.2318163e-06  1.1259109e+08
   3942000   3.7957065e-10  107425.89      107407.64      113887.09      2.7490253e-06  5.1760941e-07  2.2314159e-06  1.1258587e+08
   3943000   3.7966694e-10  107432.59      107412.91      114374.44      2.7490371e-06  5.1748182e-07  2.2315552e-06  1.1258877e+08
   3944000   3.7976323e-10  107445.64      107424.96      114718.48      2.7490317e-06  5.172055e-07   2.2318262e-06  1.125897e+08 
   3945000   3.7985952e-10  107456.3       107435.11      114903.46      2.7490136e-06  5.1696592e-07  2.2320477e-06  1.1259105e+08
   3946000   3.7995581e-10  107460.63      107439.34      114940.39      2.7490213e-06  5.1688368e-07  2.2321376e-06  1.1259406e+08
   3947000   3.800521e-10   107444.18      107423.69      114657.01      2.7490144e-06  5.1721844e-07  2.231796e-06   1.1258908e+08
   3948000   3.8014838e-10  107443.3       107422.12      114885.92      2.7490202e-06  5.1724265e-07  2.2317776e-06  1.1259177e+08
   3949000   3.8024467e-10  107428.43      107406.64      115073.98      2.7490307e-06  5.1756196e-07  2.2314687e-06  1.1258696e+08
   3950000   3.8034096e-10  107436.23      107415.4       114760.55      2.7490317e-06  5.1740096e-07  2.2316307e-06  1.1258809e+08
   3951000   3.8043725e-10  107449.88      107429.32      114685.23      2.749025e-06   5.1711062e-07  2.2319144e-06  1.1259185e+08
   3952000   3.8053354e-10  107444.96      107425.95      114161.88      2.7490253e-06  5.1721318e-07  2.2318122e-06  1.1259039e+08
   3953000   3.8062983e-10  107440.44      107422.2       113901.58      2.7490201e-06  5.1730183e-07  2.2317183e-06  1.1258892e+08
   3954000   3.8072612e-10  107444.13      107427.84      113250.44      2.7490179e-06  5.1722313e-07  2.2317948e-06  1.1258845e+08
   3955000   3.8082241e-10  107445         107430.21      112751.6       2.7490069e-06  5.1719393e-07  2.2318129e-06  1.125871e+08 
   3956000   3.809187e-10   107443.19      107427.34      113102.99      2.7490087e-06  5.1723331e-07  2.2317754e-06  1.1258803e+08
   3957000   3.8101498e-10  107445.35      107429.02      113265.41      2.7490327e-06  5.1721255e-07  2.2318202e-06  1.1259291e+08
   3958000   3.8111127e-10  107417.51      107400.23      113555.81      2.7490059e-06  5.1776396e-07  2.2312419e-06  1.1258223e+08
   3959000   3.8120756e-10  107427.24      107409.82      113612         2.7490108e-06  5.1756674e-07  2.2314441e-06  1.125862e+08 
   3960000   3.8130385e-10  107437.72      107421.49      113224.96      2.7490156e-06  5.1735389e-07  2.2316617e-06  1.1258762e+08
   3961000   3.8140014e-10  107454         107437.17      113439.56      2.7490139e-06  5.1701405e-07  2.2319998e-06  1.1259198e+08
   3962000   3.8149643e-10  107422.22      107405.91      113235.97      2.7490289e-06  5.1768913e-07  2.2313398e-06  1.1258217e+08
   3963000   3.8159272e-10  107429.18      107413.34      113083.54      2.7490264e-06  5.1754218e-07  2.2314843e-06  1.1258683e+08
   3964000   3.8168901e-10  107433         107416.7       113244.12      2.74903e-06    5.1746637e-07  2.2315636e-06  1.1258851e+08
   3965000   3.817853e-10   107440.37      107423.85      113326.08      2.7490161e-06  5.1729919e-07  2.2317169e-06  1.1259019e+08
   3966000   3.8188158e-10  107438.71      107422.68      113157.61      2.7490254e-06  5.1734316e-07  2.2316823e-06  1.1258912e+08
   3967000   3.8197787e-10  107452.38      107437.95      112636.02      2.7490101e-06  5.1704392e-07  2.2319662e-06  1.1259218e+08
   3968000   3.8207416e-10  107443.04      107428.49      112670.73      2.7490265e-06  5.1725421e-07  2.2317723e-06  1.1258921e+08
   3969000   3.8217045e-10  107439.34      107424.25      112845.33      2.749007e-06   5.1731158e-07  2.2316955e-06  1.1258698e+08
   3970000   3.8226674e-10  107449.02      107434.51      112660.33      2.7490171e-06  5.1712065e-07  2.2318964e-06  1.1259314e+08
   3971000   3.8236303e-10  107447.47      107434.08      112284.53      2.7490276e-06  5.1716345e-07  2.2318642e-06  1.1259241e+08
   3972000   3.8245932e-10  107454.24      107442.07      111883.19      2.7490318e-06  5.1702694e-07  2.2320048e-06  1.125947e+08 
   3973000   3.8255561e-10  107434.57      107423.17      111604.9       2.749022e-06   5.174257e-07   2.2315963e-06  1.1258722e+08
   3974000   3.8265189e-10  107425.28      107414.6       111356.82      2.7490337e-06  5.1763038e-07  2.2314034e-06  1.1258579e+08
   3975000   3.8274818e-10  107424.12      107414.22      111095.85      2.749009e-06   5.1762976e-07  2.2313793e-06  1.1258422e+08
   3976000   3.8284447e-10  107436.04      107426.45      111003.02      2.7490181e-06  5.1739114e-07  2.2316269e-06  1.1258826e+08
   3977000   3.8294076e-10  107454.22      107443.86      111279.2       2.7490135e-06  5.1700897e-07  2.2320046e-06  1.1259237e+08
   3978000   3.8303705e-10  107446.54      107436.67      111107.06      2.7490305e-06  5.171856e-07   2.2318449e-06  1.1258968e+08
   3979000   3.8313334e-10  107449.07      107439.32      111067.45      2.749027e-06   5.1712954e-07  2.2318974e-06  1.1259054e+08
   3980000   3.8322963e-10  107448.78      107438.76      111157.97      2.7490107e-06  5.1711934e-07  2.2318914e-06  1.1258975e+08
   3981000   3.8332592e-10  107433.49      107423.89      111005.17      2.7489999e-06  5.1742595e-07  2.2315739e-06  1.1258397e+08
   3982000   3.8342221e-10  107447.08      107437.17      111122.25      2.749012e-06   5.1715581e-07  2.2318562e-06  1.1259179e+08
   3983000   3.8351849e-10  107427.64      107417.27      111253.97      2.7490192e-06  5.1756678e-07  2.2314524e-06  1.1258625e+08
   3984000   3.8361478e-10  107416.01      107405.1       111422.66      2.7490403e-06  5.1782956e-07  2.2312108e-06  1.1258309e+08
   3985000   3.8371107e-10  107441.39      107429.13      111899.36      2.7490317e-06  5.1729378e-07  2.2317379e-06  1.1259133e+08
   3986000   3.8380736e-10  107445.25      107432.15      112183.31      2.7490362e-06  5.1721809e-07  2.2318181e-06  1.1259169e+08
   3987000   3.8390365e-10  107441.91      107427.84      112505.82      2.7490156e-06  5.172668e-07   2.2317488e-06  1.1258894e+08
   3988000   3.8399994e-10  107457.95      107445.35      112031.39      2.7490068e-06  5.1692475e-07  2.2320821e-06  1.1259416e+08
   3989000   3.8409623e-10  107441.94      107428.92      112155.39      2.7490083e-06  5.1725881e-07  2.2317495e-06  1.1258709e+08
   3990000   3.8419252e-10  107441.88      107428.06      112423.05      2.7490243e-06  5.1727616e-07  2.2317482e-06  1.125886e+08 
   3991000   3.8428881e-10  107441.46      107427.35      112517.24      2.7490237e-06  5.1728441e-07  2.2317393e-06  1.1258814e+08
   3992000   3.8438509e-10  107449.4       107435.19      112559.5       2.7490288e-06  5.1712448e-07  2.2319043e-06  1.1259233e+08
   3993000   3.8448138e-10  107429.91      107415.62      112565.86      2.7490227e-06  5.1752329e-07  2.2314994e-06  1.1258508e+08
   3994000   3.8457767e-10  107444.32      107430.03      112581.62      2.7490228e-06  5.1722398e-07  2.2317988e-06  1.1259059e+08
   3995000   3.8467396e-10  107443.5       107429.4       112519.21      2.7490206e-06  5.1723868e-07  2.2317819e-06  1.1259029e+08
   3996000   3.8477025e-10  107442.18      107428.39      112412.82      2.7490266e-06  5.1727227e-07  2.2317543e-06  1.125902e+08 
   3997000   3.8486654e-10  107438.86      107424.78      112506.9       2.7490205e-06  5.1733504e-07  2.2316855e-06  1.1258866e+08
   3998000   3.8496283e-10  107437.16      107423.24      112450.89      2.7490406e-06  5.1739061e-07  2.23165e-06    1.1259052e+08
   3999000   3.8505912e-10  107427.54      107414.08      112288.41      2.7490456e-06  5.1759521e-07  2.2314504e-06  1.1258914e+08
   4000000   3.851554e-10   107423.33      107410.79      111976.13      2.7490379e-06  5.1767516e-07  2.2313627e-06  1.1258671e+08
   4001000   3.8525169e-10  107434.68      107421.23      112292.92      2.749057e-06   5.1745845e-07  2.2315986e-06  1.1259067e+08
   4002000   3.8534798e-10  107451.7       107438.13      112347.71      2.7490338e-06  5.1708166e-07  2.2319521e-06  1.1259462e+08
   4003000   3.8544427e-10  107458.4       107444.25      112550.1       2.7490292e-06  5.1693788e-07  2.2320913e-06  1.1259528e+08
   4004000   3.8554056e-10  107456.85      107442.51      112611.81      2.7490163e-06  5.1695729e-07  2.232059e-06   1.125918e+08 
   4005000   3.8563685e-10  107441.84      107429.5       111925.73      2.7490152e-06  5.17268e-07    2.2317472e-06  1.1258625e+08
   4006000   3.8573314e-10  107446.45      107434.58      111776.04      2.7490136e-06  5.171704e-07   2.2318432e-06  1.1258906e+08
   4007000   3.8582943e-10  107437.82      107425.46      111930.28      2.7490138e-06  5.1735002e-07  2.2316638e-06  1.1258561e+08
   4008000   3.8592572e-10  107448.81      107436.65      111874.46      2.7490335e-06  5.1714135e-07  2.2318922e-06  1.1259046e+08
   4009000   3.86022e-10    107467.57      107454.51      112195.91      2.749035e-06   5.1675322e-07  2.2322818e-06  1.1259778e+08
   4010000   3.8611829e-10  107440.77      107428.65      111853.82      2.749026e-06   5.1730083e-07  2.2317252e-06  1.1258726e+08
   4011000   3.8621458e-10  107449.36      107438.28      111515.89      2.7490365e-06  5.1713294e-07  2.2319035e-06  1.1259179e+08
   4012000   3.8631087e-10  107433.81      107420.88      112115.46      2.7490258e-06  5.1744537e-07  2.2315805e-06  1.125853e+08 
   4013000   3.8640716e-10  107445.81      107432.93      112112.35      2.7490146e-06  5.171848e-07   2.2318298e-06  1.1258874e+08
   4014000   3.8650345e-10  107457.03      107444.15      112123.16      2.7490148e-06  5.1695202e-07  2.2320628e-06  1.1259401e+08
   4015000   3.8659974e-10  107434.31      107420.73      112338.19      2.7490069e-06  5.1741588e-07  2.231591e-06   1.1258565e+08
   4016000   3.8669603e-10  107437.57      107424.59      112138.36      2.7489889e-06  5.1733018e-07  2.2316587e-06  1.1258452e+08
   4017000   3.8679232e-10  107455.86      107443.84      111836.09      2.7490023e-06  5.1696374e-07  2.2320386e-06  1.1259088e+08
   4018000   3.868886e-10   107452.61      107439.64      112150.49      2.7490144e-06  5.1704331e-07  2.2319711e-06  1.1259181e+08
   4019000   3.8698489e-10  107464.17      107449.21      112826.98      2.749011e-06   5.1679996e-07  2.2322111e-06  1.1259734e+08
   4020000   3.8708118e-10  107433.09      107417.84      112893.14      2.7490202e-06  5.1745461e-07  2.2315656e-06  1.1258738e+08
   4021000   3.8717747e-10  107434.03      107418.47      112994.59      2.7490262e-06  5.1744118e-07  2.231585e-06   1.1258716e+08
   4022000   3.8727376e-10  107447.66      107432.98      112715.58      2.7490309e-06  5.1716282e-07  2.2318681e-06  1.1259279e+08
   4023000   3.8737005e-10  107427.99      107413.83      112520.87      2.7490288e-06  5.1756928e-07  2.2314595e-06  1.1258513e+08
   4024000   3.8746634e-10  107450.12      107436.51      112361.64      2.7490264e-06  5.17107e-07    2.2319194e-06  1.1259336e+08
   4025000   3.8756263e-10  107446.84      107434.59      111905.8       2.749022e-06   5.1717077e-07  2.2318512e-06  1.1259189e+08
   4026000   3.8765891e-10  107423.68      107412.79      111424.48      2.7490129e-06  5.1764277e-07  2.2313701e-06  1.1258162e+08
   4027000   3.877552e-10   107440.45      107429.89      111333.47      2.7490226e-06  5.1730413e-07  2.2317185e-06  1.1258698e+08
   4028000   3.8785149e-10  107459.57      107447.04      112007.26      2.7490124e-06  5.1689684e-07  2.2321156e-06  1.1259311e+08
   4029000   3.8794778e-10  107433.34      107421.39      111787.49      2.7490015e-06  5.174308e-07   2.2315707e-06  1.1258366e+08
   4030000   3.8804407e-10  107434.68      107423.07      111676.13      2.7490266e-06  5.1742795e-07  2.2315986e-06  1.1258845e+08
   4031000   3.8814036e-10  107429.72      107417.59      111846.66      2.749045e-06   5.1754943e-07  2.2314956e-06  1.1258956e+08
   4032000   3.8823665e-10  107445.33      107434.15      111541.51      2.7490616e-06  5.1724191e-07  2.2318197e-06  1.1259652e+08
   4033000   3.8833294e-10  107435.27      107424.84      111285.29      2.7490564e-06  5.1744545e-07  2.2316109e-06  1.125927e+08 
   4034000   3.8842923e-10  107424.88      107414.65      111206.21      2.7490414e-06  5.1764635e-07  2.2313951e-06  1.1258767e+08
   4035000   3.8852551e-10  107440.32      107429.8       111317.81      2.7490404e-06  5.173246e-07   2.2317158e-06  1.1259276e+08
   4036000   3.886218e-10   107440.02      107430.8       110880.88      2.7490209e-06  5.1731142e-07  2.2317094e-06  1.1258927e+08
   4037000   3.8871809e-10  107451.67      107443.98      110381.65      2.7490215e-06  5.1707007e-07  2.2319514e-06  1.1259237e+08
   4038000   3.8881438e-10  107472.42      107464.73      110404.63      2.7490382e-06  5.166556e-07   2.2323826e-06  1.1260072e+08
   4039000   3.8891067e-10  107439.64      107431.57      110494.92      2.7490502e-06  5.1734863e-07  2.2317015e-06  1.1259079e+08
   4040000   3.8900696e-10  107425.59      107416.2       110926.72      2.7490449e-06  5.1763508e-07  2.2314098e-06  1.1258746e+08
   4041000   3.8910325e-10  107432.82      107424.03      110730.7       2.7490443e-06  5.1748444e-07  2.2315599e-06  1.1259141e+08
   4042000   3.8919954e-10  107441.33      107432.56      110735.71      2.7490474e-06  5.173106e-07   2.2317368e-06  1.1259347e+08
   4043000   3.8929583e-10  107431.93      107422.74      110862.76      2.7490346e-06  5.1749318e-07  2.2315414e-06  1.1258859e+08
   4044000   3.8939211e-10  107421.46      107411.07      111255.76      2.7490422e-06  5.1771826e-07  2.231324e-06   1.1258396e+08
   4045000   3.894884e-10   107443.14      107431.55      111676.64      2.7490247e-06  5.1725039e-07  2.2317743e-06  1.1258967e+08
   4046000   3.8958469e-10  107450.09      107437.94      111871.52      2.7490345e-06  5.1711585e-07  2.2319187e-06  1.1259314e+08
   4047000   3.8968098e-10  107453.92      107442.44      111653.74      2.7490244e-06  5.1702607e-07  2.2319983e-06  1.125935e+08 
   4048000   3.8977727e-10  107446.71      107436.48      111227.93      2.7490328e-06  5.1718427e-07  2.2318485e-06  1.1259244e+08
   4049000   3.8987356e-10  107430.81      107421.31      110968.88      2.749025e-06   5.1750673e-07  2.2315183e-06  1.1258618e+08
   4050000   3.8996985e-10  107435.47      107426.44      110814.8       2.7490336e-06  5.1741857e-07  2.2316151e-06  1.1258814e+08
   4051000   3.9006614e-10  107458.9       107449.91      110823.93      2.7490465e-06  5.1694487e-07  2.2321016e-06  1.1259725e+08
   4052000   3.9016243e-10  107446.3       107437.93      110604.67      2.7490399e-06  5.171999e-07   2.23184e-06    1.1259286e+08
   4053000   3.9025871e-10  107445.51      107436.4       110850.79      2.749034e-06   5.1721057e-07  2.2318235e-06  1.1259418e+08
   4054000   3.90355e-10    107424.29      107414         111225.08      2.7490396e-06  5.1765682e-07  2.2313828e-06  1.1258719e+08
   4055000   3.9045129e-10  107448.74      107438.19      111335.74      2.7490566e-06  5.1716596e-07  2.2318906e-06  1.1259769e+08
   4056000   3.9054758e-10  107422.82      107411.11      111698.46      2.7490393e-06  5.1768697e-07  2.2313523e-06  1.125858e+08 
   4057000   3.9064387e-10  107431.98      107420.49      111633.92      2.749034e-06   5.1749147e-07  2.2315425e-06  1.1258836e+08
   4058000   3.9074016e-10  107428.74      107416.93      111737.89      2.749022e-06   5.1754677e-07  2.2314752e-06  1.1258618e+08
   4059000   3.9083645e-10  107444.55      107432.12      111960.5       2.7490253e-06  5.172216e-07   2.2318037e-06  1.1259108e+08
   4060000   3.9093274e-10  107449.67      107437.95      111726.26      2.7490255e-06  5.1711561e-07  2.2319099e-06  1.1259154e+08
   4061000   3.9102902e-10  107447.26      107435.56      111721.14      2.7490351e-06  5.1717518e-07  2.2318599e-06  1.1259302e+08
   4062000   3.9112531e-10  107425.45      107412.66      112060.98      2.7490544e-06  5.1764761e-07  2.2314068e-06  1.1258996e+08
   4063000   3.912216e-10   107401.27      107387.46      112381.97      2.7490476e-06  5.1814295e-07  2.2309047e-06  1.1258115e+08
   4064000   3.9131789e-10  107430.68      107417.32      112256.57      2.749029e-06   5.1751353e-07  2.2315154e-06  1.1258885e+08
   4065000   3.9141418e-10  107453.65      107442.56      111523.44      2.7490179e-06  5.1702527e-07  2.2319927e-06  1.1259388e+08
   4066000   3.9151047e-10  107461.4       107450.98      111307.59      2.7490345e-06  5.1688077e-07  2.2321537e-06  1.1259668e+08
   4067000   3.9160676e-10  107445.52      107435.45      111170.6       2.7490437e-06  5.1722e-07     2.2318237e-06  1.1259334e+08
   4068000   3.9170305e-10  107438.38      107428.28      111174.76      2.7490279e-06  5.1735246e-07  2.2316755e-06  1.1259083e+08
   4069000   3.9179934e-10  107425.59      107414.95      111341.58      2.7490367e-06  5.1762702e-07  2.2314097e-06  1.1258606e+08
   4070000   3.9189562e-10  107432.08      107420.88      111535.54      2.7490328e-06  5.1748827e-07  2.2315446e-06  1.1258887e+08
   4071000   3.9199191e-10  107411.79      107401.22      111306.13      2.7490369e-06  5.1791368e-07  2.2311232e-06  1.1258414e+08
   4072000   3.920882e-10   107427.27      107417.06      111199.74      2.7490494e-06  5.1760475e-07  2.2314447e-06  1.1259158e+08
   4073000   3.9218449e-10  107434.69      107425.08      111009.97      2.7490424e-06  5.1744348e-07  2.2315989e-06  1.1259282e+08
   4074000   3.9228078e-10  107445.48      107434.3       111542.46      2.7490219e-06  5.1719897e-07  2.2318229e-06  1.1259374e+08
   4075000   3.9237707e-10  107441.67      107430.5       111539.34      2.7490347e-06  5.1729087e-07  2.2317439e-06  1.125927e+08 
   4076000   3.9247336e-10  107432.95      107422.59      111256.78      2.7490206e-06  5.1745786e-07  2.2315627e-06  1.1258873e+08
   4077000   3.9256965e-10  107415.34      107406.17      110842.91      2.7490086e-06  5.1781168e-07  2.2311969e-06  1.1258135e+08
   4078000   3.9266594e-10  107420.36      107411.74      110662.92      2.7490316e-06  5.1773036e-07  2.2313012e-06  1.1258544e+08
   4079000   3.9276222e-10  107439.12      107430.86      110561.6       2.7490274e-06  5.1733657e-07  2.2316908e-06  1.1259258e+08
   4080000   3.9285851e-10  107436.64      107428.89      110388.16      2.7490366e-06  5.1739724e-07  2.2316394e-06  1.1259269e+08
   4081000   3.929548e-10   107445.14      107437.44      110378.2       2.7490397e-06  5.1722381e-07  2.2318159e-06  1.1259601e+08
   4082000   3.9305109e-10  107428.19      107421.13      110147.11      2.7490443e-06  5.1758059e-07  2.2314638e-06  1.1258821e+08
   4083000   3.9314738e-10  107441.24      107435.3       109788.03      2.7490425e-06  5.1730765e-07  2.2317349e-06  1.1259097e+08
   4084000   3.9324367e-10  107442.29      107435.95      109923.97      2.7490242e-06  5.1726749e-07  2.2317567e-06  1.1259101e+08
   4085000   3.9333996e-10  107430.38      107424.59      109726.8       2.7490183e-06  5.1750909e-07  2.2315092e-06  1.1258803e+08
   4086000   3.9343625e-10  107431.46      107425.39      109820.25      2.7490235e-06  5.1749173e-07  2.2315317e-06  1.1258899e+08
   4087000   3.9353253e-10  107439.23      107434.32      109442.37      2.7490216e-06  5.1732853e-07  2.2316931e-06  1.1258987e+08
   4088000   3.9362882e-10  107456.77      107453.51      108907.46      2.7490195e-06  5.1696194e-07  2.2320575e-06  1.1259323e+08
   4089000   3.9372511e-10  107443.71      107441.62      108503.65      2.7490348e-06  5.172486e-07   2.2317862e-06  1.1258831e+08
   4090000   3.938214e-10   107455.73      107454.21      108323.96      2.7490274e-06  5.1699161e-07  2.2320358e-06  1.1259273e+08
   4091000   3.9391769e-10  107441.97      107440.76      108207.5       2.7490086e-06  5.172586e-07   2.23175e-06    1.1258651e+08
   4092000   3.9401398e-10  107438.02      107436.45      108324.15      2.7490121e-06  5.1734402e-07  2.2316681e-06  1.1258594e+08
   4093000   3.9411027e-10  107443.16      107440.28      108769.01      2.7490343e-06  5.1725949e-07  2.2317748e-06  1.1259034e+08
   4094000   3.9420656e-10  107444.82      107440.69      109187.18      2.7490119e-06  5.1720265e-07  2.2318092e-06  1.1258886e+08
   4095000   3.9430285e-10  107444         107437.58      109951.89      2.7490162e-06  5.1722403e-07  2.2317922e-06  1.1258942e+08
   4096000   3.9439913e-10  107441.06      107432.95      110512.22      2.749037e-06   5.1730586e-07  2.2317311e-06  1.1258955e+08
   4097000   3.9449542e-10  107442.14      107434.19      110460.63      2.7490208e-06  5.1726722e-07  2.2317535e-06  1.1258898e+08
   4098000   3.9459171e-10  107428.11      107420.7       110266.19      2.7490147e-06  5.1755251e-07  2.2314622e-06  1.1258381e+08
   4099000   3.94688e-10    107443.08      107434.82      110565.4       2.749004e-06   5.1723099e-07  2.231773e-06   1.1258955e+08
   4100000   3.9478429e-10  107433.28      107424.93      110583.57      2.7490199e-06  5.1745044e-07  2.2315695e-06  1.1258806e+08
   4101000   3.9488058e-10  107432.62      107423.32      110904.15      2.749013e-06   5.1745714e-07  2.2315558e-06  1.1258736e+08
   4102000   3.9497687e-10  107432.2       107422.84      110921.88      2.749034e-06   5.1748684e-07  2.2315472e-06  1.1258794e+08
   4103000   3.9507316e-10  107439.8       107431.21      110672.33      2.7490276e-06  5.1732265e-07  2.2317049e-06  1.1258884e+08
   4104000   3.9516945e-10  107443.11      107434.36      110727.02      2.7490217e-06  5.1724801e-07  2.2317737e-06  1.1259028e+08
   4105000   3.9526573e-10  107443.45      107434.87      110674.14      2.7490257e-06  5.1724489e-07  2.2317808e-06  1.1259171e+08
   4106000   3.9536202e-10  107422.77      107414.56      110527.73      2.7490206e-06  5.1766941e-07  2.2313512e-06  1.1258386e+08
   4107000   3.9545831e-10  107435.06      107426         110823.45      2.7490279e-06  5.1742143e-07  2.2316065e-06  1.1258768e+08
   4108000   3.955546e-10   107436.26      107427.05      110875.07      2.7490204e-06  5.1738912e-07  2.2316313e-06  1.1258649e+08
   4109000   3.9565089e-10  107435         107426.06      110785.57      2.7490212e-06  5.1741587e-07  2.2316053e-06  1.1258635e+08
   4110000   3.9574718e-10  107448.96      107441.69      110238.82      2.7490239e-06  5.1712873e-07  2.2318952e-06  1.125901e+08 
   4111000   3.9584347e-10  107464.92      107459.78      109543.92      2.7490196e-06  5.1679289e-07  2.2322267e-06  1.1259385e+08
   4112000   3.9593976e-10  107468.58      107464.06      109339.14      2.7490219e-06  5.1671925e-07  2.2323027e-06  1.1259347e+08
   4113000   3.9603604e-10  107480.61      107476.23      109305.55      2.7490103e-06  5.1645766e-07  2.2325527e-06  1.1259701e+08
   4114000   3.9613233e-10  107458.18      107452.65      109664.45      2.7489955e-06  5.1690881e-07  2.2320867e-06  1.12589e+08  
   4115000   3.9622862e-10  107454.04      107446.86      110214.95      2.7489863e-06  5.1698558e-07  2.2320007e-06  1.1258823e+08
   4116000   3.9632491e-10  107438.17      107430.9       110227.48      2.749025e-06   5.1735392e-07  2.2316711e-06  1.1258591e+08
   4117000   3.964212e-10   107435.92      107429.58      109914.82      2.7490204e-06  5.1739609e-07  2.2316243e-06  1.1258656e+08
   4118000   3.9651749e-10  107449.7       107442.82      110111.97      2.7490253e-06  5.1711461e-07  2.2319106e-06  1.1259257e+08
   4119000   3.9661378e-10  107443.59      107434.48      110849.63      2.7490372e-06  5.1725356e-07  2.2317836e-06  1.1259109e+08
   4120000   3.9671007e-10  107441.53      107430.42      111517.52      2.7490317e-06  5.1729076e-07  2.2317409e-06  1.1259032e+08
   4121000   3.9680636e-10  107442.4       107431.18      111557         2.7490107e-06  5.1725171e-07  2.231759e-06   1.1258802e+08
   4122000   3.9690264e-10  107441.26      107430.94      111252.51      2.7490091e-06  5.1727387e-07  2.2317352e-06  1.1258557e+08
   4123000   3.9699893e-10  107468.18      107457.39      111434.02      2.749001e-06   5.1670668e-07  2.2322943e-06  1.1259493e+08
   4124000   3.9709522e-10  107452.05      107441.63      111295.83      2.7490153e-06  5.1705586e-07  2.2319594e-06  1.1259059e+08
   4125000   3.9719151e-10  107445.5       107436.2       110913.02      2.749018e-06   5.1719472e-07  2.2318233e-06  1.125908e+08 
   4126000   3.972878e-10   107425.24      107415.15      111157.57      2.7490018e-06  5.1759935e-07  2.2314025e-06  1.1258361e+08
   4127000   3.9738409e-10  107431.22      107420.02      111534.68      2.7490256e-06  5.1749893e-07  2.2315267e-06  1.1258766e+08
   4128000   3.9748038e-10  107434.28      107423.31      111462.89      2.7490346e-06  5.1744436e-07  2.2315902e-06  1.1258913e+08
   4129000   3.9757667e-10  107442.74      107432.7       111156.97      2.749032e-06   5.1726608e-07  2.2317659e-06  1.1259095e+08
   4130000   3.9767296e-10  107443.74      107434.1       111028.72      2.7490292e-06  5.1724244e-07  2.2317868e-06  1.1259092e+08
   4131000   3.9776924e-10  107437.63      107429.14      110637.01      2.7490287e-06  5.1736882e-07  2.2316599e-06  1.1258992e+08
   4132000   3.9786553e-10  107433.53      107425.38      110516.56      2.7490249e-06  5.1745027e-07  2.2315747e-06  1.1258885e+08
   4133000   3.9796182e-10  107428.31      107420.08      110537.69      2.74903e-06    5.1756381e-07  2.2314662e-06  1.1258711e+08
   4134000   3.9805811e-10  107436.17      107428.16      110476.48      2.7490434e-06  5.1741381e-07  2.2316296e-06  1.1259059e+08
   4135000   3.981544e-10   107440.89      107432.12      110733.83      2.7490592e-06  5.1733163e-07  2.2317275e-06  1.1259312e+08
   4136000   3.9825069e-10  107443.1       107434.81      110576.83      2.7490474e-06  5.1727386e-07  2.2317736e-06  1.1259263e+08
   4137000   3.9834698e-10  107452.95      107443.63      110929.36      2.749034e-06   5.1705603e-07  2.231978e-06   1.1259414e+08
   4138000   3.9844327e-10  107437.02      107427.36      111026.06      2.7490382e-06  5.1739108e-07  2.2316471e-06  1.1258945e+08
   4139000   3.9853956e-10  107442.4       107432.16      111227.99      2.7490303e-06  5.1727137e-07  2.231759e-06   1.1259235e+08
   4140000   3.9863584e-10  107446.76      107436.29      111306.75      2.7490188e-06  5.1716929e-07  2.2318495e-06  1.1259253e+08
   4141000   3.9873213e-10  107442.67      107432.23      111291.78      2.7490309e-06  5.1726637e-07  2.2317645e-06  1.1259002e+08
   4142000   3.9882842e-10  107436.57      107427.77      110739.94      2.749023e-06   5.1738515e-07  2.2316379e-06  1.1258679e+08
   4143000   3.9892471e-10  107444.01      107436.01      110478.05      2.749024e-06   5.1723157e-07  2.2317924e-06  1.1259021e+08
   4144000   3.99021e-10    107438.7       107430.87      110415.5       2.7490218e-06  5.1733966e-07  2.2316821e-06  1.125892e+08 
   4145000   3.9911729e-10  107418.72      107411.46      110206.86      2.7490211e-06  5.1775405e-07  2.231267e-06   1.1258266e+08
   4146000   3.9921358e-10  107434.26      107426.63      110345.45      2.7490182e-06  5.1742838e-07  2.2315898e-06  1.1258873e+08
   4147000   3.9930987e-10  107431.66      107423         110687.21      2.7490343e-06  5.1749836e-07  2.2315359e-06  1.1258881e+08
   4148000   3.9940615e-10  107435.69      107427.52      110526.7       2.7490344e-06  5.1741486e-07  2.2316195e-06  1.1259002e+08
   4149000   3.9950244e-10  107444.26      107436.23      110490.12      2.7490345e-06  5.1723686e-07  2.2317976e-06  1.1259268e+08
   4150000   3.9959873e-10  107435.8       107427.53      110562.6       2.7490389e-06  5.1741701e-07  2.2316219e-06  1.1258973e+08
   4151000   3.9969502e-10  107450.23      107441.29      110799.34      2.7490329e-06  5.1711142e-07  2.2319215e-06  1.1259505e+08
   4152000   3.9979131e-10  107440.27      107430.7       111000.29      2.7490355e-06  5.1732074e-07  2.2317148e-06  1.1259205e+08
   4153000   3.998876e-10   107431.3       107420.82      111294.96      2.7490201e-06  5.174916e-07   2.2315284e-06  1.1258707e+08
   4154000   3.9998389e-10  107440.16      107429.42      111391.28      2.7490165e-06  5.1730416e-07  2.2317124e-06  1.1258888e+08
   4155000   4.0008018e-10  107442.33      107431.7       111357.15      2.7490139e-06  5.1725651e-07  2.2317574e-06  1.1258916e+08
   4156000   4.0017647e-10  107448.92      107438.18      111400.14      2.7490119e-06  5.1711753e-07  2.2318944e-06  1.1259173e+08
   4157000   4.0027275e-10  107434.72      107424.28      111285.91      2.7490361e-06  5.1743664e-07  2.2315994e-06  1.1258751e+08
   4158000   4.0036904e-10  107435.35      107423.84      111643.3       2.7490179e-06  5.1740539e-07  2.2316125e-06  1.1258661e+08
   4159000   4.0046533e-10  107434.93      107423.9       111483.11      2.7490261e-06  5.1742236e-07  2.2316038e-06  1.1258843e+08
   4160000   4.0056162e-10  107434.67      107424.31      111258.81      2.749016e-06   5.1741761e-07  2.2315984e-06  1.125887e+08 
   4161000   4.0065791e-10  107439.3       107430.44      110761.51      2.7490312e-06  5.1733665e-07  2.2316946e-06  1.1259039e+08
   4162000   4.007542e-10   107445.58      107436.14      110964.32      2.7490237e-06  5.1719862e-07  2.2318251e-06  1.125905e+08 
   4163000   4.0085049e-10  107440.02      107429.31      111384.02      2.7490309e-06  5.173213e-07   2.2317096e-06  1.1258883e+08
   4164000   4.0094678e-10  107426.43      107416.69      111041.83      2.7490189e-06  5.1759168e-07  2.2314272e-06  1.1258341e+08
   4165000   4.0104307e-10  107436.13      107427.29      110752.09      2.7490184e-06  5.1738956e-07  2.2316288e-06  1.1258763e+08
   4166000   4.0113935e-10  107434.87      107425.01      111090.82      2.7490238e-06  5.1742123e-07  2.2316025e-06  1.1258686e+08
   4167000   4.0123564e-10  107453.74      107444.13      111028.36      2.7490233e-06  5.1702867e-07  2.2319946e-06  1.1259358e+08
   4168000   4.0133193e-10  107440.1       107430.89      110879.54      2.7490266e-06  5.1731542e-07  2.2317112e-06  1.1258813e+08
   4169000   4.0142822e-10  107443.69      107435.64      110493.45      2.7490244e-06  5.1723877e-07  2.2317857e-06  1.1258984e+08
   4170000   4.0152451e-10  107434.98      107426.85      110514.87      2.7490254e-06  5.1742054e-07  2.2316049e-06  1.1258727e+08
   4171000   4.016208e-10   107446.39      107436.58      111087.36      2.7490213e-06  5.1717941e-07  2.2318419e-06  1.1258995e+08
   4172000   4.0171709e-10  107442.16      107432.22      111128.44      2.7490283e-06  5.1727431e-07  2.231754e-06   1.1258713e+08
   4173000   4.0181338e-10  107444.65      107433.83      111421.68      2.7490246e-06  5.1721901e-07  2.2318056e-06  1.1258872e+08
   4174000   4.0190966e-10  107450.08      107438.21      111779.4       2.7490142e-06  5.1709576e-07  2.2319184e-06  1.1259195e+08
   4175000   4.0200595e-10  107438.29      107427.02      111564.89      2.7490131e-06  5.1733953e-07  2.2316735e-06  1.1258895e+08
   4176000   4.0210224e-10  107427.17      107414.67      111967.12      2.7490252e-06  5.1758265e-07  2.2314426e-06  1.1258578e+08
   4177000   4.0219853e-10  107438.48      107426         111972.84      2.7490353e-06  5.1735779e-07  2.2316776e-06  1.1258995e+08
   4178000   4.0229482e-10  107445.2       107431.19      112489.59      2.7490352e-06  5.1721805e-07  2.2318171e-06  1.1259123e+08
   4179000   4.0239111e-10  107455.82      107440.54      112926.84      2.7490381e-06  5.1700038e-07  2.2320377e-06  1.1259496e+08
   4180000   4.024874e-10   107448.27      107432.3       113149.27      2.7490352e-06  5.1715419e-07  2.231881e-06   1.1259195e+08
   4181000   4.0258369e-10  107429.3       107411.52      113733.42      2.749029e-06   5.1754221e-07  2.2314868e-06  1.1258635e+08
   4182000   4.0267998e-10  107426.72      107408.79      113781.69      2.749025e-06   5.175917e-07   2.2314333e-06  1.125863e+08 
   4183000   4.0277626e-10  107432.56      107413.06      114310.67      2.7490194e-06  5.174649e-07   2.2315545e-06  1.125873e+08 
   4184000   4.0287255e-10  107447.39      107427.36      114504.41      2.7490189e-06  5.1715641e-07  2.2318625e-06  1.1259173e+08
   4185000   4.0296884e-10  107437.7       107417.54      114540.15      2.7490149e-06  5.1735349e-07  2.2316614e-06  1.1258693e+08
   4186000   4.0306513e-10  107433.12      107414.54      114003.43      2.7490139e-06  5.1744777e-07  2.2315661e-06  1.1258652e+08
   4187000   4.0316142e-10  107450.18      107433.64      113343.03      2.7490147e-06  5.1709412e-07  2.2319206e-06  1.1259189e+08
   4188000   4.0325771e-10  107443.94      107427.96      113148.53      2.7490294e-06  5.1723833e-07  2.231791e-06   1.1259e+08   
   4189000   4.03354e-10    107440.87      107422.36      113991.23      2.7490193e-06  5.1729206e-07  2.2317272e-06  1.1258846e+08
   4190000   4.0345029e-10  107443.71      107423.36      114609.79      2.7490271e-06  5.1724086e-07  2.2317862e-06  1.1259183e+08
   4191000   4.0354658e-10  107443.95      107423.97      114483.2       2.7490451e-06  5.1725398e-07  2.2317911e-06  1.12594e+08  
   4192000   4.0364286e-10  107417.72      107398.46      114219.18      2.7490292e-06  5.1778288e-07  2.2312463e-06  1.1258347e+08
   4193000   4.0373915e-10  107428.07      107409.47      114007.59      2.7490517e-06  5.1759032e-07  2.2314614e-06  1.1258922e+08
   4194000   4.0383544e-10  107431.08      107412.36      114052.8       2.749057e-06   5.1753305e-07  2.2315239e-06  1.1258993e+08
   4195000   4.0393173e-10  107435.48      107415.79      114379.81      2.7490447e-06  5.1742949e-07  2.2316153e-06  1.1259112e+08
   4196000   4.0402802e-10  107446.59      107426.81      114421.66      2.7490318e-06  5.1718586e-07  2.2318459e-06  1.1259343e+08
   4197000   4.0412431e-10  107452.14      107432.06      114527.05      2.7490243e-06  5.1706298e-07  2.2319613e-06  1.1259256e+08
   4198000   4.042206e-10   107460.99      107441.09      114478.28      2.7490151e-06  5.1686992e-07  2.2321452e-06  1.1259343e+08
   4199000   4.0431689e-10  107463.33      107446.36      113497.54      2.7490076e-06  5.1681387e-07  2.2321937e-06  1.1259211e+08
   4200000   4.0441318e-10  107452.48      107435.49      113493.16      2.7489974e-06  5.1702911e-07  2.2319683e-06  1.1258739e+08
   4201000   4.0450946e-10  107462.18      107446.76      112979.09      2.7489965e-06  5.1682662e-07  2.2321698e-06  1.1259225e+08
   4202000   4.0460575e-10  107440.96      107426.27      112715.26      2.7490016e-06  5.1727254e-07  2.2317291e-06  1.1258578e+08
   4203000   4.0470204e-10  107441.54      107427.04      112651.44      2.7490196e-06  5.1727847e-07  2.2317411e-06  1.1258775e+08
   4204000   4.0479833e-10  107433.65      107418.99      112694.73      2.7490087e-06  5.1743155e-07  2.2315772e-06  1.1258531e+08
   4205000   4.0489462e-10  107432.19      107416.83      112926.82      2.7490328e-06  5.17486e-07    2.2315468e-06  1.125877e+08 
   4206000   4.0499091e-10  107438.1       107422.4       113045.08      2.7490391e-06  5.1736953e-07  2.2316695e-06  1.1259078e+08
   4207000   4.050872e-10   107434.26      107418.09      113201.82      2.7490337e-06  5.1744381e-07  2.2315899e-06  1.1258926e+08
   4208000   4.0518349e-10  107442.37      107425.19      113546.91      2.7490415e-06  5.1728317e-07  2.2317583e-06  1.125931e+08 
   4209000   4.0527977e-10  107436.06      107419.07      113477.47      2.7490339e-06  5.1740666e-07  2.2316273e-06  1.1259027e+08
   4210000   4.0537606e-10  107432.59      107415.12      113632.77      2.7490314e-06  5.1747632e-07  2.2315551e-06  1.1258775e+08
   4211000   4.0547235e-10  107435.28      107416.61      114040.26      2.7490285e-06  5.1741741e-07  2.2316111e-06  1.1258787e+08
   4212000   4.0556864e-10  107437.95      107419.34      114023.62      2.7490285e-06  5.1736187e-07  2.2316666e-06  1.1258923e+08
   4213000   4.0566493e-10  107437.84      107418.4       114296.85      2.749042e-06   5.1737787e-07  2.2316642e-06  1.1259095e+08
   4214000   4.0576122e-10  107438.34      107417.52      114761.84      2.7490386e-06  5.1736388e-07  2.2316747e-06  1.1259206e+08
   4215000   4.0585751e-10  107438.55      107416.82      115065.82      2.7490299e-06  5.1735097e-07  2.2316789e-06  1.12592e+08  
   4216000   4.059538e-10   107454.75      107433.14      115042.9       2.7490246e-06  5.1700899e-07  2.2320156e-06  1.125961e+08 
   4217000   4.0605009e-10  107427.08      107406.26      114748.12      2.7490118e-06  5.1757108e-07  2.2314407e-06  1.1258362e+08
   4218000   4.0614637e-10  107445.96      107425.2       114746.46      2.7490149e-06  5.1718205e-07  2.2318328e-06  1.1258927e+08
   4219000   4.0624266e-10  107451.46      107431.15      114603.81      2.7490117e-06  5.1706453e-07  2.2319472e-06  1.1259033e+08
   4220000   4.0633895e-10  107446.11      107424.96      114877.51      2.7490112e-06  5.1717525e-07  2.231836e-06   1.1258856e+08
   4221000   4.0643524e-10  107444.56      107422.33      115239.54      2.7490188e-06  5.172149e-07   2.2318039e-06  1.1258763e+08
   4222000   4.0653153e-10  107453.91      107429.41      116005.33      2.7490055e-06  5.1700752e-07  2.2319979e-06  1.1259019e+08
   4223000   4.0662782e-10  107437.72      107412.24      116317.11      2.749012e-06   5.1735032e-07  2.2316617e-06  1.1258536e+08
   4224000   4.0672411e-10  107442.45      107416.9       116344.53      2.7490142e-06  5.1725427e-07  2.2317599e-06  1.1258702e+08
   4225000   4.068204e-10   107442.73      107417.6       116205.54      2.7490139e-06  5.1724817e-07  2.2317657e-06  1.1258755e+08
   4226000   4.0691669e-10  107429.27      107405.89      115606.2       2.7490313e-06  5.1754507e-07  2.2314862e-06  1.1258626e+08
   4227000   4.0701297e-10  107444.54      107422.6       115139.32      2.7490408e-06  5.1723748e-07  2.2318033e-06  1.1259381e+08
   4228000   4.0710926e-10  107438.48      107415.61      115446.76      2.7490584e-06  5.1738085e-07  2.2316776e-06  1.1259268e+08
   4229000   4.0720555e-10  107440.41      107417.6       115427.69      2.7490444e-06  5.1732678e-07  2.2317176e-06  1.1259164e+08
   4230000   4.0730184e-10  107444.83      107422.88      115148.12      2.7490379e-06  5.1722832e-07  2.2318095e-06  1.1259208e+08
   4231000   4.0739813e-10  107438.5       107417.8       114720.47      2.749048e-06   5.1737008e-07  2.2316779e-06  1.1259118e+08
   4232000   4.0749442e-10  107438.79      107419.08      114390.4       2.7490269e-06  5.1734285e-07  2.231684e-06   1.1259011e+08
   4233000   4.0759071e-10  107444.33      107424.66      114382.46      2.7490358e-06  5.1723682e-07  2.231799e-06   1.1259202e+08
   4234000   4.07687e-10    107443.54      107422.73      114763.63      2.7490331e-06  5.1725036e-07  2.2317827e-06  1.1259106e+08
   4235000   4.0778328e-10  107434.54      107413.23      114919.52      2.7490251e-06  5.1742944e-07  2.2315956e-06  1.1258847e+08
   4236000   4.0787957e-10  107425.29      107405.27      114482.09      2.7490229e-06  5.1761927e-07  2.2314036e-06  1.1258598e+08
   4237000   4.0797586e-10  107410.4       107390.43      114445.57      2.7490222e-06  5.1792806e-07  2.2310942e-06  1.1258041e+08
   4238000   4.0807215e-10  107440.54      107421.47      114178.36      2.7490321e-06  5.173118e-07   2.2317203e-06  1.1259037e+08
   4239000   4.0816844e-10  107447.01      107426.84      114551.36      2.7490318e-06  5.1717718e-07  2.2318547e-06  1.1259116e+08
   4240000   4.0826473e-10  107452.03      107432.99      114178.8       2.7490188e-06  5.1705982e-07  2.2319589e-06  1.125919e+08 
   4241000   4.0836102e-10  107421.15      107402.93      113873.47      2.7490308e-06  5.1771333e-07  2.2313175e-06  1.1258206e+08
   4242000   4.0845731e-10  107426.77      107407.06      114379.01      2.7490362e-06  5.1760185e-07  2.2314344e-06  1.1258632e+08
   4243000   4.085536e-10   107444.03      107425.19      114104.51      2.7490341e-06  5.1724135e-07  2.2317928e-06  1.1259321e+08
   4244000   4.0864988e-10  107453.56      107434.79      114091.63      2.7490425e-06  5.1705162e-07  2.2319908e-06  1.1259669e+08
   4245000   4.0874617e-10  107429.95      107411.56      113939.99      2.7490318e-06  5.1753144e-07  2.2315003e-06  1.1258744e+08
   4246000   4.0884246e-10  107437.2       107418.46      114063.95      2.7490284e-06  5.1737733e-07  2.231651e-06   1.1258994e+08
   4247000   4.0893875e-10  107442.14      107423.67      113978.99      2.7490315e-06  5.1727793e-07  2.2317536e-06  1.1259208e+08
   4248000   4.0903504e-10  107442.79      107425.96      113429.41      2.7490298e-06  5.1726272e-07  2.231767e-06   1.1259196e+08
   4249000   4.0913133e-10  107452.03      107436.95      112853.74      2.7490104e-06  5.170515e-07   2.2319589e-06  1.1259268e+08
   4250000   4.0922762e-10  107440.28      107425.01      112907.07      2.749007e-06   5.1729205e-07  2.231715e-06   1.1258716e+08
   4251000   4.0932391e-10  107446.72      107432.37      112606.04      2.7490091e-06  5.1716041e-07  2.2318487e-06  1.1258999e+08
   4252000   4.094202e-10   107431.54      107417.71      112416.32      2.7490186e-06  5.1748522e-07  2.2315334e-06  1.1258537e+08
   4253000   4.0951648e-10  107457.39      107443.76      112374.61      2.7490276e-06  5.1695735e-07  2.2320703e-06  1.1259719e+08
   4254000   4.0961277e-10  107433.01      107418.58      112618.39      2.7490145e-06  5.1745063e-07  2.2315639e-06  1.1258668e+08
   4255000   4.0970906e-10  107452.86      107437.79      112852.34      2.7490195e-06  5.1704332e-07  2.2319762e-06  1.1259285e+08
   4256000   4.0980535e-10  107443.57      107428.69      112778.61      2.7490386e-06  5.1725544e-07  2.2317832e-06  1.1258927e+08
   4257000   4.0990164e-10  107443.63      107427.96      113044.34      2.7490334e-06  5.172489e-07   2.2317845e-06  1.1258983e+08
   4258000   4.0999793e-10  107429.84      107413.95      113102.73      2.7490223e-06  5.1752416e-07  2.2314981e-06  1.1258497e+08
   4259000   4.1009422e-10  107433.42      107416.81      113349.69      2.7490389e-06  5.1746633e-07  2.2315725e-06  1.1258931e+08
   4260000   4.1019051e-10  107439.85      107422.79      113505.62      2.7490447e-06  5.1733878e-07  2.231706e-06   1.1259125e+08
   4261000   4.1028679e-10  107439.3       107423.14      113202.63      2.7490287e-06  5.1733417e-07  2.2316946e-06  1.1259019e+08
   4262000   4.1038308e-10  107436.01      107421.9       112514.28      2.7490453e-06  5.1741912e-07  2.2316262e-06  1.125909e+08 
   4263000   4.1047937e-10  107451.87      107436.83      112839.86      2.7490332e-06  5.1707759e-07  2.2319556e-06  1.1259526e+08
   4264000   4.1057566e-10  107443.98      107429.57      112621.86      2.7490413e-06  5.1724954e-07  2.2317918e-06  1.1259177e+08
   4265000   4.1067195e-10  107444.78      107430.67      112524.66      2.7490366e-06  5.1722824e-07  2.2318084e-06  1.125914e+08 
   4266000   4.1076824e-10  107433.87      107420.53      112254.79      2.7490354e-06  5.1745358e-07  2.2315819e-06  1.1258923e+08
   4267000   4.1086453e-10  107438.5       107423.95      112664.8       2.7490212e-06  5.1734325e-07  2.2316779e-06  1.1258965e+08
   4268000   4.1096082e-10  107446.43      107432.48      112471.3       2.7490197e-06  5.1717707e-07  2.2318426e-06  1.1259032e+08
   4269000   4.1105711e-10  107444.74      107431.05      112382.28      2.749017e-06   5.1720952e-07  2.2318075e-06  1.1258775e+08
   4270000   4.1115339e-10  107448.87      107436.36      111994.24      2.7490116e-06  5.1711812e-07  2.2318934e-06  1.1258817e+08
   4271000   4.1124968e-10  107458.94      107447.35      111694.89      2.7490163e-06  5.1691375e-07  2.2321026e-06  1.1259287e+08
   4272000   4.1134597e-10  107445.37      107434.17      111549.26      2.7490083e-06  5.1718775e-07  2.2318206e-06  1.12589e+08  
   4273000   4.1144226e-10  107443.93      107434.28      111029.58      2.7490119e-06  5.1722124e-07  2.2317907e-06  1.1258996e+08
   4274000   4.1153855e-10  107444.97      107434.34      111360.87      2.7490162e-06  5.1720385e-07  2.2318123e-06  1.1258945e+08
   4275000   4.1163484e-10  107439.02      107427.41      111679.68      2.7490004e-06  5.1731163e-07  2.2316887e-06  1.1258542e+08
   4276000   4.1173113e-10  107439.26      107427.82      111623.12      2.7489977e-06  5.1730397e-07  2.2316937e-06  1.1258368e+08
   4277000   4.1182742e-10  107469.57      107457.7       111800.54      2.7490053e-06  5.1668193e-07  2.2323234e-06  1.1259474e+08
   4278000   4.1192371e-10  107462.4       107450.08      111944.2       2.7490257e-06  5.1685128e-07  2.2321744e-06  1.1259411e+08
   4279000   4.1201999e-10  107444.14      107431.41      112060.15      2.7490263e-06  5.1723134e-07  2.231795e-06   1.1258968e+08
   4280000   4.1211628e-10  107455.55      107441.21      112611.56      2.7490178e-06  5.1698578e-07  2.2320321e-06  1.1259508e+08
   4281000   4.1221257e-10  107430.44      107414.84      113007.96      2.7490264e-06  5.1751588e-07  2.2315106e-06  1.1258596e+08
   4282000   4.1230886e-10  107450.09      107433.91      113221.88      2.7490413e-06  5.1712258e-07  2.2319187e-06  1.1259341e+08
   4283000   4.1240515e-10  107450.54      107433.54      113494.72      2.7490268e-06  5.1709882e-07  2.231928e-06   1.1259196e+08
   4284000   4.1250144e-10  107454.87      107437.48      113629.24      2.7490176e-06  5.1699974e-07  2.2320179e-06  1.1259261e+08
   4285000   4.1259773e-10  107443.62      107426.3       113595.45      2.7490272e-06  5.1724282e-07  2.2317844e-06  1.1258924e+08
   4286000   4.1269402e-10  107453.64      107435.95      113728.67      2.7490448e-06  5.170525e-07   2.2319923e-06  1.1259451e+08
   4287000   4.1279031e-10  107450.6       107433.59      113499.32      2.7490456e-06  5.1711626e-07  2.2319294e-06  1.125947e+08 
   4288000   4.1288659e-10  107445.58      107429.56      113161.08      2.7490143e-06  5.1718928e-07  2.231825e-06   1.1259004e+08
   4289000   4.1298288e-10  107445.51      107429.36      113205.78      2.749008e-06   5.1718448e-07  2.2318235e-06  1.1258871e+08
   4290000   4.1307917e-10  107446.95      107432.15      112755.58      2.7490098e-06  5.1715633e-07  2.2318534e-06  1.1258942e+08
   4291000   4.1317546e-10  107439.36      107425.22      112527.35      2.7490194e-06  5.1732366e-07  2.2316958e-06  1.125887e+08 
   4292000   4.1327175e-10  107446.15      107431.65      112658.1       2.7490059e-06  5.1716891e-07  2.2318369e-06  1.1259089e+08
   4293000   4.1336804e-10  107435.88      107421.51      112599.84      2.7490135e-06  5.1739006e-07  2.2316234e-06  1.1258798e+08
   4294000   4.1346433e-10  107421.44      107407.65      112395.85      2.7490093e-06  5.1768562e-07  2.2313237e-06  1.1258242e+08
   4295000   4.1356062e-10  107444.99      107431.15      112435.27      2.7490025e-06  5.1718975e-07  2.2318128e-06  1.1258917e+08
   4296000   4.136569e-10   107444.55      107430.38      112543.54      2.749029e-06   5.1722532e-07  2.2318036e-06  1.1259054e+08
   4297000   4.1375319e-10  107440.75      107426.82      112460.34      2.7490413e-06  5.1731653e-07  2.2317247e-06  1.1259075e+08
   4298000   4.1384948e-10  107450.45      107435.43      112832.4       2.7490416e-06  5.1711545e-07  2.2319261e-06  1.1259393e+08
   4299000   4.1394577e-10  107454.7       107438.74      113151.37      2.7490219e-06  5.1700736e-07  2.2320145e-06  1.1259227e+08
   4300000   4.1404206e-10  107438.29      107422.9       112946.82      2.7490066e-06  5.1733294e-07  2.2316736e-06  1.1258455e+08
   4301000   4.1413835e-10  107451.84      107436.83      112830.9       2.7490016e-06  5.1704648e-07  2.2319551e-06  1.1259047e+08
   4302000   4.1423464e-10  107458.02      107442.83      112898.08      2.7490032e-06  5.1691977e-07  2.2320835e-06  1.1259417e+08
   4303000   4.1433093e-10  107448.38      107431.97      113297.64      2.7490053e-06  5.1712208e-07  2.2318832e-06  1.125909e+08 
   4304000   4.1442722e-10  107439.8       107423.35      113300.54      2.7490285e-06  5.1732347e-07  2.231705e-06   1.1258963e+08
   4305000   4.145235e-10   107425.13      107408.93      113201.09      2.7490205e-06  5.1762033e-07  2.2314002e-06  1.1258385e+08
   4306000   4.1461979e-10  107425.3       107408.04      113554.14      2.7490284e-06  5.1762477e-07  2.2314037e-06  1.125842e+08 
   4307000   4.1471608e-10  107429.12      107411.41      113710.58      2.7490247e-06  5.1754171e-07  2.231483e-06   1.1258453e+08
   4308000   4.1481237e-10  107443.69      107427.26      113296.2       2.7490208e-06  5.1723509e-07  2.2317857e-06  1.1258874e+08
   4309000   4.1490866e-10  107444.12      107427.78      113266.52      2.7490334e-06  5.1723877e-07  2.2317946e-06  1.1258989e+08
   4310000   4.1500495e-10  107454.14      107438.48      113049.91      2.7490328e-06  5.1703e-07     2.2320028e-06  1.1259438e+08
   4311000   4.1510124e-10  107452.91      107438.64      112585.21      2.7490188e-06  5.1704155e-07  2.2319773e-06  1.1259225e+08
   4312000   4.1519753e-10  107452.94      107439.68      112248.15      2.7490246e-06  5.1704664e-07  2.2319779e-06  1.1259246e+08
   4313000   4.1529382e-10  107442.69      107429.37      112257.41      2.749041e-06   5.1727611e-07  2.2317649e-06  1.1259048e+08
   4314000   4.153901e-10   107438.09      107422.93      112866.66      2.749051e-06   5.1738157e-07  2.2316694e-06  1.1259071e+08
   4315000   4.1548639e-10  107433.75      107417.82      113119.49      2.7490452e-06  5.1746599e-07  2.2315792e-06  1.125894e+08 
   4316000   4.1558268e-10  107438.69      107422.96      113058.44      2.7490437e-06  5.1736191e-07  2.2316818e-06  1.125917e+08 
   4317000   4.1567897e-10  107440.13      107423.87      113237.4       2.7490392e-06  5.1732739e-07  2.2317118e-06  1.1259214e+08
   4318000   4.1577526e-10  107437.5       107421.35      113197.82      2.7490398e-06  5.1738268e-07  2.2316572e-06  1.1259098e+08
   4319000   4.1587155e-10  107409.76      107393.46      113219.68      2.7490314e-06  5.1795045e-07  2.231081e-06   1.1257963e+08
   4320000   4.1596784e-10  107449.86      107432.68      113553.54      2.7490411e-06  5.1712724e-07  2.2319139e-06  1.1259545e+08
   4321000   4.1606413e-10  107452.79      107435.51      113592.74      2.7490433e-06  5.1706844e-07  2.2319749e-06  1.1259633e+08
   4322000   4.1616041e-10  107441.56      107422.25      114259.26      2.7490494e-06  5.1730784e-07  2.2317416e-06  1.1259353e+08
   4323000   4.162567e-10   107428.37      107408.34      114488.49      2.7490474e-06  5.175798e-07   2.2314676e-06  1.1258894e+08
   4324000   4.1635299e-10  107423.48      107402.91      114660.99      2.7490427e-06  5.1767676e-07  2.2313659e-06  1.1258718e+08
   4325000   4.1644928e-10  107433.28      107413.61      114368.77      2.7490524e-06  5.17483e-07    2.2315694e-06  1.1259222e+08
   4326000   4.1654557e-10  107438.87      107419.77      114186.37      2.7490433e-06  5.1735765e-07  2.2316856e-06  1.1259171e+08
   4327000   4.1664186e-10  107455.07      107437.59      113658.08      2.7490311e-06  5.1700903e-07  2.232022e-06   1.125945e+08 
   4328000   4.1673815e-10  107444.18      107428.04      113199.83      2.7490179e-06  5.1722208e-07  2.2317958e-06  1.1258865e+08
   4329000   4.1683444e-10  107464.75      107450.12      112717.45      2.7490283e-06  5.1680502e-07  2.2322232e-06  1.1259681e+08
   4330000   4.1693073e-10  107453.04      107440.14      112128.75      2.7490374e-06  5.1705737e-07  2.2319801e-06  1.1259407e+08
   4331000   4.1702701e-10  107454.48      107440.35      112541.2       2.7490228e-06  5.1701279e-07  2.23201e-06    1.1259491e+08
   4332000   4.171233e-10   107443.03      107428.37      112706.01      2.7490369e-06  5.172649e-07   2.231772e-06   1.1259057e+08
   4333000   4.1721959e-10  107441.5       107426.08      112956.1       2.7490181e-06  5.172779e-07   2.2317402e-06  1.1258695e+08
   4334000   4.1731588e-10  107441.37      107425.71      113037.58      2.7490162e-06  5.1727871e-07  2.2317375e-06  1.1258676e+08
   4335000   4.1741217e-10  107443.35      107425.94      113626.16      2.7490217e-06  5.1724291e-07  2.2317788e-06  1.1258918e+08
   4336000   4.1750846e-10  107445.07      107427.46      113694.32      2.749024e-06   5.1720957e-07  2.2318144e-06  1.1259134e+08
   4337000   4.1760475e-10  107430.93      107410.42      114648.2       2.7490326e-06  5.1751199e-07  2.2315206e-06  1.125876e+08 
   4338000   4.1770104e-10  107442.24      107420         115238.78      2.7490194e-06  5.172638e-07   2.2317556e-06  1.1259058e+08
   4339000   4.1779733e-10  107446.18      107422.89      115594.78      2.7490122e-06  5.1717478e-07  2.2318374e-06  1.1259001e+08
   4340000   4.1789361e-10  107436.93      107414.87      115174.16      2.7490245e-06  5.1737917e-07  2.2316454e-06  1.1258653e+08
   4341000   4.179899e-10   107451.24      107428.7       115350.95      2.749043e-06   5.1710035e-07  2.2319426e-06  1.125925e+08 
   4342000   4.1808619e-10  107454.76      107432.89      115128.38      2.7490346e-06  5.1701878e-07  2.2320158e-06  1.1259237e+08
   4343000   4.1818248e-10  107454.3       107432.77      115015.23      2.7490293e-06  5.1702314e-07  2.2320062e-06  1.1259161e+08
   4344000   4.1827877e-10  107458.38      107436.84      115023.92      2.749021e-06   5.1693009e-07  2.232091e-06   1.1259398e+08
   4345000   4.1837506e-10  107447.09      107425.77      114936.87      2.7490309e-06  5.1717456e-07  2.2318564e-06  1.1259164e+08
   4346000   4.1847135e-10  107428.64      107406.57      115170.67      2.7490258e-06  5.1755261e-07  2.2314732e-06  1.1258627e+08
   4347000   4.1856764e-10  107442.07      107419.41      115379.99      2.7490167e-06  5.1726448e-07  2.2317522e-06  1.1258911e+08
   4348000   4.1866393e-10  107459         107434.31      116074.37      2.7490121e-06  5.1690843e-07  2.2321037e-06  1.1259233e+08
   4349000   4.1876021e-10  107458.12      107433.32      116111.05      2.7489978e-06  5.1691236e-07  2.2320854e-06  1.1258916e+08
   4350000   4.188565e-10   107466.35      107440.38      116514.08      2.7489838e-06  5.1672725e-07  2.2322565e-06  1.1259185e+08
   4351000   4.1895279e-10  107432.46      107404.92      117001.11      2.7490081e-06  5.1745575e-07  2.2315524e-06  1.1258232e+08
   4352000   4.1904908e-10  107445.1       107416.12      117496.88      2.7490096e-06  5.1719465e-07  2.231815e-06   1.125871e+08 
   4353000   4.1914537e-10  107441.27      107409.8       118324.62      2.7490097e-06  5.1727417e-07  2.2317355e-06  1.1258635e+08
   4354000   4.1924166e-10  107442.24      107411.1       118215.92      2.7490145e-06  5.1725887e-07  2.2317557e-06  1.1258852e+08
   4355000   4.1933795e-10  107436.88      107405.17      118401.12      2.7490111e-06  5.1736685e-07  2.2316442e-06  1.1258809e+08
   4356000   4.1943424e-10  107424.38      107392.07      118592.73      2.7490206e-06  5.1763587e-07  2.2313848e-06  1.125861e+08 
   4357000   4.1953052e-10  107408.16      107372.55      119676.56      2.7490233e-06  5.1797563e-07  2.2310476e-06  1.1258057e+08
   4358000   4.1962681e-10  107424.37      107387.78      120018.71      2.7490386e-06  5.1765426e-07  2.2313843e-06  1.1258705e+08
   4359000   4.197231e-10   107423.49      107387.95      119669.52      2.7490343e-06  5.1766805e-07  2.2313662e-06  1.1258616e+08
   4360000   4.1981939e-10  107428.91      107392.62      119926.72      2.7490264e-06  5.1754764e-07  2.2314788e-06  1.1258736e+08
   4361000   4.1991568e-10  107432.02      107397.28      119409.71      2.7490293e-06  5.1748603e-07  2.2315433e-06  1.1258843e+08
   4362000   4.2001197e-10  107437.42      107402.43      119501.13      2.7490298e-06  5.1737419e-07  2.2316556e-06  1.1258942e+08
   4363000   4.2010826e-10  107461.44      107425.02      119999.92      2.7490222e-06  5.168677e-07   2.2321545e-06  1.1259621e+08
   4364000   4.2020455e-10  107452.34      107416.04      119953.82      2.7490471e-06  5.1708162e-07  2.2319655e-06  1.1259456e+08
   4365000   4.2030084e-10  107454.27      107418.12      119904.25      2.7490318e-06  5.1702629e-07  2.2320055e-06  1.1259481e+08
   4366000   4.2039712e-10  107435.13      107398.63      119999.99      2.7490338e-06  5.1742588e-07  2.2316079e-06  1.1258865e+08
   4367000   4.2049341e-10  107440.91      107403.3       120379.57      2.7490423e-06  5.1731431e-07  2.231728e-06   1.1259264e+08
   4368000   4.205897e-10   107451.84      107414.01      120461.2       2.7490275e-06  5.1707255e-07  2.231955e-06   1.1259522e+08
   4369000   4.2068599e-10  107445.46      107408.38      120207.24      2.7490348e-06  5.1721224e-07  2.2318226e-06  1.1259143e+08
   4370000   4.2078228e-10  107454.01      107417.92      119883.86      2.7490333e-06  5.1703327e-07  2.232e-06      1.1259206e+08
   4371000   4.2087857e-10  107456.8       107421.6       119588.28      2.7490276e-06  5.1696948e-07  2.2320581e-06  1.1259255e+08
   4372000   4.2097486e-10  107440.55      107404.91      119719.18      2.7490228e-06  5.1730218e-07  2.2317206e-06  1.1258738e+08
   4373000   4.2107115e-10  107448.92      107413.32      119715.39      2.7490309e-06  5.1713645e-07  2.2318945e-06  1.1259182e+08
   4374000   4.2116744e-10  107452.45      107416.93      119690.24      2.7490144e-06  5.1704674e-07  2.2319677e-06  1.1259214e+08
   4375000   4.2126372e-10  107461.49      107427.15      119305.3       2.7490129e-06  5.1685743e-07  2.2321554e-06  1.125953e+08 
   4376000   4.2136001e-10  107447.05      107413.07      119168.82      2.7490076e-06  5.1715212e-07  2.2318555e-06  1.125886e+08 
   4377000   4.214563e-10   107437.59      107405.41      118559.28      2.7490175e-06  5.173584e-07   2.2316591e-06  1.1258622e+08
   4378000   4.2155259e-10  107434.31      107404.26      117842.74      2.7490207e-06  5.1742989e-07  2.2315909e-06  1.1258737e+08
   4379000   4.2164888e-10  107426.77      107396.63      117865.46      2.7490178e-06  5.175836e-07   2.2314342e-06  1.1258573e+08
   4380000   4.2174517e-10  107436.96      107407.17      117758.97      2.7490301e-06  5.1738424e-07  2.2316459e-06  1.1259e+08   
   4381000   4.2184146e-10  107445.56      107415.33      117914.21      2.7490496e-06  5.17225e-07    2.2318246e-06  1.1259404e+08
   4382000   4.2193775e-10  107427.29      107396.46      118098.42      2.7490381e-06  5.1759303e-07  2.231445e-06   1.1258693e+08
   4383000   4.2203403e-10  107428.19      107397.78      117957.8       2.7490416e-06  5.175779e-07   2.2314637e-06  1.1258811e+08
   4384000   4.2213032e-10  107444.75      107415.23      117676.39      2.7490522e-06  5.1724442e-07  2.2318078e-06  1.1259448e+08
   4385000   4.2222661e-10  107443.88      107414.51      117626.04      2.7490367e-06  5.1724712e-07  2.2317896e-06  1.1259205e+08
   4386000   4.223229e-10   107436.26      107407.59      117382.78      2.7490307e-06  5.1739932e-07  2.2316314e-06  1.1258864e+08
   4387000   4.2241919e-10  107428.62      107400.31      117255.99      2.7490344e-06  5.1756178e-07  2.2314726e-06  1.1258729e+08
   4388000   4.2251548e-10  107434.69      107405.36      117603.14      2.7490452e-06  5.1744627e-07  2.2315989e-06  1.1259043e+08
   4389000   4.2261177e-10  107443.94      107414.12      117776.66      2.7490346e-06  5.172436e-07   2.231791e-06   1.1259242e+08
   4390000   4.2270806e-10  107435.11      107405.83      117585.47      2.7490334e-06  5.1742593e-07  2.2316075e-06  1.1258887e+08
   4391000   4.2280435e-10  107432.6       107403.48      117529.84      2.7490323e-06  5.1747702e-07  2.2315553e-06  1.1258779e+08
   4392000   4.2290063e-10  107450.46      107420.57      117805.41      2.7490433e-06  5.171169e-07   2.2319264e-06  1.1259585e+08
   4393000   4.2299692e-10  107434.56      107406.61      117141.27      2.7490396e-06  5.1744355e-07  2.231596e-06   1.1258952e+08
   4394000   4.2309321e-10  107444.61      107417.9       116735.42      2.7490355e-06  5.1723074e-07  2.2318048e-06  1.1259315e+08
   4395000   4.231895e-10   107432.96      107405.08      117117.41      2.7490229e-06  5.1746003e-07  2.2315629e-06  1.1258819e+08
   4396000   4.2328579e-10  107428.73      107401.81      116792.64      2.749012e-06   5.1753691e-07  2.2314751e-06  1.1258663e+08
   4397000   4.2338208e-10  107432.86      107406.98      116446.55      2.7490216e-06  5.1746093e-07  2.2315607e-06  1.1258959e+08
   4398000   4.2347837e-10  107428.86      107402.68      116545.36      2.7490255e-06  5.1754775e-07  2.2314777e-06  1.1258896e+08
   4399000   4.2357466e-10  107435.1       107409.52      116348.52      2.7490318e-06  5.1742444e-07  2.2316073e-06  1.1259104e+08
   4400000   4.2367095e-10  107437         107411.59      116294.16      2.7490365e-06  5.1738966e-07  2.2316468e-06  1.1259141e+08
   4401000   4.2376723e-10  107430.3       107404.21      116515.14      2.7490253e-06  5.1751759e-07  2.2315077e-06  1.1258775e+08
   4402000   4.2386352e-10  107433.21      107408.27      116135.57      2.7490157e-06  5.1744752e-07  2.2315681e-06  1.1258719e+08
   4403000   4.2395981e-10  107431.45      107408.22      115560.04      2.7490285e-06  5.1749691e-07  2.2315316e-06  1.1258746e+08
   4404000   4.240561e-10   107440.73      107418.16      115349.33      2.7490351e-06  5.1731084e-07  2.2317243e-06  1.1259133e+08
   4405000   4.2415239e-10  107424.54      107400.81      115719.93      2.7490249e-06  5.1763692e-07  2.231388e-06   1.1258515e+08
   4406000   4.2424868e-10  107429.67      107405.12      116001.09      2.749021e-06   5.1752648e-07  2.2314945e-06  1.1258618e+08
   4407000   4.2434497e-10  107438.26      107412.61      116374.69      2.7490176e-06  5.1734473e-07  2.2316729e-06  1.1258662e+08
   4408000   4.2444126e-10  107435.44      107409.42      116494.68      2.7490147e-06  5.1740037e-07  2.2316143e-06  1.1258375e+08
   4409000   4.2453754e-10  107455.19      107428.28      116816.92      2.7490238e-06  5.1699904e-07  2.2320247e-06  1.1259197e+08
   4410000   4.2463383e-10  107452.96      107426.45      116681.05      2.7490326e-06  5.1705427e-07  2.2319784e-06  1.1259432e+08
   4411000   4.2473012e-10  107425.17      107398.85      116585.15      2.7490402e-06  5.1763917e-07  2.231401e-06   1.1258821e+08
   4412000   4.2482641e-10  107411.36      107385.12      116544.87      2.7490398e-06  5.1792561e-07  2.2311142e-06  1.1258352e+08
   4413000   4.249227e-10   107439.83      107413.21      116702.03      2.7490266e-06  5.1732095e-07  2.2317056e-06  1.1258969e+08
   4414000   4.2501899e-10  107442.97      107414.82      117215.09      2.7490354e-06  5.1726473e-07  2.2317707e-06  1.1258918e+08
   4415000   4.2511528e-10  107443.46      107415.45      117171.01      2.7490244e-06  5.1724339e-07  2.231781e-06   1.1258921e+08
   4416000   4.2521157e-10  107435.68      107407.85      117102.54      2.7490298e-06  5.1741054e-07  2.2316193e-06  1.1258734e+08
   4417000   4.2530786e-10  107441.17      107413.07      117200.55      2.749027e-06   5.1729354e-07  2.2317335e-06  1.1258825e+08
   4418000   4.2540414e-10  107446.05      107417.33      117408.72      2.7490337e-06  5.1719898e-07  2.2318347e-06  1.1259118e+08
   4419000   4.2550043e-10  107431.18      107400.6       118018.38      2.7490455e-06  5.1751952e-07  2.2315259e-06  1.1258708e+08
   4420000   4.2559672e-10  107435.8       107404.7       118196.52      2.7490325e-06  5.1741063e-07  2.2316219e-06  1.1258685e+08
   4421000   4.2569301e-10  107451.74      107421.88      117797.31      2.7490325e-06  5.1707955e-07  2.2319529e-06  1.1259216e+08
   4422000   4.257893e-10   107450.85      107421.92      117485.74      2.7490221e-06  5.1708755e-07  2.2319345e-06  1.1259161e+08
   4423000   4.2588559e-10  107444.56      107415.78      117428.78      2.7490268e-06  5.17223e-07    2.2318038e-06  1.1259014e+08
   4424000   4.2598188e-10  107427.88      107398.33      117672.51      2.7490229e-06  5.1756548e-07  2.2314575e-06  1.1258462e+08
   4425000   4.2607817e-10  107443.74      107413.49      117917.95      2.7490148e-06  5.1722809e-07  2.2317867e-06  1.1258937e+08
   4426000   4.2617446e-10  107450.45      107419.7       118095.58      2.7490116e-06  5.1708535e-07  2.2319262e-06  1.1259072e+08
   4427000   4.2627074e-10  107441.2       107409.9       118268.84      2.7490343e-06  5.1730034e-07  2.231734e-06   1.1258884e+08
   4428000   4.2636703e-10  107447.26      107416.94      117945.27      2.7490255e-06  5.1716562e-07  2.2318599e-06  1.1259117e+08
   4429000   4.2646332e-10  107442.33      107411.14      118231.99      2.7490324e-06  5.1727486e-07  2.2317575e-06  1.1259166e+08
   4430000   4.2655961e-10  107437.41      107404.76      118718.04      2.7490387e-06  5.1738337e-07  2.2316553e-06  1.1259018e+08
   4431000   4.266559e-10   107438.47      107405.84      118709.36      2.7490301e-06  5.1735287e-07  2.2316773e-06  1.1258888e+08
   4432000   4.2675219e-10  107450.51      107415.87      119396.45      2.749034e-06   5.1710662e-07  2.2319274e-06  1.1259363e+08
   4433000   4.2684848e-10  107447.35      107411.53      119785.54      2.7490244e-06  5.1716262e-07  2.2318618e-06  1.1259324e+08
   4434000   4.2694477e-10  107443.93      107408.24      119739.4       2.7490241e-06  5.1723336e-07  2.2317908e-06  1.1259349e+08
   4435000   4.2704106e-10  107443.54      107407.4       119887.15      2.7490411e-06  5.1725853e-07  2.2317826e-06  1.1259544e+08
   4436000   4.2713734e-10  107423.65      107388.03      119696.34      2.7490376e-06  5.1766808e-07  2.2313695e-06  1.1258708e+08
   4437000   4.2723363e-10  107448.52      107413.78      119424.07      2.7490302e-06  5.1714419e-07  2.231886e-06   1.1259486e+08
   4438000   4.2732992e-10  107436.3       107403.94      118620.22      2.7490436e-06  5.1741129e-07  2.2316323e-06  1.1259104e+08
   4439000   4.2742621e-10  107436.31      107404.06      118579.85      2.7490484e-06  5.1741595e-07  2.2316324e-06  1.125911e+08 
   4440000   4.275225e-10   107451.98      107418.06      119155.63      2.7490539e-06  5.1709603e-07  2.2319579e-06  1.1259806e+08
   4441000   4.2761879e-10  107440.58      107405.15      119651.17      2.7490382e-06  5.1731702e-07  2.2317212e-06  1.1259186e+08
   4442000   4.2771508e-10  107442.22      107405.67      120026.29      2.7490412e-06  5.1728602e-07  2.2317552e-06  1.1259132e+08
   4443000   4.2781137e-10  107454.12      107418.17      119836.91      2.7490379e-06  5.1703551e-07  2.2320024e-06  1.125942e+08 
   4444000   4.2790765e-10  107452.85      107418.09      119439.39      2.7490336e-06  5.1705752e-07  2.2319761e-06  1.1259318e+08
   4445000   4.2800394e-10  107452.04      107418.33      119086.16      2.7490349e-06  5.1707575e-07  2.2319592e-06  1.1259333e+08
   4446000   4.2810023e-10  107449.96      107414.85      119552.51      2.7490106e-06  5.1709461e-07  2.231916e-06   1.1259193e+08
   4447000   4.2819652e-10  107441.04      107404.81      119917.47      2.7490133e-06  5.1728268e-07  2.2317307e-06  1.1258876e+08
   4448000   4.2829281e-10  107446.57      107408.59      120508.1       2.7490155e-06  5.1716988e-07  2.2318456e-06  1.12589e+08  
   4449000   4.283891e-10   107434.48      107397.43      120185.73      2.7490103e-06  5.1741583e-07  2.2315945e-06  1.1258592e+08
   4450000   4.2848539e-10  107435.02      107396.19      120782.02      2.7490283e-06  5.1742261e-07  2.2316057e-06  1.1258893e+08
   4451000   4.2858168e-10  107451.22      107411.67      121038.9       2.7490345e-06  5.1709223e-07  2.2319422e-06  1.1259364e+08
   4452000   4.2867797e-10  107460.92      107419.76      121587.28      2.7490314e-06  5.1688776e-07  2.2321437e-06  1.1259448e+08
   4453000   4.2877425e-10  107458.95      107416.56      121995.06      2.7490242e-06  5.1692158e-07  2.2321026e-06  1.1259291e+08
   4454000   4.2887054e-10  107447.11      107405.09      121860.19      2.7490323e-06  5.1717553e-07  2.2318568e-06  1.1259054e+08
   4455000   4.2896683e-10  107441.03      107398.82      121916.13      2.7490302e-06  5.1729965e-07  2.2317305e-06  1.1258851e+08
   4456000   4.2906312e-10  107453.67      107411.18      122021.15      2.749044e-06   5.1705102e-07  2.231993e-06   1.1259436e+08
   4457000   4.2915941e-10  107435.94      107392.98      122163.25      2.7490308e-06  5.1740612e-07  2.2316247e-06  1.1258768e+08
   4458000   4.292557e-10   107445.97      107403.6       121973.18      2.7490249e-06  5.1719189e-07  2.231833e-06   1.1259266e+08
   4459000   4.2935199e-10  107425.27      107383.43      121777.98      2.7490453e-06  5.1764217e-07  2.2314032e-06  1.1258781e+08
   4460000   4.2944828e-10  107430.15      107388.05      121868.39      2.7490401e-06  5.1753571e-07  2.2315044e-06  1.1258881e+08
   4461000   4.2954457e-10  107452.17      107408.76      122331.45      2.7490144e-06  5.1705244e-07  2.231962e-06   1.1259386e+08
   4462000   4.2964085e-10  107452.28      107408.96      122296.78      2.7490056e-06  5.1704157e-07  2.2319641e-06  1.125927e+08 
   4463000   4.2973714e-10  107438.37      107394.05      122621.92      2.7490119e-06  5.1733655e-07  2.2316753e-06  1.1258841e+08
   4464000   4.2983343e-10  107438.05      107394.1       122498.47      2.7490229e-06  5.1735427e-07  2.2316687e-06  1.1259028e+08
   4465000   4.2992972e-10  107433.23      107390.68      122023.88      2.7490166e-06  5.1744803e-07  2.2315685e-06  1.1258668e+08
   4466000   4.3002601e-10  107433.31      107390.74      122028.42      2.7490064e-06  5.1743625e-07  2.2315701e-06  1.1258405e+08
   4467000   4.301223e-10   107436.95      107395.21      121757.39      2.7490119e-06  5.1736611e-07  2.2316458e-06  1.1258515e+08
   4468000   4.3021859e-10  107452.99      107411.77      121599.66      2.7490118e-06  5.1703281e-07  2.231979e-06   1.1259016e+08
   4469000   4.3031488e-10  107433.9       107392.76      121554.33      2.7490171e-06  5.174347e-07   2.2315824e-06  1.1258408e+08
   4470000   4.3041116e-10  107449.79      107409.78      121190.12      2.7490409e-06  5.1712833e-07  2.2319125e-06  1.1259266e+08
   4471000   4.3050745e-10  107443.16      107404.88      120605.37      2.7490424e-06  5.172676e-07   2.2317748e-06  1.1259109e+08
   4472000   4.3060374e-10  107436.99      107399.62      120294.93      2.7490447e-06  5.1739813e-07  2.2316466e-06  1.1259105e+08
   4473000   4.3070003e-10  107436.36      107400.18      119896.62      2.7490335e-06  5.174e-07      2.2316335e-06  1.1259086e+08
   4474000   4.3079632e-10  107421.1       107384.73      119945.2       2.7490294e-06  5.1771286e-07  2.2313165e-06  1.1258414e+08
   4475000   4.3089261e-10  107446.54      107408.8       120427.11      2.7490347e-06  5.1718986e-07  2.2318449e-06  1.1259282e+08
   4476000   4.309889e-10   107453.34      107416.12      120260.84      2.7490427e-06  5.1705643e-07  2.2319862e-06  1.1259516e+08
   4477000   4.3108519e-10  107441.76      107405.92      119788.05      2.7490551e-06  5.1730946e-07  2.2317456e-06  1.1259135e+08
   4478000   4.3118148e-10  107442.5       107408.53      119161.08      2.7490408e-06  5.1727981e-07  2.231761e-06   1.1259035e+08
   4479000   4.3127776e-10  107446.74      107412.89      119128.18      2.7490333e-06  5.1718415e-07  2.2318492e-06  1.1259032e+08
   4480000   4.3137405e-10  107451.5       107417.01      119343.47      2.7490156e-06  5.1706772e-07  2.2319479e-06  1.1259109e+08
   4481000   4.3147034e-10  107422.97      107388.02      119472.97      2.7490244e-06  5.1766898e-07  2.2313554e-06  1.125822e+08 
   4482000   4.3156663e-10  107436.42      107400.73      119733.14      2.7490382e-06  5.1740344e-07  2.2316347e-06  1.1258922e+08
   4483000   4.3166292e-10  107436.8       107402.15      119384.67      2.7490328e-06  5.173901e-07   2.2316427e-06  1.1258952e+08
   4484000   4.3175921e-10  107429.7       107396.24      118978.37      2.749033e-06   5.1753786e-07  2.2314951e-06  1.1258744e+08
   4485000   4.318555e-10   107425.49      107393.35      118535.04      2.7490379e-06  5.1763006e-07  2.2314078e-06  1.1258696e+08
   4486000   4.3195179e-10  107444.22      107411.08      118886.34      2.7490379e-06  5.1724117e-07  2.2317968e-06  1.1259416e+08
   4487000   4.3204808e-10  107447.08      107413.48      119041.53      2.7490393e-06  5.1718313e-07  2.2318561e-06  1.1259466e+08
   4488000   4.3214436e-10  107440.48      107406.97      119006.18      2.7490143e-06  5.172952e-07   2.2317191e-06  1.125903e+08 
   4489000   4.3224065e-10  107429.94      107397.48      118645.54      2.7490273e-06  5.1752724e-07  2.2315001e-06  1.1258748e+08
   4490000   4.3233694e-10  107430.16      107397.19      118817.09      2.7490295e-06  5.1752483e-07  2.2315047e-06  1.1258684e+08
   4491000   4.3243323e-10  107452.33      107420.86      118337.11      2.7490217e-06  5.170566e-07   2.2319651e-06  1.1259312e+08
   4492000   4.3252952e-10  107452.53      107420.58      118497.52      2.7490242e-06  5.1705484e-07  2.2319694e-06  1.1259493e+08
   4493000   4.3262581e-10  107452.25      107419.09      118901.66      2.7490477e-06  5.1708406e-07  2.2319636e-06  1.1259851e+08
   4494000   4.327221e-10   107435.62      107402.39      118907.74      2.7490477e-06  5.1742956e-07  2.2316181e-06  1.1259368e+08
   4495000   4.3281839e-10  107416.31      107382.94      118935.49      2.7490591e-06  5.1784201e-07  2.2312171e-06  1.12588e+08  
   4496000   4.3291467e-10  107429.06      107395.23      119102.93      2.749052e-06   5.1757e-07     2.2314819e-06  1.1259229e+08
   4497000   4.3301096e-10  107432.61      107397.87      119408.52      2.7490339e-06  5.1747839e-07  2.2315555e-06  1.1259161e+08
   4498000   4.3310725e-10  107437.22      107400.58      120049.7       2.749034e-06   5.1738265e-07  2.2316513e-06  1.1259196e+08
   4499000   4.3320354e-10  107432.79      107395.73      120183.88      2.7490465e-06  5.174873e-07   2.2315592e-06  1.1259064e+08
   4500000   4.3329983e-10  107426.51      107389.96      120011.33      2.7490392e-06  5.1761018e-07  2.231429e-06   1.1258919e+08
   4501000   4.3339612e-10  107421.09      107383.63      120311.64      2.7490445e-06  5.1772813e-07  2.2313164e-06  1.1258754e+08
   4502000   4.3349241e-10  107411.54      107372.42      120854.1       2.7490561e-06  5.1793816e-07  2.2311179e-06  1.1258436e+08
   4503000   4.335887e-10   107426.85      107387.88      120818.76      2.7490622e-06  5.1762618e-07  2.231436e-06   1.1258849e+08
   4504000   4.3368499e-10  107429.96      107392.03      120473.16      2.7490305e-06  5.1753003e-07  2.2315005e-06  1.1258744e+08
   4505000   4.3378127e-10  107431.25      107393.99      120252.32      2.7490266e-06  5.1749935e-07  2.2315273e-06  1.1258761e+08
   4506000   4.3387756e-10  107449.91      107412.43      120342.55      2.7490421e-06  5.1712714e-07  2.2319149e-06  1.1259399e+08
   4507000   4.3397385e-10  107444.96      107408.9       119865.37      2.7490354e-06  5.1722314e-07  2.2318122e-06  1.1259141e+08
   4508000   4.3407014e-10  107432.67      107395.94      120073.27      2.7490371e-06  5.1748031e-07  2.2315568e-06  1.1258741e+08
   4509000   4.3416643e-10  107426.45      107389.94      119997.07      2.7490542e-06  5.176265e-07   2.2314277e-06  1.1258755e+08
   4510000   4.3426272e-10  107431.48      107394.99      119993.68      2.7490664e-06  5.1753433e-07  2.2315321e-06  1.1259248e+08
   4511000   4.3435901e-10  107422.56      107384.78      120417.1       2.7490539e-06  5.1770705e-07  2.2313469e-06  1.1258972e+08
   4512000   4.344553e-10   107416.12      107376.34      121079.75      2.7490298e-06  5.1781673e-07  2.2312131e-06  1.1258571e+08
   4513000   4.3455159e-10  107418.71      107379.24      120978.87      2.7490317e-06  5.1776483e-07  2.2312669e-06  1.1258599e+08
   4514000   4.3464787e-10  107425.91      107386.65      120917.47      2.7490408e-06  5.1762425e-07  2.2314165e-06  1.1258826e+08
   4515000   4.3474416e-10  107424.21      107385.62      120691.15      2.7490369e-06  5.1765574e-07  2.2313812e-06  1.1258683e+08
   4516000   4.3484045e-10  107429.7       107391.18      120670.3       2.7490513e-06  5.1755621e-07  2.2314951e-06  1.1259073e+08
   4517000   4.3493674e-10  107435.95      107397.86      120533.77      2.7490535e-06  5.1742856e-07  2.2316249e-06  1.1259274e+08
   4518000   4.3503303e-10  107425.87      107389.39      119985.79      2.7490416e-06  5.1762597e-07  2.2314157e-06  1.1258797e+08
   4519000   4.3512932e-10  107432.12      107395.33      120097.7       2.7490525e-06  5.1750694e-07  2.2315455e-06  1.1259151e+08
   4520000   4.3522561e-10  107441.74      107404.39      120294.88      2.7490397e-06  5.1729445e-07  2.2317453e-06  1.1259291e+08
   4521000   4.353219e-10   107443.19      107403.52      121069.54      2.7490373e-06  5.1726186e-07  2.2317754e-06  1.1259293e+08
   4522000   4.3541819e-10  107441.15      107401.95      120910.51      2.7490469e-06  5.1731383e-07  2.2317331e-06  1.1259394e+08
   4523000   4.3551447e-10  107435.09      107398.12      120158.32      2.7490349e-06  5.1742786e-07  2.2316071e-06  1.125918e+08 
   4524000   4.3561076e-10  107437.24      107402.02      119575.46      2.7490482e-06  5.1739652e-07  2.2316517e-06  1.1259423e+08
   4525000   4.3570705e-10  107418.14      107381.2       120131.76      2.7490449e-06  5.177898e-07   2.2312551e-06  1.1258812e+08
   4526000   4.3580334e-10  107417.17      107378.43      120733.96      2.7490405e-06  5.1780556e-07  2.2312349e-06  1.1258734e+08
   4527000   4.3589963e-10  107421.5       107381.84      121045.54      2.7490403e-06  5.1771553e-07  2.2313248e-06  1.1258891e+08
   4528000   4.3599592e-10  107422.61      107383.91      120723.43      2.7490421e-06  5.1769428e-07  2.2313478e-06  1.1258857e+08
   4529000   4.3609221e-10  107434.66      107395.23      120979.93      2.7490437e-06  5.1744565e-07  2.2315981e-06  1.1259129e+08
   4530000   4.361885e-10   107431.41      107393.18      120578.16      2.7490452e-06  5.1751444e-07  2.2315307e-06  1.1258842e+08
   4531000   4.3628478e-10  107449.26      107410.93      120627.74      2.749035e-06   5.1713357e-07  2.2319014e-06  1.1259385e+08
   4532000   4.3638107e-10  107455.05      107416.25      120789.78      2.749029e-06   5.1700724e-07  2.2320217e-06  1.125951e+08 
   4533000   4.3647736e-10  107443.58      107402.51      121535.9       2.7490433e-06  5.172599e-07   2.2317834e-06  1.1259219e+08
   4534000   4.3657365e-10  107434.47      107393.25      121580.69      2.7490344e-06  5.174401e-07   2.2315943e-06  1.1258875e+08
   4535000   4.3666994e-10  107456.49      107415.96      121370.41      2.7490383e-06  5.1698664e-07  2.2320517e-06  1.1259691e+08
   4536000   4.3676623e-10  107430.26      107390.54      121074.18      2.7490318e-06  5.1752508e-07  2.2315067e-06  1.1258634e+08
   4537000   4.3686252e-10  107445.53      107406.22      120954.54      2.7490375e-06  5.1721349e-07  2.231824e-06   1.1259331e+08
   4538000   4.3695881e-10  107442.31      107404.63      120405.09      2.749042e-06   5.1728482e-07  2.2317571e-06  1.1259283e+08
   4539000   4.370551e-10   107442.03      107404.59      120325.12      2.7490309e-06  5.1727963e-07  2.2317513e-06  1.1259165e+08
   4540000   4.3715138e-10  107442.18      107404.69      120340.93      2.7490336e-06  5.1727918e-07  2.2317544e-06  1.1259104e+08
   4541000   4.3724767e-10  107442.27      107406.24      119850.83      2.7490237e-06  5.1726747e-07  2.2317563e-06  1.1258975e+08
   4542000   4.3734396e-10  107440.25      107404.24      119843.62      2.7490169e-06  5.1730264e-07  2.2317143e-06  1.1258893e+08
   4543000   4.3744025e-10  107448.65      107413.03      119720.13      2.7490063e-06  5.1711751e-07  2.2318888e-06  1.1258992e+08
   4544000   4.3753654e-10  107445.42      107411.77      119057.93      2.7489999e-06  5.1717825e-07  2.2318216e-06  1.1258853e+08
   4545000   4.3763283e-10  107434.92      107403.27      118377.84      2.7490051e-06  5.1740151e-07  2.2316036e-06  1.1258587e+08
   4546000   4.3772912e-10  107441.07      107408.82      118587.25      2.7490104e-06  5.1727903e-07  2.2317314e-06  1.1258824e+08
   4547000   4.3782541e-10  107424.12      107394.32      117750.84      2.7490119e-06  5.1763267e-07  2.2313793e-06  1.1258272e+08
   4548000   4.379217e-10   107436.99      107405.41      118358.55      2.7490235e-06  5.1737685e-07  2.2316466e-06  1.1258857e+08
   4549000   4.3801798e-10  107455.38      107422.02      118973.69      2.7490357e-06  5.1700711e-07  2.2320286e-06  1.1259551e+08
   4550000   4.3811427e-10  107441.15      107406.23      119479.39      2.7490317e-06  5.172988e-07   2.2317329e-06  1.1259013e+08
   4551000   4.3821056e-10  107441.52      107405.78      119753.27      2.7490337e-06  5.1729302e-07  2.2317407e-06  1.1259137e+08
   4552000   4.3830685e-10  107415.97      107380.54      119626.99      2.7490407e-06  5.1783071e-07  2.23121e-06    1.1258317e+08
   4553000   4.3840314e-10  107421.87      107386.66      119555.91      2.7490401e-06  5.1770753e-07  2.2313325e-06  1.1258455e+08
   4554000   4.3849943e-10  107433.05      107396.96      119863.61      2.7490286e-06  5.1746379e-07  2.2315648e-06  1.1258883e+08
   4555000   4.3859572e-10  107424.63      107389.55      119516.1       2.7490139e-06  5.1762415e-07  2.2313898e-06  1.125843e+08 
   4556000   4.3869201e-10  107439.1       107405.42      119062.52      2.7490164e-06  5.1732596e-07  2.2316904e-06  1.1258824e+08
   4557000   4.3878829e-10  107446.25      107413.34      118812.37      2.7490222e-06  5.1718318e-07  2.231839e-06   1.1259002e+08
   4558000   4.3888458e-10  107422.36      107390.67      118380.44      2.7490307e-06  5.1768806e-07  2.2313427e-06  1.1258248e+08
   4559000   4.3898087e-10  107420.09      107388.08      118487         2.7490191e-06  5.1772352e-07  2.2312956e-06  1.1258248e+08
   4560000   4.3907716e-10  107442.09      107410.89      118236.35      2.7490148e-06  5.1726223e-07  2.2317526e-06  1.1258992e+08
   4561000   4.3917345e-10  107439.26      107408.44      118104.7       2.7490147e-06  5.1732103e-07  2.2316936e-06  1.1258779e+08
   4562000   4.3926974e-10  107445.31      107414.56      118089.07      2.749026e-06   5.1720653e-07  2.2318194e-06  1.1259066e+08
   4563000   4.3936603e-10  107432.79      107402.72      117849.98      2.7490242e-06  5.1746476e-07  2.2315594e-06  1.1258545e+08
   4564000   4.3946232e-10  107435.05      107406.26      117421.2       2.7490225e-06  5.174163e-07   2.2316062e-06  1.1258561e+08
   4565000   4.3955861e-10  107430.38      107401.79      117354.15      2.7490157e-06  5.1750631e-07  2.2315094e-06  1.1258277e+08
   4566000   4.3965489e-10  107432.31      107402.91      117622.56      2.7490142e-06  5.1746491e-07  2.2315493e-06  1.1258398e+08
   4567000   4.3975118e-10  107446.89      107417.58      117607.78      2.7490191e-06  5.1716685e-07  2.2318523e-06  1.1259073e+08
   4568000   4.3984747e-10  107453.33      107425.21      117218         2.7490286e-06  5.170425e-07   2.2319861e-06  1.1259445e+08
   4569000   4.3994376e-10  107445.75      107416.99      117423.94      2.7490146e-06  5.171861e-07   2.2318285e-06  1.1258884e+08
   4570000   4.4004005e-10  107455.86      107425.7       117899.88      2.7490148e-06  5.1697638e-07  2.2320385e-06  1.1259157e+08
   4571000   4.4013634e-10  107443.95      107413.42      118012.61      2.7489981e-06  5.1720697e-07  2.2317911e-06  1.1258694e+08
   4572000   4.4023263e-10  107448.64      107416.64      118510.28      2.7490187e-06  5.1713003e-07  2.2318886e-06  1.1259096e+08
   4573000   4.4032892e-10  107448.21      107417.87      117955.74      2.749039e-06   5.1715929e-07  2.2318797e-06  1.125931e+08 
   4574000   4.4042521e-10  107450.86      107420.38      118003.14      2.7490494e-06  5.1711485e-07  2.2319346e-06  1.1259633e+08
   4575000   4.4052149e-10  107434.5       107404.27      117902.34      2.7490461e-06  5.1745138e-07  2.2315948e-06  1.1259208e+08
   4576000   4.4061778e-10  107431.08      107400.01      118181.54      2.7490555e-06  5.1753163e-07  2.2315239e-06  1.1259294e+08
   4577000   4.4071407e-10  107412.33      107380.71      118347.44      2.7490389e-06  5.1790457e-07  2.2311344e-06  1.1258523e+08
   4578000   4.4081036e-10  107426.27      107394.68      118348.2       2.7490282e-06  5.1760433e-07  2.2314238e-06  1.1258887e+08
   4579000   4.4090665e-10  107434.07      107401.82      118578.87      2.7490264e-06  5.1744047e-07  2.2315859e-06  1.1258884e+08
   4580000   4.4100294e-10  107430.67      107399.61      118177.03      2.7490227e-06  5.1750743e-07  2.2315152e-06  1.1258544e+08
   4581000   4.4109923e-10  107434.86      107403.87      118156.83      2.7490127e-06  5.1741047e-07  2.2316022e-06  1.1258536e+08
   4582000   4.4119552e-10  107431.51      107401.12      117952.91      2.7490141e-06  5.1748143e-07  2.2315327e-06  1.1258457e+08
   4583000   4.4129181e-10  107442.33      107413.35      117494.13      2.749019e-06   5.1726149e-07  2.2317575e-06  1.1258966e+08
   4584000   4.4138809e-10  107432.57      107404.65      117129.6       2.7490394e-06  5.1748461e-07  2.2315548e-06  1.1258814e+08
   4585000   4.4148438e-10  107438.38      107409.89      117326.21      2.7490537e-06  5.1737815e-07  2.2316755e-06  1.1259181e+08
   4586000   4.4158067e-10  107445.26      107418.01      116919.88      2.7490482e-06  5.1722982e-07  2.2318184e-06  1.1259461e+08
   4587000   4.4167696e-10  107443.04      107416.76      116593.08      2.7490386e-06  5.1726629e-07  2.2317723e-06  1.1259246e+08
   4588000   4.4177325e-10  107449.58      107424.37      116237.03      2.7490426e-06  5.1713464e-07  2.231908e-06   1.1259328e+08
   4589000   4.4186954e-10  107449.21      107424.58      116048.62      2.7490272e-06  5.1712671e-07  2.2319005e-06  1.1259097e+08
   4590000   4.4196583e-10  107440.39      107416.78      115695.31      2.7490202e-06  5.1730304e-07  2.2317172e-06  1.1258653e+08
   4591000   4.4206212e-10  107446.58      107422.78      115765.24      2.749009e-06   5.1716321e-07  2.2318458e-06  1.1258841e+08
   4592000   4.421584e-10   107451.07      107427.97      115536.16      2.7490137e-06  5.170746e-07   2.2319391e-06  1.1259012e+08
   4593000   4.4225469e-10  107431.44      107409.23      115220.66      2.7490171e-06  5.1748569e-07  2.2315314e-06  1.1258384e+08
   4594000   4.4235098e-10  107449.88      107427.27      115373.49      2.7490108e-06  5.1709643e-07  2.2319144e-06  1.1259076e+08
   4595000   4.4244727e-10  107462.74      107439.41      115623.54      2.7490084e-06  5.1682702e-07  2.2321814e-06  1.1259554e+08
   4596000   4.4254356e-10  107450.57      107427.27      115602.44      2.7490281e-06  5.1709959e-07  2.2319286e-06  1.1259391e+08
   4597000   4.4263985e-10  107429.24      107406.82      115287.02      2.7490298e-06  5.1754424e-07  2.2314856e-06  1.1258552e+08
   4598000   4.4273614e-10  107453.61      107430.28      115615.33      2.7490396e-06  5.1704778e-07  2.2319918e-06  1.1259482e+08
   4599000   4.4283243e-10  107444.68      107421.04      115712.95      2.7490585e-06  5.172521e-07   2.2318064e-06  1.125932e+08 
   4600000   4.4292872e-10  107435.95      107411.89      115842.49      2.749038e-06   5.1741302e-07  2.2316249e-06  1.1259111e+08
   4601000   4.43025e-10    107429.28      107405.26      115820.78      2.7490282e-06  5.1754183e-07  2.2314863e-06  1.1258873e+08
   4602000   4.4312129e-10  107443.84      107419.73      115867.95      2.749052e-06   5.1726314e-07  2.2317889e-06  1.125939e+08 
   4603000   4.4321758e-10  107453.05      107427.64      116311.02      2.749031e-06   5.1705078e-07  2.2319802e-06  1.1259457e+08
   4604000   4.4331387e-10  107438.4       107412.98      116299.02      2.7490026e-06  5.1732676e-07  2.2316759e-06  1.1258638e+08
   4605000   4.4341016e-10  107441.93      107415.93      116496.53      2.7490086e-06  5.1725947e-07  2.2317491e-06  1.1258751e+08
   4606000   4.4350645e-10  107435.74      107410.17      116346.71      2.7490127e-06  5.1739204e-07  2.2316206e-06  1.1258494e+08
   4607000   4.4360274e-10  107442.15      107417.83      115933.33      2.7490098e-06  5.1725607e-07  2.2317537e-06  1.1258808e+08
   4608000   4.4369903e-10  107441.62      107417.69      115803.91      2.7490234e-06  5.1728071e-07  2.2317427e-06  1.1258953e+08
   4609000   4.4379532e-10  107442.52      107420.16      115280.93      2.7490288e-06  5.1726743e-07  2.2317614e-06  1.1259062e+08
   4610000   4.438916e-10   107444.8       107422.59      115230.58      2.7490471e-06  5.1723836e-07  2.2318088e-06  1.1259478e+08
   4611000   4.4398789e-10  107433.61      107411.39      115224.77      2.7490376e-06  5.1746112e-07  2.2315765e-06  1.1259067e+08
   4612000   4.4408418e-10  107435.26      107412.09      115543.73      2.749047e-06   5.1743627e-07  2.2316107e-06  1.1259174e+08
   4613000   4.4418047e-10  107443.5       107420.17      115603.33      2.7490401e-06  5.1725831e-07  2.2317818e-06  1.1259451e+08
   4614000   4.4427676e-10  107422.35      107397.07      116234.12      2.7490315e-06  5.1768913e-07  2.2313424e-06  1.1258657e+08
   4615000   4.4437305e-10  107437.69      107412.61      116186.56      2.7490392e-06  5.1737803e-07  2.2316612e-06  1.1259049e+08
   4616000   4.4446934e-10  107444.24      107418.7       116344.88      2.74904e-06    5.1724292e-07  2.2317971e-06  1.1259071e+08
   4617000   4.4456563e-10  107457.79      107433.25      116023.61      2.7490321e-06  5.1695344e-07  2.2320787e-06  1.1259665e+08
   4618000   4.4466191e-10  107444.28      107419.33      116148.3       2.7490153e-06  5.1721732e-07  2.231798e-06   1.1259079e+08
   4619000   4.447582e-10   107457.61      107432.18      116320.9       2.7490142e-06  5.1693928e-07  2.2320749e-06  1.1259396e+08
   4620000   4.4485449e-10  107436.47      107411.28      116218.6       2.7490243e-06  5.1738859e-07  2.2316357e-06  1.1258659e+08
   4621000   4.4495078e-10  107442.81      107417.9       116130.15      2.7490299e-06  5.1726256e-07  2.2317674e-06  1.125907e+08 
   4622000   4.4504707e-10  107442.27      107417.84      115970.38      2.7490205e-06  5.1726428e-07  2.2317562e-06  1.1258906e+08
   4623000   4.4514336e-10  107456.81      107431.01      116442.8       2.7490102e-06  5.16952e-07    2.2320582e-06  1.1259215e+08
   4624000   4.4523965e-10  107454.68      107428.29      116641.3       2.7490017e-06  5.1698767e-07  2.2320141e-06  1.1258975e+08
   4625000   4.4533594e-10  107449.29      107423.27      116509.8       2.749019e-06   5.1711685e-07  2.2319021e-06  1.1258954e+08
   4626000   4.4543223e-10  107434.46      107408.31      116538.69      2.749018e-06   5.1742396e-07  2.231594e-06   1.1258527e+08
   4627000   4.4552851e-10  107442.77      107415.54      116907.89      2.7490078e-06  5.172413e-07   2.2317665e-06  1.1258861e+08
   4628000   4.456248e-10   107434.56      107406.25      117262.1       2.7490146e-06  5.1741844e-07  2.2315961e-06  1.1258501e+08
   4629000   4.4572109e-10  107438.96      107409.69      117587.87      2.749015e-06   5.1732741e-07  2.2316876e-06  1.1258427e+08
   4630000   4.4581738e-10  107452.75      107423.31      117658.62      2.7490068e-06  5.1703297e-07  2.2319739e-06  1.1258776e+08
   4631000   4.4591367e-10  107454.7       107425.3       117647.02      2.7490112e-06  5.1699677e-07  2.2320144e-06  1.1259009e+08
   4632000   4.4600996e-10  107456.86      107428.01      117465.57      2.7490335e-06  5.1697417e-07  2.2320594e-06  1.1259474e+08
   4633000   4.4610625e-10  107444.61      107416.31      117269.91      2.7490263e-06  5.1722145e-07  2.2318049e-06  1.1259068e+08
   4634000   4.4620254e-10  107446.26      107418.42      117114.78      2.7490303e-06  5.1719118e-07  2.2318391e-06  1.1259296e+08
   4635000   4.4629883e-10  107427.22      107400.33      116776.83      2.7490324e-06  5.1758884e-07  2.2314435e-06  1.1258746e+08
   4636000   4.4639511e-10  107433.98      107407.22      116745.3       2.7490247e-06  5.174405e-07   2.2315841e-06  1.1258792e+08
   4637000   4.464914e-10   107444.64      107418.19      116648.99      2.7490207e-06  5.1721528e-07  2.2318054e-06  1.1259043e+08
   4638000   4.4658769e-10  107442.32      107416.4       116472.07      2.7489948e-06  5.1723752e-07  2.2317573e-06  1.1258725e+08
   4639000   4.4668398e-10  107441.96      107414.57      116959.02      2.7489923e-06  5.1724261e-07  2.2317497e-06  1.125857e+08 
   4640000   4.4678027e-10  107443.96      107415.32      117383.25      2.7490019e-06  5.1721051e-07  2.2317914e-06  1.125858e+08 
   4641000   4.4687656e-10  107444.25      107414.63      117707.31      2.7489922e-06  5.1719492e-07  2.2317973e-06  1.1258493e+08
   4642000   4.4697285e-10  107452.94      107423.2       117758.87      2.7490048e-06  5.1702683e-07  2.231978e-06   1.1258989e+08
   4643000   4.4706914e-10  107448.87      107418.18      118073.81      2.7490168e-06  5.1712334e-07  2.2318934e-06  1.1259041e+08
   4644000   4.4716542e-10  107422.88      107390.39      118647.95      2.7490306e-06  5.176772e-07   2.2313534e-06  1.1258558e+08
   4645000   4.4726171e-10  107432.64      107400.05      118691.15      2.7490257e-06  5.1746953e-07  2.2315562e-06  1.1259045e+08
   4646000   4.47358e-10    107434.04      107400.47      119018.25      2.74904e-06    5.1745476e-07  2.2315852e-06  1.1259142e+08
   4647000   4.4745429e-10  107437.27      107404.37      118799.08      2.7490394e-06  5.1738709e-07  2.2316523e-06  1.1259206e+08
   4648000   4.4755058e-10  107448.31      107416         118615.6       2.7490415e-06  5.1715968e-07  2.2318818e-06  1.1259575e+08
   4649000   4.4764687e-10  107440.09      107406.8       118933.75      2.7490259e-06  5.1731489e-07  2.231711e-06   1.1259008e+08
   4650000   4.4774316e-10  107450.12      107416.42      119079.48      2.7490244e-06  5.1710503e-07  2.2319193e-06  1.1259319e+08
   4651000   4.4783945e-10  107433.11      107399.52      119025.45      2.7490197e-06  5.1745373e-07  2.231566e-06   1.1258649e+08
   4652000   4.4793574e-10  107436.39      107401.66      119410.76      2.7490246e-06  5.1739048e-07  2.2316341e-06  1.1258797e+08
   4653000   4.4803202e-10  107452.25      107417.75      119350.29      2.7490443e-06  5.1708073e-07  2.2319635e-06  1.1259514e+08
   4654000   4.4812831e-10  107433.58      107397.94      119713.83      2.7490511e-06  5.1747527e-07  2.2315758e-06  1.1258985e+08
   4655000   4.482246e-10   107428.47      107392.43      119841.84      2.7490565e-06  5.1758687e-07  2.2314697e-06  1.1259019e+08
   4656000   4.4832089e-10  107430.33      107392.74      120360.36      2.7490493e-06  5.1754113e-07  2.2315082e-06  1.1259069e+08
   4657000   4.4841718e-10  107430.59      107393.17      120303.22      2.7490454e-06  5.1753177e-07  2.2315136e-06  1.1259077e+08
   4658000   4.4851347e-10  107426.26      107390.96      119589.98      2.749039e-06   5.176153e-07   2.2314237e-06  1.1258923e+08
   4659000   4.4860976e-10  107424.74      107389.57      119544.78      2.7490406e-06  5.1764858e-07  2.231392e-06   1.1258835e+08
   4660000   4.4870605e-10  107441.56      107406.81      119425.22      2.7490377e-06  5.1729608e-07  2.2317416e-06  1.1259227e+08
   4661000   4.4880234e-10  107446.94      107411.4       119692.95      2.7490468e-06  5.1719346e-07  2.2318533e-06  1.1259257e+08
   4662000   4.4889862e-10  107432.93      107397.68      119580.82      2.7490524e-06  5.174902e-07   2.2315622e-06  1.1258819e+08
   4663000   4.4899491e-10  107438.65      107402.61      119850.52      2.7490353e-06  5.1735423e-07  2.231681e-06   1.1259213e+08
   4664000   4.490912e-10   107401.65      107365.25      119934.66      2.7490431e-06  5.1813055e-07  2.2309126e-06  1.1258109e+08
   4665000   4.4918749e-10  107426.15      107389.57      120019.76      2.749025e-06   5.1760365e-07  2.2314213e-06  1.1258844e+08
   4666000   4.4928378e-10  107424.24      107388.33      119794.43      2.749025e-06   5.1764313e-07  2.2313818e-06  1.1258688e+08
   4667000   4.4938007e-10  107422.57      107386.21      119944.64      2.7490117e-06  5.1766458e-07  2.2313471e-06  1.1258337e+08
   4668000   4.4947636e-10  107443.6       107406.94      120062.89      2.7490149e-06  5.1723111e-07  2.2317838e-06  1.1258952e+08
   4669000   4.4957265e-10  107450.32      107413.63      120079.38      2.7490141e-06  5.1709069e-07  2.2319234e-06  1.1259055e+08
   4670000   4.4966894e-10  107450.46      107413.19      120274.41      2.7490162e-06  5.1708975e-07  2.2319264e-06  1.1259041e+08
   4671000   4.4976522e-10  107447.73      107411.09      120062.09      2.749034e-06   5.1716426e-07  2.2318697e-06  1.1259282e+08
   4672000   4.4986151e-10  107438.53      107402.1       119982.52      2.7490344e-06  5.1735575e-07  2.2316787e-06  1.1259131e+08
   4673000   4.499578e-10   107430.36      107393.27      120196.94      2.7490268e-06  5.1751786e-07  2.231509e-06   1.1258703e+08
   4674000   4.5005409e-10  107427.46      107389.41      120512.64      2.749019e-06   5.1757034e-07  2.2314487e-06  1.1258374e+08
   4675000   4.5015038e-10  107426.09      107386.52      121019.67      2.7490307e-06  5.1761045e-07  2.2314202e-06  1.1258499e+08
   4676000   4.5024667e-10  107433.17      107393.8       120959.25      2.7490247e-06  5.1745744e-07  2.2315673e-06  1.1258921e+08
   4677000   4.5034296e-10  107427.61      107387.29      121273.07      2.7490491e-06  5.1759742e-07  2.2314517e-06  1.1259112e+08
   4678000   4.5043925e-10  107431.95      107391.86      121201.45      2.7490394e-06  5.1749741e-07  2.231542e-06   1.1259075e+08
   4679000   4.5053553e-10  107439.92      107400.1       121116.76      2.7490459e-06  5.1733839e-07  2.2317075e-06  1.1259178e+08
   4680000   4.5063182e-10  107439.64      107400.67      120834.09      2.7490336e-06  5.1733192e-07  2.2317017e-06  1.1259003e+08
   4681000   4.5072811e-10  107453.5       107414.71      120785.84      2.74903e-06    5.1704046e-07  2.2319896e-06  1.1259489e+08
   4682000   4.508244e-10   107453.16      107414.3       120808.43      2.7490269e-06  5.1704447e-07  2.2319824e-06  1.1259419e+08
   4683000   4.5092069e-10  107446.52      107406.66      121138.52      2.7490359e-06  5.1719135e-07  2.2318446e-06  1.1259243e+08
   4684000   4.5101698e-10  107444.05      107403.46      121380.8       2.7490212e-06  5.1722788e-07  2.2317933e-06  1.1259027e+08
   4685000   4.5111327e-10  107443.38      107402.87      121353.56      2.749007e-06   5.1722764e-07  2.2317794e-06  1.1258868e+08
   4686000   4.5120956e-10  107437.56      107395.58      121835.92      2.7490219e-06  5.1736357e-07  2.2316584e-06  1.1258707e+08
   4687000   4.5130585e-10  107428.29      107385.98      121938.65      2.7490169e-06  5.1755094e-07  2.231466e-06   1.1258414e+08
   4688000   4.5140213e-10  107431.2       107389.72      121660.25      2.749002e-06   5.1747577e-07  2.2315262e-06  1.1258426e+08
   4689000   4.5149842e-10  107441.03      107400.34      121409.48      2.7490172e-06  5.1728671e-07  2.2317305e-06  1.1258871e+08
   4690000   4.5159471e-10  107438.7       107398.78      121150.01      2.7490237e-06  5.1734167e-07  2.2316821e-06  1.125885e+08 
   4691000   4.51691e-10    107456.65      107416.53      121232.07      2.7490221e-06  5.1696721e-07  2.2320549e-06  1.1259477e+08
   4692000   4.5178729e-10  107448.02      107407.15      121476.5       2.7490263e-06  5.1715073e-07  2.2318756e-06  1.1259266e+08
   4693000   4.5188358e-10  107449.02      107407.96      121541.25      2.7490168e-06  5.1712022e-07  2.2318965e-06  1.1259201e+08
   4694000   4.5197987e-10  107429.14      107388.9       121243.78      2.7490272e-06  5.1754382e-07  2.2314834e-06  1.125848e+08 
   4695000   4.5207616e-10  107437.97      107397         121501.79      2.7490324e-06  5.1736537e-07  2.231667e-06   1.125892e+08 
   4696000   4.5217245e-10  107437.87      107396.2       121734.04      2.7490333e-06  5.1736836e-07  2.2316649e-06  1.1258984e+08
   4697000   4.5226873e-10  107461.45      107419.25      121931.85      2.7490375e-06  5.1688297e-07  2.2321546e-06  1.1259835e+08
   4698000   4.5236502e-10  107427.66      107386.28      121623.79      2.7490321e-06  5.1757938e-07  2.2314527e-06  1.125852e+08 
   4699000   4.5246131e-10  107445.3       107404.96      121294.75      2.7490323e-06  5.1721323e-07  2.2318191e-06  1.1259136e+08
   4700000   4.525576e-10   107457.57      107417.79      121121.13      2.749033e-06   5.1695894e-07  2.232074e-06   1.1259479e+08
   4701000   4.5265389e-10  107439.73      107401.5       120583.72      2.7490336e-06  5.1733008e-07  2.2317035e-06  1.1258745e+08
   4702000   4.5275018e-10  107453.77      107414.97      120790.48      2.7490301e-06  5.1703495e-07  2.2319951e-06  1.1259222e+08
   4703000   4.5284647e-10  107451.06      107411.07      121183.31      2.7490346e-06  5.170958e-07   2.2319388e-06  1.1259196e+08
   4704000   4.5294276e-10  107459.88      107420.59      120960.6       2.7490374e-06  5.169153e-07   2.2321221e-06  1.1259621e+08
   4705000   4.5303904e-10  107457.49      107419.8       120424.21      2.7490266e-06  5.1695411e-07  2.2320725e-06  1.1259468e+08
   4706000   4.5313533e-10  107442.23      107404.46      120432.67      2.7490273e-06  5.1727196e-07  2.2317554e-06  1.1258873e+08
   4707000   4.5323162e-10  107462.71      107424.42      120629.26      2.7490182e-06  5.1683734e-07  2.2321809e-06  1.125957e+08 
   4708000   4.5332791e-10  107443.6       107404.25      120963.16      2.7490273e-06  5.1724342e-07  2.2317839e-06  1.1258959e+08
   4709000   4.534242e-10   107419.95      107379.09      121444.09      2.7490299e-06  5.1773717e-07  2.2312927e-06  1.1258302e+08
   4710000   4.5352049e-10  107428.79      107389.07      121073.01      2.749033e-06   5.1755665e-07  2.2314763e-06  1.1258729e+08
   4711000   4.5361678e-10  107444.63      107405.99      120727.04      2.7490309e-06  5.1722563e-07  2.2318052e-06  1.1259302e+08
   4712000   4.5371307e-10  107456.28      107420.44      119805.18      2.7490376e-06  5.1699025e-07  2.2320473e-06  1.1259667e+08
   4713000   4.5380936e-10  107445.48      107409.12      119965.3       2.7490171e-06  5.1719413e-07  2.231823e-06   1.1258834e+08
   4714000   4.5390564e-10  107456.09      107418.86      120266.94      2.7490357e-06  5.1699229e-07  2.2320434e-06  1.1259328e+08
   4715000   4.5400193e-10  107446.81      107408.88      120493.99      2.7490236e-06  5.1717297e-07  2.2318506e-06  1.125898e+08 
   4716000   4.5409822e-10  107450.64      107412.98      120406.43      2.749037e-06   5.1710677e-07  2.2319302e-06  1.125932e+08 
   4717000   4.5419451e-10  107452.53      107414.07      120673.93      2.7490368e-06  5.1706744e-07  2.2319693e-06  1.1259472e+08
   4718000   4.542908e-10   107438.89      107400.7       120570.1       2.7490401e-06  5.1735404e-07  2.2316861e-06  1.1259091e+08
   4719000   4.5438709e-10  107428.12      107390.49      120372.34      2.7490457e-06  5.1758328e-07  2.2314624e-06  1.1258724e+08
   4720000   4.5448338e-10  107438.19      107400.29      120472.63      2.7490378e-06  5.1736636e-07  2.2316715e-06  1.1258951e+08
   4721000   4.5457967e-10  107439.81      107402.12      120403.27      2.7490256e-06  5.1732046e-07  2.2317051e-06  1.1258726e+08
   4722000   4.5467596e-10  107452.86      107414.6       120607.7       2.74902e-06    5.1704367e-07  2.2319763e-06  1.125915e+08 
   4723000   4.5477224e-10  107451.59      107414.21      120310.96      2.749011e-06   5.1706115e-07  2.2319498e-06  1.1259141e+08
   4724000   4.5486853e-10  107439.5       107401.93      120361.57      2.7490151e-06  5.173164e-07   2.2316987e-06  1.1258815e+08
   4725000   4.5496482e-10  107441.56      107403.78      120434.56      2.7490159e-06  5.1727437e-07  2.2317415e-06  1.1258894e+08
   4726000   4.5506111e-10  107436.22      107399.6       120040.48      2.7490171e-06  5.1738665e-07  2.2316305e-06  1.1258783e+08
   4727000   4.551574e-10   107421.99      107386.05      119798.35      2.7490114e-06  5.1767652e-07  2.2313349e-06  1.1258239e+08
   4728000   4.5525369e-10  107442.34      107406.25      119869.46      2.7490145e-06  5.1725694e-07  2.2317576e-06  1.1258931e+08
   4729000   4.5534998e-10  107418.46      107382.02      119964.28      2.7490199e-06  5.177583e-07   2.2312616e-06  1.1257991e+08
   4730000   4.5544627e-10  107437.33      107401.3       119847.91      2.7490208e-06  5.1736716e-07  2.2316536e-06  1.125878e+08 
   4731000   4.5554256e-10  107426.42      107391.29      119535.88      2.7490204e-06  5.1759327e-07  2.2314271e-06  1.1258392e+08
   4732000   4.5563884e-10  107440.65      107404.95      119738.61      2.7490213e-06  5.1729879e-07  2.2317225e-06  1.1258921e+08
   4733000   4.5573513e-10  107463.49      107427.97      119700.05      2.7490276e-06  5.1683066e-07  2.232197e-06   1.1259724e+08
   4734000   4.5583142e-10  107452.76      107419.73      118860.85      2.7490293e-06  5.1705509e-07  2.2319742e-06  1.1259283e+08
   4735000   4.5592771e-10  107456.12      107425.14      118176.84      2.7490172e-06  5.1697327e-07  2.2320439e-06  1.1259294e+08
   4736000   4.56024e-10    107451.21      107419.29      118487.17      2.7490313e-06  5.1708929e-07  2.231942e-06   1.1259154e+08
   4737000   4.5612029e-10  107442.96      107409.29      119064.97      2.7490197e-06  5.1724906e-07  2.2317707e-06  1.1258765e+08
   4738000   4.5621658e-10  107457.68      107423.56      119225.37      2.7490342e-06  5.1695799e-07  2.2320762e-06  1.1259449e+08
   4739000   4.5631287e-10  107467.83      107433.76      119221.65      2.7490379e-06  5.1675079e-07  2.2322871e-06  1.1259946e+08
   4740000   4.5640915e-10  107439.69      107403.75      119819.73      2.7490275e-06  5.1732487e-07  2.2317026e-06  1.1258903e+08
   4741000   4.5650544e-10  107408.76      107373.54      119546.54      2.7490283e-06  5.1796808e-07  2.2310602e-06  1.1257881e+08
   4742000   4.5660173e-10  107429.84      107393.84      119829.85      2.749033e-06   5.1753493e-07  2.231498e-06   1.1258712e+08
   4743000   4.5669802e-10  107431.82      107395.62      119898.72      2.7490176e-06  5.1747836e-07  2.2315393e-06  1.12587e+08  
   4744000   4.5679431e-10  107419.45      107383.98      119643.69      2.7490176e-06  5.1773528e-07  2.2312823e-06  1.125834e+08 
   4745000   4.568906e-10   107415.71      107381.05      119369.09      2.7490066e-06  5.1780192e-07  2.2312046e-06  1.1257997e+08
   4746000   4.5698689e-10  107426.2       107391.22      119486.96      2.7490263e-06  5.1760372e-07  2.2314225e-06  1.1258415e+08
   4747000   4.5708318e-10  107432.34      107397.25      119527.85      2.7490365e-06  5.1748646e-07  2.23155e-06    1.1258666e+08
   4748000   4.5717947e-10  107434.68      107399.89      119428.49      2.7490129e-06  5.1741438e-07  2.2315986e-06  1.1258569e+08
   4749000   4.5727575e-10  107435.14      107401.1       119179.56      2.7490347e-06  5.1742657e-07  2.2316081e-06  1.1258799e+08
   4750000   4.5737204e-10  107426.8       107393.06      119068.01      2.7490131e-06  5.175783e-07   2.2314348e-06  1.1258405e+08
   4751000   4.5746833e-10  107432.83      107400.15      118724.81      2.7490259e-06  5.1746569e-07  2.2315603e-06  1.1258725e+08
   4752000   4.5756462e-10  107437.59      107405.97      118371.71      2.7490238e-06  5.1736484e-07  2.231659e-06   1.1258944e+08
   4753000   4.5766091e-10  107437.22      107406.23      118159.71      2.7490229e-06  5.1737152e-07  2.2316513e-06  1.1259036e+08
   4754000   4.577572e-10   107434.61      107402.9       118397.26      2.7490363e-06  5.1743928e-07  2.2315971e-06  1.1259075e+08
   4755000   4.5785349e-10  107443.25      107413.31      117816.05      2.7490242e-06  5.1724761e-07  2.2317766e-06  1.1259226e+08
   4756000   4.5794978e-10  107430.8       107401.06      117734.9       2.7490123e-06  5.1749437e-07  2.231518e-06   1.1258622e+08
   4757000   4.5804607e-10  107430.91      107402.28      117364.19      2.7490256e-06  5.1750534e-07  2.2315202e-06  1.1258729e+08
   4758000   4.5814235e-10  107441.58      107413.52      117187.21      2.7490245e-06  5.1728247e-07  2.231742e-06   1.1259035e+08
   4759000   4.5823864e-10  107440.9       107412.26      117376.91      2.7490249e-06  5.1729714e-07  2.2317278e-06  1.1259016e+08
   4760000   4.5833493e-10  107444.31      107416.56      117084.48      2.7490392e-06  5.1724063e-07  2.2317986e-06  1.1259262e+08
   4761000   4.5843122e-10  107443.03      107416.66      116620.2       2.7490592e-06  5.1728718e-07  2.231772e-06   1.1259411e+08
   4762000   4.5852751e-10  107412.32      107387.22      116165.17      2.7490569e-06  5.1792279e-07  2.2311341e-06  1.1258473e+08
   4763000   4.586238e-10   107430.62      107404.93      116380.45      2.7490415e-06  5.1752726e-07  2.2315142e-06  1.1259108e+08
   4764000   4.5872009e-10  107437.69      107412.14      116341.66      2.749042e-06   5.1738086e-07  2.2316611e-06  1.1259207e+08
   4765000   4.5881638e-10  107423.54      107399.04      115975.02      2.7490455e-06  5.1767838e-07  2.2313671e-06  1.1258651e+08
   4766000   4.5891266e-10  107438.98      107414.22      116079.04      2.7490387e-06  5.1735082e-07  2.2316879e-06  1.1259195e+08
   4767000   4.5900895e-10  107431.17      107407.5       115706.08      2.749036e-06   5.1751036e-07  2.2315257e-06  1.125892e+08 
   4768000   4.5910524e-10  107438.62      107414.19      115966.22      2.7490213e-06  5.1734095e-07  2.2316804e-06  1.1258991e+08
   4769000   4.5920153e-10  107456.03      107432.27      115760.09      2.7490162e-06  5.1697414e-07  2.232042e-06   1.125942e+08 
   4770000   4.5929782e-10  107445.06      107421.73      115608.47      2.7490107e-06  5.1719646e-07  2.2318142e-06  1.1258968e+08
   4771000   4.5939411e-10  107428.27      107405.21      115499.59      2.7490168e-06  5.1755133e-07  2.2314655e-06  1.1258379e+08
   4772000   4.594904e-10   107458.28      107436.54      115087.91      2.7490363e-06  5.1694754e-07  2.2320888e-06  1.1259624e+08
   4773000   4.5958669e-10  107451.07      107429.08      115162.96      2.7490343e-06  5.1709528e-07  2.231939e-06   1.1259454e+08
   4774000   4.5968298e-10  107406.64      107384.39      115209.44      2.7490201e-06  5.1800385e-07  2.2310162e-06  1.1257943e+08
   4775000   4.5977926e-10  107404.34      107381.64      115354.07      2.7490162e-06  5.1804777e-07  2.2309684e-06  1.1257943e+08
   4776000   4.5987555e-10  107437.69      107415.57      115195.56      2.7490037e-06  5.1734265e-07  2.2316611e-06  1.1258934e+08
   4777000   4.5997184e-10  107435.1       107414.04      114835.83      2.749022e-06   5.1741473e-07  2.2316073e-06  1.1258636e+08
   4778000   4.6006813e-10  107444.01      107423.35      114711.68      2.7490211e-06  5.172287e-07   2.2317924e-06  1.1258815e+08
   4779000   4.6016442e-10  107461.57      107442.3       114267.64      2.7490151e-06  5.168579e-07   2.2321572e-06  1.1259473e+08
   4780000   4.6026071e-10  107446.25      107427.04      114228.72      2.7490104e-06  5.1717152e-07  2.2318389e-06  1.1258704e+08
   4781000   4.60357e-10    107467.01      107447.48      114358.21      2.7490124e-06  5.1674228e-07  2.2322701e-06  1.1259448e+08
   4782000   4.6045329e-10  107449.19      107429.18      114501.91      2.7490061e-06  5.1710612e-07  2.2319e-06     1.1258775e+08
   4783000   4.6054958e-10  107457.96      107437.81      114557.12      2.7490002e-06  5.1691798e-07  2.2320822e-06  1.1259107e+08
   4784000   4.6064586e-10  107450.49      107429.66      114773.91      2.7490211e-06  5.1709414e-07  2.2319269e-06  1.1258949e+08
   4785000   4.6074215e-10  107462.95      107440.18      115436.07      2.7490128e-06  5.1682703e-07  2.2321858e-06  1.1259412e+08
   4786000   4.6083844e-10  107451.07      107427.75      115610.44      2.7490067e-06  5.1706756e-07  2.2319391e-06  1.1258972e+08
   4787000   4.6093473e-10  107437.73      107413.78      115806.36      2.7490131e-06  5.173511e-07   2.231662e-06   1.1258541e+08
   4788000   4.6103102e-10  107451.66      107427.94      115743.89      2.7490431e-06  5.1709191e-07  2.2319512e-06  1.1259368e+08
   4789000   4.6112731e-10  107448.05      107424.32      115745.37      2.7490403e-06  5.1716399e-07  2.2318764e-06  1.1259396e+08
   4790000   4.612236e-10   107428.98      107404.03      116129.71      2.7490249e-06  5.1754478e-07  2.2314801e-06  1.1258759e+08
   4791000   4.6131989e-10  107424.09      107400.36      115718.76      2.7490327e-06  5.1765412e-07  2.2313786e-06  1.1258836e+08
   4792000   4.6141617e-10  107422.04      107399.7       115254.02      2.7490357e-06  5.176996e-07   2.2313361e-06  1.1258768e+08
   4793000   4.6151246e-10  107426.36      107405.13      114886.38      2.7490502e-06  5.1762446e-07  2.2314257e-06  1.1258979e+08
   4794000   4.6160875e-10  107429.99      107409.38      114679.52      2.7490267e-06  5.1752561e-07  2.2315011e-06  1.1258907e+08
   4795000   4.6170504e-10  107427.57      107408.35      114216.98      2.7490287e-06  5.1757772e-07  2.231451e-06   1.1258698e+08
   4796000   4.6180133e-10  107423.53      107406.26      113558.2       2.7490202e-06  5.1765329e-07  2.2313669e-06  1.1258378e+08
   4797000   4.6189762e-10  107436.63      107420.42      113216.11      2.749033e-06   5.1739403e-07  2.231639e-06   1.1258975e+08
   4798000   4.6199391e-10  107426.39      107409.25      113516.49      2.7490427e-06  5.1761629e-07  2.2314264e-06  1.1258745e+08
   4799000   4.620902e-10   107438.48      107421.21      113573.74      2.7490203e-06  5.1734271e-07  2.2316776e-06  1.1258975e+08
   4800000   4.6218649e-10  107438.74      107419.99      114069.68      2.7490082e-06  5.1732526e-07  2.2316829e-06  1.1258701e+08
   4801000   4.6228277e-10  107431.55      107414.61      113455.38      2.7490106e-06  5.17477e-07    2.2315336e-06  1.1258447e+08
   4802000   4.6237906e-10  107427.01      107410.36      113354.71      2.7490181e-06  5.175788e-07   2.2314393e-06  1.1258364e+08
   4803000   4.6247535e-10  107440.37      107423.36      113489.54      2.7490233e-06  5.1730649e-07  2.2317168e-06  1.1258883e+08
   4804000   4.6257164e-10  107448.16      107432.82      112938.42      2.7490204e-06  5.1714182e-07  2.2318786e-06  1.1258937e+08
   4805000   4.6266793e-10  107457.95      107442.76      112895.61      2.7490269e-06  5.1694502e-07  2.2320819e-06  1.1259351e+08
   4806000   4.6276422e-10  107438.24      107421.73      113318.59      2.7490298e-06  5.1735738e-07  2.2316724e-06  1.1258822e+08
   4807000   4.6286051e-10  107436.94      107419.42      113654.45      2.7490219e-06  5.1737632e-07  2.2316456e-06  1.1258915e+08
   4808000   4.629568e-10   107426.36      107409.03      113581.84      2.7490331e-06  5.1760723e-07  2.2314258e-06  1.1258576e+08
   4809000   4.6305309e-10  107430.93      107413.52      113613.79      2.7490501e-06  5.1752943e-07  2.2315207e-06  1.1258702e+08
   4810000   4.6314937e-10  107452.13      107435.23      113466.59      2.7490324e-06  5.1707122e-07  2.2319612e-06  1.1259245e+08
   4811000   4.6324566e-10  107462.22      107446.52      113070.35      2.7490164e-06  5.1684588e-07  2.2321706e-06  1.1259444e+08
   4812000   4.6334195e-10  107470.74      107455.46      112940.46      2.7490188e-06  5.1667119e-07  2.2323476e-06  1.1259857e+08
   4813000   4.6343824e-10  107447.7       107432.57      112864.79      2.7490169e-06  5.1714787e-07  2.231869e-06   1.1259146e+08
   4814000   4.6353453e-10  107432.04      107417.45      112671.14      2.7490279e-06  5.1748413e-07  2.2315437e-06  1.1258768e+08
   4815000   4.6363082e-10  107428.72      107415.17      112319.7       2.749031e-06   5.1755614e-07  2.2314749e-06  1.125874e+08 
   4816000   4.6372711e-10  107435.36      107422.57      112073.21      2.7490264e-06  5.1741372e-07  2.2316127e-06  1.1258773e+08
   4817000   4.638234e-10   107453.54      107441.6       111807.72      2.7490212e-06  5.1703077e-07  2.2319904e-06  1.1259318e+08
   4818000   4.6391969e-10  107439.93      107428.31      111684.31      2.7490153e-06  5.1730771e-07  2.2317076e-06  1.1258848e+08
   4819000   4.6401597e-10  107431.85      107419.86      111799.64      2.7490399e-06  5.1750007e-07  2.2315398e-06  1.1258846e+08
   4820000   4.6411226e-10  107419.53      107407.67      111746.92      2.7490226e-06  5.1773867e-07  2.231284e-06   1.1258399e+08
   4821000   4.6420855e-10  107428.67      107418.52      111180.76      2.7490127e-06  5.1753893e-07  2.2314737e-06  1.1258674e+08
   4822000   4.6430484e-10  107436.54      107425.9       111354.82      2.7490193e-06  5.1738209e-07  2.2316372e-06  1.1258799e+08
   4823000   4.6440113e-10  107451.85      107440.55      111590.22      2.7490334e-06  5.1707811e-07  2.2319553e-06  1.1259326e+08
   4824000   4.6449742e-10  107449.26      107436.93      111932.02      2.7490246e-06  5.171232e-07   2.2319014e-06  1.1259158e+08
   4825000   4.6459371e-10  107446.08      107433.58      111988.57      2.7490238e-06  5.171883e-07   2.2318355e-06  1.1259177e+08
   4826000   4.6469e-10     107425.12      107412.41      112034.93      2.7490409e-06  5.1764084e-07  2.2314001e-06  1.1258691e+08
   4827000   4.6478628e-10  107423.41      107410.88      111972.58      2.7490321e-06  5.1766763e-07  2.2313645e-06  1.125862e+08 
   4828000   4.6488257e-10  107428.74      107415.89      112087.67      2.7490256e-06  5.175503e-07   2.2314753e-06  1.1258698e+08
   4829000   4.6497886e-10  107425.46      107414.06      111597.41      2.7490171e-06  5.176099e-07   2.2314072e-06  1.1258526e+08
   4830000   4.6507515e-10  107433.33      107423.03      111236.32      2.7490141e-06  5.1744362e-07  2.2315705e-06  1.1258824e+08
   4831000   4.6517144e-10  107434.51      107425.23      110896.98      2.7490256e-06  5.1743063e-07  2.231595e-06   1.1258796e+08
   4832000   4.6526773e-10  107446.33      107437.52      110754.22      2.7490211e-06  5.1718036e-07  2.2318407e-06  1.1259031e+08
   4833000   4.6536402e-10  107446.85      107438.18      110704.95      2.7490216e-06  5.1717026e-07  2.2318514e-06  1.125888e+08 
   4834000   4.6546031e-10  107440.56      107433.01      110325.75      2.749005e-06   5.1728426e-07  2.2317207e-06  1.1258464e+08
   4835000   4.655566e-10   107452.38      107444.7       110379.41      2.7490136e-06  5.1704737e-07  2.2319663e-06  1.1259044e+08
   4836000   4.6565288e-10  107455.35      107447.25      110525.25      2.7489823e-06  5.1695426e-07  2.232028e-06   1.1258865e+08
   4837000   4.6574917e-10  107450.8       107441.81      110817.76      2.7489964e-06  5.1706289e-07  2.2319335e-06  1.1258681e+08
   4838000   4.6584546e-10  107462.7       107453.18      111006.45      2.7490008e-06  5.1682021e-07  2.2321806e-06  1.1259091e+08
   4839000   4.6594175e-10  107461.5       107452.46      110843.55      2.7490029e-06  5.1684718e-07  2.2321557e-06  1.1259209e+08
   4840000   4.6603804e-10  107444.73      107435.32      110951.86      2.7490108e-06  5.1720341e-07  2.2318073e-06  1.12588e+08  
   4841000   4.6613433e-10  107439.11      107430         110842.86      2.7490223e-06  5.1733173e-07  2.2316906e-06  1.1258946e+08
   4842000   4.6623062e-10  107432.79      107424.71      110493.55      2.7490246e-06  5.1746537e-07  2.2315592e-06  1.125892e+08 
   4843000   4.6632691e-10  107437.79      107429.71      110499.6       2.7490293e-06  5.1736608e-07  2.2316633e-06  1.1259118e+08
   4844000   4.664232e-10   107447.9       107438.41      110979.99      2.7490234e-06  5.1715018e-07  2.2318732e-06  1.1259215e+08
   4845000   4.6651948e-10  107447.21      107435.92      111582.99      2.7490233e-06  5.1716442e-07  2.2318589e-06  1.1258935e+08
   4846000   4.6661577e-10  107437.86      107424.12      112391.24      2.7490124e-06  5.1734785e-07  2.2316646e-06  1.1258556e+08
   4847000   4.6671206e-10  107438.2       107425.2       112145.45      2.7490148e-06  5.1734304e-07  2.2316718e-06  1.1258775e+08
   4848000   4.6680835e-10  107439.6       107427.96      111693.18      2.7490179e-06  5.1731711e-07  2.2317008e-06  1.125888e+08 
   4849000   4.6690464e-10  107438.46      107427.21      111559.05      2.7490249e-06  5.1734788e-07  2.231677e-06   1.1258767e+08
   4850000   4.6700093e-10  107455.31      107444.65      111380.93      2.7490229e-06  5.1699572e-07  2.2320272e-06  1.1259295e+08
   4851000   4.6709722e-10  107443.09      107432.45      111361.3       2.749019e-06   5.172457e-07   2.2317733e-06  1.1258793e+08
   4852000   4.6719351e-10  107451.65      107442.11      111002.1       2.7490252e-06  5.1707399e-07  2.2319512e-06  1.1259277e+08
   4853000   4.6728979e-10  107437.42      107428.62      110736.88      2.7490226e-06  5.1736719e-07  2.2316554e-06  1.1258653e+08
   4854000   4.6738608e-10  107427.93      107419.56      110585.59      2.7490355e-06  5.1757711e-07  2.2314584e-06  1.1258439e+08
   4855000   4.6748237e-10  107418.1       107410.64      110271.94      2.7490253e-06  5.177711e-07   2.2312542e-06  1.1258241e+08
   4856000   4.6757866e-10  107411.9       107404.95      110094.51      2.7490221e-06  5.1789665e-07  2.2311254e-06  1.1258268e+08
   4857000   4.6767495e-10  107417.11      107410.07      110133.55      2.7490274e-06  5.1779364e-07  2.2312337e-06  1.1258511e+08
   4858000   4.6777124e-10  107441.44      107434.18      110227.13      2.7490367e-06  5.1729779e-07  2.2317389e-06  1.125948e+08 
   4859000   4.6786753e-10  107437.37      107430.23      110182.02      2.7490393e-06  5.1738488e-07  2.2316544e-06  1.1259426e+08
   4860000   4.6796382e-10  107430.61      107423.32      110226.8       2.7490499e-06  5.1753586e-07  2.2315141e-06  1.1259252e+08
   4861000   4.6806011e-10  107409.8       107401.33      110600.99      2.7490506e-06  5.1796879e-07  2.2310818e-06  1.1258265e+08
   4862000   4.6815639e-10  107425.27      107415.47      111061.76      2.7490327e-06  5.1762957e-07  2.2314031e-06  1.1258496e+08
   4863000   4.6825268e-10  107440.62      107429.75      111433.37      2.7490344e-06  5.1731246e-07  2.2317219e-06  1.1259067e+08
   4864000   4.6834897e-10  107444.18      107434.43      111062.45      2.749045e-06   5.1724913e-07  2.2317958e-06  1.1259292e+08
   4865000   4.6844526e-10  107436.73      107429         110381.11      2.7490435e-06  5.174023e-07   2.2316412e-06  1.1259066e+08
   4866000   4.6854155e-10  107442.72      107434.96      110397.71      2.7490565e-06  5.1729092e-07  2.2317656e-06  1.1259541e+08
   4867000   4.6863784e-10  107415.7       107408.45      110199.06      2.7490618e-06  5.1785744e-07  2.2312043e-06  1.1258729e+08
   4868000   4.6873413e-10  107425.04      107418.09      110107.64      2.749048e-06   5.1764966e-07  2.2313984e-06  1.1259082e+08
   4869000   4.6883042e-10  107424.84      107417.32      110297.38      2.7490415e-06  5.1764741e-07  2.2313941e-06  1.1258952e+08
   4870000   4.6892671e-10  107439.73      107432.98      110056.98      2.7490414e-06  5.1733793e-07  2.2317034e-06  1.1259347e+08
   4871000   4.6902299e-10  107452.2       107446.04      109873.39      2.7490368e-06  5.1707418e-07  2.2319626e-06  1.1259588e+08
   4872000   4.6911928e-10  107416.69      107410.56      109826.16      2.7490211e-06  5.177961e-07   2.2312249e-06  1.1258239e+08
   4873000   4.6921557e-10  107426.97      107420.83      109840.61      2.7490143e-06  5.1757585e-07  2.2314384e-06  1.1258721e+08
   4874000   4.6931186e-10  107424.36      107417.55      110061.5       2.74904e-06    5.176558e-07   2.2313842e-06  1.1258782e+08
   4875000   4.6940815e-10  107426.52      107419.71      110064.48      2.7490443e-06  5.1761512e-07  2.2314292e-06  1.1258888e+08
   4876000   4.6950444e-10  107430.39      107423.02      110251.9       2.7490308e-06  5.1752143e-07  2.2315094e-06  1.1258908e+08
   4877000   4.6960073e-10  107423.4       107413.98      110931.74      2.7490398e-06  5.1767562e-07  2.2313642e-06  1.1258636e+08
   4878000   4.6969702e-10  107435.18      107424.92      111227.13      2.7490405e-06  5.1743147e-07  2.231609e-06   1.1258977e+08
   4879000   4.6979331e-10  107440.34      107429.42      111451.45      2.7490238e-06  5.1730767e-07  2.2317161e-06  1.1259016e+08
   4880000   4.6988959e-10  107442.81      107429.98      112093.35      2.7490237e-06  5.1725627e-07  2.2317674e-06  1.1259111e+08
   4881000   4.6998588e-10  107440.69      107427.22      112305.74      2.7490247e-06  5.1730131e-07  2.2317234e-06  1.1258884e+08
   4882000   4.7008217e-10  107459.59      107447.19      111964.12      2.7490238e-06  5.1690785e-07  2.232116e-06   1.1259627e+08
   4883000   4.7017846e-10  107444.48      107432.59      111783.33      2.7490169e-06  5.1721462e-07  2.2318023e-06  1.1259045e+08
   4884000   4.7027475e-10  107445.8       107435.38      111289.17      2.7490109e-06  5.1718131e-07  2.2318295e-06  1.1258868e+08
   4885000   4.7037104e-10  107450.49      107439.14      111607.74      2.749008e-06   5.1708094e-07  2.231927e-06   1.1258836e+08
   4886000   4.7046733e-10  107462.58      107451.51      111523.14      2.7490105e-06  5.1683245e-07  2.2321781e-06  1.125927e+08 
   4887000   4.7056362e-10  107451.55      107440.45      111523.93      2.7490108e-06  5.170617e-07   2.2319491e-06  1.1258874e+08
   4888000   4.706599e-10   107458.6       107447.25      111613.62      2.7490224e-06  5.1692699e-07  2.2320954e-06  1.1259469e+08
   4889000   4.7075619e-10  107438.31      107428.7       111011.14      2.7490364e-06  5.1736239e-07  2.231674e-06   1.125904e+08 
   4890000   4.7085248e-10  107432.66      107424.5       110519.2       2.7490377e-06  5.1748116e-07  2.2315566e-06  1.125883e+08 
   4891000   4.7094877e-10  107437.45      107430.41      110153.25      2.7490262e-06  5.1736999e-07  2.2316562e-06  1.1258787e+08
   4892000   4.7104506e-10  107438.51      107429.73      110733.91      2.7490111e-06  5.1733298e-07  2.2316781e-06  1.1258726e+08
   4893000   4.7114135e-10  107449.7       107438.98      111394.65      2.7490165e-06  5.171059e-07   2.2319106e-06  1.1259173e+08
   4894000   4.7123764e-10  107445.25      107433.74      111651.83      2.7490235e-06  5.1720543e-07  2.2318181e-06  1.1259042e+08
   4895000   4.7133393e-10  107461.08      107449.13      111816.59      2.7490031e-06  5.1685625e-07  2.2321469e-06  1.1259421e+08
   4896000   4.7143022e-10  107461.07      107449.8       111586.68      2.7490001e-06  5.1685343e-07  2.2321467e-06  1.1259278e+08
   4897000   4.715265e-10   107441.87      107429.95      111788.07      2.749004e-06   5.1725595e-07  2.231748e-06   1.1258451e+08
   4898000   4.7162279e-10  107453.7       107441.55      111877.29      2.7490058e-06  5.1701205e-07  2.2319938e-06  1.1259003e+08
   4899000   4.7171908e-10  107442.68      107430.35      111925.38      2.7490053e-06  5.1724049e-07  2.2317648e-06  1.1258694e+08
   4900000   4.7181537e-10  107451.61      107438.4       112226.61      2.749013e-06   5.1706285e-07  2.2319502e-06  1.1259137e+08
   4901000   4.7191166e-10  107442.78      107429.06      112391.17      2.7490063e-06  5.1723946e-07  2.2317669e-06  1.1258776e+08
   4902000   4.7200795e-10  107434.57      107420.53      112491.21      2.7490127e-06  5.1741633e-07  2.2315964e-06  1.1258584e+08
   4903000   4.7210424e-10  107429.83      107415.05      112733.8       2.7490153e-06  5.1751745e-07  2.2314979e-06  1.1258559e+08
   4904000   4.7220053e-10  107439.7       107425.08      112689.38      2.7490194e-06  5.1731645e-07  2.231703e-06   1.125896e+08 
   4905000   4.7229682e-10  107446.46      107433.22      112233.91      2.7490128e-06  5.1716952e-07  2.2318432e-06  1.1259033e+08
   4906000   4.723931e-10   107437.75      107424.46      112243.05      2.7490125e-06  5.1735018e-07  2.2316624e-06  1.1258495e+08
   4907000   4.7248939e-10  107445.88      107431.5       112614.99      2.7490195e-06  5.1718829e-07  2.2318312e-06  1.1258937e+08
   4908000   4.7258568e-10  107446         107430.58      112961.72      2.7490158e-06  5.1718203e-07  2.2318338e-06  1.1258968e+08
   4909000   4.7268197e-10  107445.51      107429.7       113092.16      2.7490315e-06  5.1720804e-07  2.2318235e-06  1.1259086e+08
   4910000   4.7277826e-10  107431.91      107416.66      112892.42      2.7490346e-06  5.1749353e-07  2.2315411e-06  1.125868e+08 
   4911000   4.7287455e-10  107435.96      107422.48      112306.42      2.7490255e-06  5.1740019e-07  2.2316253e-06  1.1258884e+08
   4912000   4.7297084e-10  107436.76      107423.16      112343.15      2.74903e-06    5.1738829e-07  2.2316417e-06  1.1258813e+08
   4913000   4.7306713e-10  107454.27      107442.49      111755.14      2.7490219e-06  5.1701632e-07  2.2320056e-06  1.1259308e+08
   4914000   4.7316341e-10  107451.21      107439.48      111733.51      2.7490238e-06  5.1708181e-07  2.231942e-06   1.1259259e+08
   4915000   4.732597e-10   107450.86      107438.99      111778.6       2.7490191e-06  5.1708445e-07  2.2319347e-06  1.1259113e+08
   4916000   4.7335599e-10  107445.89      107434.34      111665.9       2.7490017e-06  5.171703e-07   2.2318314e-06  1.1258635e+08
   4917000   4.7345228e-10  107452.85      107442.24      111361.13      2.7490065e-06  5.170306e-07   2.2319759e-06  1.1258889e+08
   4918000   4.7354857e-10  107456.92      107446.44      111322.75      2.7490037e-06  5.1694316e-07  2.2320606e-06  1.1259145e+08
   4919000   4.7364486e-10  107438.54      107428.78      111059.85      2.749019e-06   5.1734026e-07  2.2316787e-06  1.1258675e+08
   4920000   4.7374115e-10  107439.7       107429.14      111328.19      2.7490314e-06  5.1732855e-07  2.2317028e-06  1.1258815e+08
   4921000   4.7383744e-10  107450.22      107439.49      111395.48      2.7490151e-06  5.1709385e-07  2.2319213e-06  1.1259068e+08
   4922000   4.7393373e-10  107443.08      107434.08      110812.35      2.7490172e-06  5.1724425e-07  2.231773e-06   1.1258993e+08
   4923000   4.7403001e-10  107437.13      107427.99      110854.23      2.749019e-06   5.1736949e-07  2.2316495e-06  1.1258936e+08
   4924000   4.741263e-10   107428.95      107419.66      110895.31      2.7490298e-06  5.1755015e-07  2.2314797e-06  1.1258602e+08
   4925000   4.7422259e-10  107463.16      107454.97      110560.21      2.7490308e-06  5.168406e-07   2.2321902e-06  1.1259723e+08
   4926000   4.7431888e-10  107449.59      107440.85      110734.07      2.749022e-06   5.1711364e-07  2.2319084e-06  1.125911e+08 
   4927000   4.7441517e-10  107439.85      107430.78      110834         2.7490139e-06  5.1730785e-07  2.2317061e-06  1.125871e+08 
   4928000   4.7451146e-10  107441.67      107433.08      110675.24      2.7490086e-06  5.1726475e-07  2.2317439e-06  1.1258889e+08
   4929000   4.7460775e-10  107433.15      107423.29      111089.66      2.749003e-06   5.1743623e-07  2.2315668e-06  1.1258659e+08
   4930000   4.7470404e-10  107435.35      107425.44      111108.56      2.7490125e-06  5.1739996e-07  2.2316126e-06  1.1258684e+08
   4931000   4.7480033e-10  107458.22      107448.9       110935.2       2.7490366e-06  5.1694897e-07  2.2320877e-06  1.1259537e+08
   4932000   4.7489661e-10  107450.68      107441.82      110772.89      2.7490312e-06  5.1710027e-07  2.231931e-06   1.1259259e+08
   4933000   4.749929e-10   107429.08      107419.42      111016.79      2.7490212e-06  5.1753901e-07  2.2314822e-06  1.1258541e+08
   4934000   4.7508919e-10  107435.31      107422.42      112105.57      2.7490192e-06  5.1740745e-07  2.2316117e-06  1.1258955e+08
   4935000   4.7518548e-10  107436.8       107423.27      112320.4       2.7490225e-06  5.1737991e-07  2.2316426e-06  1.1258961e+08
   4936000   4.7528177e-10  107455.7       107443.05      112048.05      2.7490367e-06  5.1700146e-07  2.2320353e-06  1.1259784e+08
   4937000   4.7537806e-10  107429.08      107415.86      112210.51      2.7490275e-06  5.1754525e-07  2.2314822e-06  1.1258738e+08
   4938000   4.7547435e-10  107415.49      107403.08      111925.19      2.7490219e-06  5.17822e-07    2.2311999e-06  1.1258142e+08
   4939000   4.7557064e-10  107441.26      107428.68      112009.28      2.7490261e-06  5.1729081e-07  2.2317353e-06  1.1258984e+08
   4940000   4.7566692e-10  107438.63      107425.35      112237.4       2.7490268e-06  5.1734624e-07  2.2316806e-06  1.1258734e+08
   4941000   4.7576321e-10  107449.98      107436.85      112202.77      2.7490295e-06  5.1711306e-07  2.2319165e-06  1.1259137e+08
   4942000   4.758595e-10   107440.78      107428.71      111837.74      2.7490318e-06  5.1730648e-07  2.2317253e-06  1.1258902e+08
   4943000   4.7595579e-10  107427.77      107415.8       111789.9       2.749031e-06   5.1757606e-07  2.231455e-06   1.1258654e+08
   4944000   4.7605208e-10  107435.3       107424.67      111351.62      2.7490357e-06  5.1742413e-07  2.2316116e-06  1.1259069e+08
   4945000   4.7614837e-10  107434.18      107426.02      110523.99      2.7490394e-06  5.1745116e-07  2.2315882e-06  1.125913e+08 
   4946000   4.7624466e-10  107413.12      107404.21      110753.65      2.7490447e-06  5.1789396e-07  2.2311508e-06  1.1258482e+08
   4947000   4.7634095e-10  107414.57      107403.86      111354.43      2.749057e-06   5.1787622e-07  2.2311808e-06  1.1258583e+08
   4948000   4.7643724e-10  107428.66      107416.13      111978.43      2.7490335e-06  5.1756005e-07  2.2314735e-06  1.1258674e+08
   4949000   4.7653352e-10  107430.29      107417.14      112187.28      2.7490419e-06  5.1753447e-07  2.2315074e-06  1.1258697e+08
   4950000   4.7662981e-10  107440.65      107426.53      112523.52      2.7490314e-06  5.1730874e-07  2.2317226e-06  1.1258966e+08
   4951000   4.767261e-10   107449.9       107434.83      112850.12      2.7490386e-06  5.1712376e-07  2.2319148e-06  1.1259467e+08
   4952000   4.7682239e-10  107432.88      107418.21      112700.4       2.7490441e-06  5.1748283e-07  2.2315612e-06  1.125891e+08 
   4953000   4.7691868e-10  107446.76      107432.77      112485.04      2.7490527e-06  5.1720315e-07  2.2318495e-06  1.1259367e+08
   4954000   4.7701497e-10  107445.71      107432.51      112221.02      2.7490304e-06  5.1720266e-07  2.2318277e-06  1.1259096e+08
   4955000   4.7711126e-10  107449.69      107436.78      112125.86      2.7490213e-06  5.1711096e-07  2.2319103e-06  1.1259161e+08
   4956000   4.7720755e-10  107455.25      107440.2       112849.68      2.7490222e-06  5.1699628e-07  2.2320259e-06  1.1259373e+08
   4957000   4.7730384e-10  107460.32      107444.27      113187.61      2.7490264e-06  5.168951e-07   2.2321313e-06  1.1259613e+08
   4958000   4.7740012e-10  107453.62      107436.72      113466.91      2.749045e-06   5.1705292e-07  2.231992e-06   1.1259532e+08
   4959000   4.7749641e-10  107446.33      107429         113601.67      2.7490456e-06  5.172051e-07   2.2318405e-06  1.1259326e+08
   4960000   4.775927e-10   107434.04      107417.13      113450.46      2.749045e-06   5.1745966e-07  2.2315853e-06  1.1258899e+08
   4961000   4.7768899e-10  107423.7       107405.86      113747.9       2.7490257e-06  5.1765526e-07  2.2313704e-06  1.1258391e+08
   4962000   4.7778528e-10  107439.23      107421.43      113752.09      2.7490215e-06  5.1732834e-07  2.2316931e-06  1.125919e+08 
   4963000   4.7788157e-10  107424.73      107408.04      113364.98      2.7490203e-06  5.1762848e-07  2.2313918e-06  1.1258633e+08
   4964000   4.7797786e-10  107439.23      107422.6       113360.81      2.7490377e-06  5.1734454e-07  2.2316932e-06  1.1259125e+08
   4965000   4.7807415e-10  107456.38      107438.79      113698.8       2.7490177e-06  5.1696845e-07  2.2320493e-06  1.1259498e+08
   4966000   4.7817044e-10  107444.65      107427.26      113619.43      2.749022e-06   5.172163e-07   2.2318057e-06  1.1259136e+08
   4967000   4.7826672e-10  107442.66      107423.86      114089.41      2.7490282e-06  5.1726388e-07  2.2317643e-06  1.1259198e+08
   4968000   4.7836301e-10  107444.57      107425.62      114144.13      2.7490343e-06  5.1723021e-07  2.2318041e-06  1.1259318e+08
   4969000   4.784593e-10   107430.42      107411.71      114048.88      2.7490405e-06  5.1753039e-07  2.2315102e-06  1.125886e+08 
   4970000   4.7855559e-10  107449.9       107431.32      114024.68      2.7490383e-06  5.171235e-07   2.2319148e-06  1.1259667e+08
   4971000   4.7865188e-10  107423.29      107404.41      114097.49      2.74905e-06    5.1768793e-07  2.2313621e-06  1.1258797e+08
   4972000   4.7874817e-10  107423.36      107403.1       114559.5       2.7490496e-06  5.1768608e-07  2.2313635e-06  1.1258742e+08
   4973000   4.7884446e-10  107427.63      107406.57      114832.37      2.7490439e-06  5.175916e-07   2.2314523e-06  1.1258653e+08
   4974000   4.7894075e-10  107441.69      107419.68      115161.92      2.7490566e-06  5.1731245e-07  2.2317442e-06  1.1259142e+08
   4975000   4.7903703e-10  107441.65      107419.8       115109.66      2.7490529e-06  5.1730951e-07  2.2317434e-06  1.1259071e+08
   4976000   4.7913332e-10  107433.54      107411.67      115106.19      2.7490449e-06  5.1747005e-07  2.2315748e-06  1.1258725e+08
   4977000   4.7922961e-10  107448.92      107426.32      115367.17      2.7490317e-06  5.1713726e-07  2.2318944e-06  1.1259235e+08
   4978000   4.793259e-10   107444.27      107421.28      115494.11      2.7490321e-06  5.1723425e-07  2.2317979e-06  1.1259074e+08
   4979000   4.7942219e-10  107438.9       107413.96      116140.34      2.7490269e-06  5.1734054e-07  2.2316863e-06  1.1258905e+08
   4980000   4.7951848e-10  107426.83      107401.34      116312.61      2.7490271e-06  5.1759153e-07  2.2314356e-06  1.1258539e+08
   4981000   4.7961477e-10  107448.49      107423.31      116227.65      2.7490216e-06  5.1713611e-07  2.2318854e-06  1.1259407e+08
   4982000   4.7971106e-10  107440.75      107417.88      115451.45      2.7490184e-06  5.1729364e-07  2.2317247e-06  1.1259022e+08
   4983000   4.7980735e-10  107451.25      107429.4       115116.57      2.7490284e-06  5.1708566e-07  2.2319427e-06  1.1259385e+08
   4984000   4.7990363e-10  107447.68      107424.8       115457.81      2.7490264e-06  5.1715791e-07  2.2318685e-06  1.12592e+08  
   4985000   4.7999992e-10  107441.74      107419.29      115308.44      2.749017e-06   5.1727174e-07  2.2317453e-06  1.1258854e+08
   4986000   4.8009621e-10  107437.88      107417.15      114730.52      2.7490189e-06  5.1735371e-07  2.2316652e-06  1.1258808e+08
   4987000   4.801925e-10   107443.65      107423.17      114651.16      2.7490256e-06  5.1724075e-07  2.2317849e-06  1.1259198e+08
   4988000   4.8028879e-10  107446.64      107426.15      114660.56      2.7490372e-06  5.1719009e-07  2.2318471e-06  1.1259397e+08
   4989000   4.8038508e-10  107430.35      107409.08      114903.97      2.7490215e-06  5.1751287e-07  2.2315087e-06  1.1258701e+08
   4990000   4.8048137e-10  107420.68      107400.49      114533.05      2.7490325e-06  5.1772472e-07  2.2313078e-06  1.1258472e+08
   4991000   4.8057766e-10  107433.98      107414.04      114461.48      2.7490342e-06  5.1745024e-07  2.231584e-06   1.1259001e+08
   4992000   4.8067395e-10  107437.43      107417.74      114382.37      2.7490372e-06  5.1738148e-07  2.2316557e-06  1.1259099e+08
   4993000   4.8077023e-10  107428.06      107407.61      114625.67      2.7490237e-06  5.1756261e-07  2.2314611e-06  1.1258673e+08
   4994000   4.8086652e-10  107430.97      107410.4       114670.25      2.7490277e-06  5.1750606e-07  2.2315216e-06  1.1258946e+08
   4995000   4.8096281e-10  107422.33      107402.79      114319.25      2.7490372e-06  5.1769501e-07  2.2313422e-06  1.1258571e+08
   4996000   4.810591e-10   107434.66      107415.06      114349.86      2.7490362e-06  5.1743801e-07  2.2315982e-06  1.1258962e+08
   4997000   4.8115539e-10  107435.42      107416.22      114216.65      2.7490342e-06  5.1742029e-07  2.231614e-06   1.1259021e+08
   4998000   4.8125168e-10  107415.29      107394.83      114616.35      2.7490345e-06  5.1783865e-07  2.2311959e-06  1.1258376e+08
   4999000   4.8134797e-10  107426.73      107405.95      114736.5       2.7490375e-06  5.1760401e-07  2.2314335e-06  1.125884e+08 
   5000000   4.8144426e-10  107435.24      107415.32      114454.25      2.7490438e-06  5.1743358e-07  2.2316102e-06  1.1259131e+08
   5001000   4.8154054e-10  107432.07      107411.25      114752.24      2.7490427e-06  5.1749838e-07  2.2315443e-06  1.1258982e+08
   5002000   4.8163683e-10  107442.68      107420.6       115185.55      2.749049e-06   5.1728426e-07  2.2317648e-06  1.1259275e+08
   5003000   4.8173312e-10  107439.94      107417.92      115164.63      2.7490347e-06  5.1732676e-07  2.2317079e-06  1.1258946e+08
   5004000   4.8182941e-10  107441.61      107420.48      114869.17      2.7490307e-06  5.1728817e-07  2.2317426e-06  1.1259121e+08
   5005000   4.819257e-10   107418.67      107397.77      114768.2       2.7490208e-06  5.1775474e-07  2.2312661e-06  1.1258428e+08
   5006000   4.8202199e-10  107414.96      107392.75      115202.67      2.749035e-06   5.1784594e-07  2.231189e-06   1.1258429e+08
   5007000   4.8211828e-10  107424.96      107402.31      115358.52      2.749023e-06   5.1762636e-07  2.2313966e-06  1.1258635e+08
   5008000   4.8221457e-10  107439.08      107416.13      115475.56      2.7490315e-06  5.1734148e-07  2.2316901e-06  1.1259106e+08
   5009000   4.8231086e-10  107444.67      107420.97      115731.78      2.7490416e-06  5.172354e-07   2.2318062e-06  1.1259235e+08
   5010000   4.8240714e-10  107427.96      107404.3       115699.22      2.7490417e-06  5.1758275e-07  2.231459e-06   1.1258573e+08
   5011000   4.8250343e-10  107435.96      107411.64      115928.89      2.7490336e-06  5.1740828e-07  2.2316253e-06  1.1259021e+08
   5012000   4.8259972e-10  107448.62      107424.97      115716.24      2.749041e-06   5.1715293e-07  2.2318881e-06  1.1259602e+08
   5013000   4.8269601e-10  107420.27      107398.04      115214.73      2.7490618e-06  5.1776261e-07  2.2312992e-06  1.125866e+08 
   5014000   4.827923e-10   107429.78      107408.37      114949.48      2.749061e-06   5.1756421e-07  2.2314968e-06  1.125916e+08 
   5015000   4.8288859e-10  107418.6       107398.26      114583.44      2.7490493e-06  5.1778459e-07  2.2312647e-06  1.1258733e+08
   5016000   4.8298488e-10  107443.59      107423.62      114482.4       2.7490549e-06  5.1727113e-07  2.2317837e-06  1.1259654e+08
   5017000   4.8308117e-10  107439.25      107418.97      114582.3       2.7490413e-06  5.1734776e-07  2.2316936e-06  1.1259083e+08
   5018000   4.8317746e-10  107438.59      107418.46      114530.75      2.7490342e-06  5.1735433e-07  2.2316799e-06  1.1258762e+08
   5019000   4.8327374e-10  107453.99      107435.97      113839.2       2.7490507e-06  5.1705106e-07  2.2319997e-06  1.1259487e+08
   5020000   4.8337003e-10  107456.18      107438.43      113751.64      2.7490377e-06  5.1699253e-07  2.2320451e-06  1.1259593e+08
   5021000   4.8346632e-10  107452.78      107435.56      113572.48      2.7490312e-06  5.1705651e-07  2.2319747e-06  1.1259479e+08
   5022000   4.8356261e-10  107446.63      107430.19      113302.05      2.7490258e-06  5.1717903e-07  2.2318468e-06  1.1259221e+08
   5023000   4.836589e-10   107448.25      107431.7       113341.67      2.7490241e-06  5.1714373e-07  2.2318804e-06  1.1259194e+08
   5024000   4.8375519e-10  107443.93      107426.09      113767.32      2.749021e-06   5.1723036e-07  2.2317907e-06  1.1258856e+08
   5025000   4.8385148e-10  107454.03      107437.24      113427.88      2.749031e-06   5.1703059e-07  2.2320004e-06  1.1259173e+08
   5026000   4.8394777e-10  107452.55      107435.98      113356.22      2.7490225e-06  5.1705261e-07  2.2319699e-06  1.1259015e+08
   5027000   4.8404405e-10  107446.66      107429.45      113560.73      2.7490166e-06  5.1716917e-07  2.2318474e-06  1.1258821e+08
   5028000   4.8414034e-10  107446.98      107429.73      113577.75      2.7490104e-06  5.1715625e-07  2.2318542e-06  1.1258804e+08
   5029000   4.8423663e-10  107463.25      107446.22      113518.31      2.7490078e-06  5.1681567e-07  2.2321921e-06  1.125936e+08 
   5030000   4.8433292e-10  107452.1       107435.42      113388.37      2.7490114e-06  5.1705099e-07  2.2319604e-06  1.1258977e+08
   5031000   4.8442921e-10  107450.62      107434.6       113167.06      2.7490045e-06  5.1707487e-07  2.2319296e-06  1.1258879e+08
   5032000   4.845255e-10   107438.9       107421.29      113690.32      2.7490117e-06  5.1732543e-07  2.2316863e-06  1.1258459e+08
   5033000   4.8462179e-10  107443.02      107424.13      114119.84      2.7490053e-06  5.172335e-07   2.2317718e-06  1.1258464e+08
   5034000   4.8471808e-10  107465.21      107447.17      113855.76      2.7490154e-06  5.1678271e-07  2.2322327e-06  1.1259274e+08
   5035000   4.8481437e-10  107467.36      107448.7       114065.9       2.748996e-06   5.1671871e-07  2.2322773e-06  1.1259286e+08
   5036000   4.8491065e-10  107455.83      107436.34      114333.54      2.7490114e-06  5.1697349e-07  2.2320379e-06  1.125907e+08 
   5037000   4.8500694e-10  107457.96      107439.04      114147.78      2.7490064e-06  5.169242e-07   2.2320822e-06  1.1259342e+08
   5038000   4.8510323e-10  107416.78      107397.3       114291.42      2.7490116e-06  5.1778473e-07  2.2312268e-06  1.1258066e+08
   5039000   4.8519952e-10  107432.59      107413.02      114338.66      2.7490228e-06  5.1746762e-07  2.2315552e-06  1.1258815e+08
   5040000   4.8529581e-10  107423.15      107402.63      114646.56      2.7490267e-06  5.1766753e-07  2.2313592e-06  1.1258532e+08
   5041000   4.853921e-10   107433.48      107412.6       114777.81      2.7490233e-06  5.1744958e-07  2.2315738e-06  1.1258896e+08
   5042000   4.8548839e-10  107439.72      107419.12      114688.35      2.7490398e-06  5.1733659e-07  2.2317032e-06  1.125917e+08 
   5043000   4.8558468e-10  107432.44      107413.37      114167.74      2.7490359e-06  5.1748383e-07  2.231552e-06   1.1258799e+08
   5044000   4.8568097e-10  107453.27      107431.36      115139.34      2.7490395e-06  5.1705479e-07  2.2319848e-06  1.1259735e+08
   5045000   4.8577725e-10  107430.09      107408.08      115148.59      2.7490597e-06  5.1755646e-07  2.2315032e-06  1.1259097e+08
   5046000   4.8587354e-10  107437.09      107415.63      114974.89      2.749063e-06   5.1741423e-07  2.2316488e-06  1.1259319e+08
   5047000   4.8596983e-10  107430.85      107409.81      114826.4       2.7490436e-06  5.1752463e-07  2.231519e-06   1.1258829e+08
   5048000   4.8606612e-10  107443.48      107422.09      114957.24      2.7490288e-06  5.1724735e-07  2.2317815e-06  1.1259133e+08
   5049000   4.8616241e-10  107443.72      107421.72      115161.34      2.7490386e-06  5.1725229e-07  2.2317863e-06  1.1259223e+08
   5050000   4.862587e-10   107432.98      107410.84      115194.41      2.7490263e-06  5.1746308e-07  2.2315632e-06  1.12589e+08  
   5051000   4.8635499e-10  107429.59      107407.72      115103.18      2.7490341e-06  5.1754115e-07  2.2314929e-06  1.1258873e+08
   5052000   4.8645128e-10  107435.35      107413.39      115140.07      2.7490263e-06  5.1741374e-07  2.2316126e-06  1.1258955e+08
   5053000   4.8654757e-10  107442.04      107420.05      115155.92      2.7490313e-06  5.1727988e-07  2.2317515e-06  1.1259164e+08
   5054000   4.8664385e-10  107429.32      107408.26      114830.48      2.7490385e-06  5.1755129e-07  2.2314872e-06  1.1258733e+08
   5055000   4.8674014e-10  107444.43      107423.25      114889.91      2.7490224e-06  5.1722116e-07  2.2318012e-06  1.1259146e+08
   5056000   4.8683643e-10  107436.86      107415.68      114878.68      2.7490153e-06  5.1737139e-07  2.2316439e-06  1.1258729e+08
   5057000   4.8693272e-10  107433.06      107411.14      115123.29      2.7490053e-06  5.1744026e-07  2.231565e-06   1.125844e+08 
   5058000   4.8702901e-10  107427.93      107405.06      115435.4       2.7490228e-06  5.175644e-07   2.2314584e-06  1.1258294e+08
   5059000   4.871253e-10   107451.31      107428.17      115548.03      2.7490345e-06  5.170905e-07   2.231944e-06   1.1259442e+08
   5060000   4.8722159e-10  107440.11      107417.06      115509.06      2.7490231e-06  5.1731173e-07  2.2317114e-06  1.125911e+08 
   5061000   4.8731788e-10  107448.13      107424.29      115780.6       2.7490386e-06  5.1716062e-07  2.231878e-06   1.125959e+08 
   5062000   4.8741416e-10  107441.53      107418.54      115489.89      2.7490369e-06  5.1729604e-07  2.2317409e-06  1.1259084e+08
   5063000   4.8751045e-10  107456.84      107432.45      115972.28      2.749045e-06   5.1698614e-07  2.2320589e-06  1.1259439e+08
   5064000   4.8760674e-10  107448.76      107423.69      116192.13      2.7490189e-06  5.1712785e-07  2.231891e-06   1.1258864e+08
   5065000   4.8770303e-10  107454.9       107431.3       115708.08      2.7490121e-06  5.1699344e-07  2.2320187e-06  1.1259064e+08
   5066000   4.8779932e-10  107436.74      107413.81      115464.02      2.7490176e-06  5.1737623e-07  2.2316414e-06  1.1258536e+08
   5067000   4.8789561e-10  107425.18      107402.13      115492.2       2.7490198e-06  5.1761857e-07  2.2314012e-06  1.1258266e+08
   5068000   4.879919e-10   107440.22      107416.83      115623.37      2.74904e-06    5.1732637e-07  2.2317136e-06  1.1258982e+08
   5069000   4.8808819e-10  107443.57      107419.15      115970.87      2.7490334e-06  5.1725021e-07  2.2317832e-06  1.125913e+08 
   5070000   4.8818448e-10  107442.28      107417.45      116106.23      2.7490354e-06  5.1727896e-07  2.2317564e-06  1.1259072e+08
   5071000   4.8828076e-10  107438.17      107411.54      116703.26      2.7490218e-06  5.1735077e-07  2.2316711e-06  1.1258758e+08
   5072000   4.8837705e-10  107438.52      107411.39      116873.59      2.7490014e-06  5.1732299e-07  2.2316784e-06  1.1258539e+08
   5073000   4.8847334e-10  107432.97      107405.82      116873.09      2.748995e-06   5.1743187e-07  2.2315631e-06  1.1258136e+08
   5074000   4.8856963e-10  107453.65      107426.23      116985.5       2.7489964e-06  5.1700363e-07  2.2319927e-06  1.1258976e+08
   5075000   4.8866592e-10  107442.01      107415.39      116704.04      2.7490183e-06  5.1726747e-07  2.2317508e-06  1.1258909e+08
   5076000   4.8876221e-10  107435.97      107410.83      116203.24      2.7490471e-06  5.1742167e-07  2.2316254e-06  1.1259168e+08
   5077000   4.888585e-10   107423.33      107399.45      115769.8       2.7490593e-06  5.1769654e-07  2.2313628e-06  1.1259022e+08
   5078000   4.8895479e-10  107420.76      107398.23      115314.9       2.7490724e-06  5.1776294e-07  2.2313095e-06  1.1259117e+08
   5079000   4.8905108e-10  107425.32      107401.45      115767.92      2.7490844e-06  5.1768012e-07  2.2314043e-06  1.1259252e+08
   5080000   4.8914736e-10  107432.24      107407.39      116101.92      2.7490671e-06  5.1751925e-07  2.2315479e-06  1.1259273e+08
   5081000   4.8924365e-10  107437.29      107409.79      116992.65      2.7490421e-06  5.1738932e-07  2.2316528e-06  1.1259121e+08
   5082000   4.8933994e-10  107455.78      107426.27      117682.52      2.7490333e-06  5.1699648e-07  2.2320368e-06  1.125963e+08 
   5083000   4.8943623e-10  107432.38      107402.12      117911.46      2.7490212e-06  5.1747038e-07  2.2315508e-06  1.1258632e+08
   5084000   4.8953252e-10  107444.97      107415.89      117530         2.7490079e-06  5.1719557e-07  2.2318123e-06  1.1258977e+08
   5085000   4.8962881e-10  107444.83      107416.74      117198.46      2.7490119e-06  5.1720248e-07  2.2318094e-06  1.1259037e+08
   5086000   4.897251e-10   107431.49      107403.8       117050.74      2.7490149e-06  5.1748252e-07  2.2315324e-06  1.1258604e+08
   5087000   4.8982139e-10  107423.99      107396.81      116875.46      2.74902e-06    5.1764345e-07  2.2313766e-06  1.1258346e+08
   5088000   4.8991767e-10  107428.98      107401.71      116909.62      2.7490117e-06  5.1753145e-07  2.2314802e-06  1.1258499e+08
   5089000   4.9001396e-10  107432.44      107404.65      117086.75      2.749014e-06   5.1746185e-07  2.2315521e-06  1.1258583e+08
   5090000   4.9011025e-10  107419.41      107390.86      117326.74      2.7490238e-06  5.1774236e-07  2.2312815e-06  1.1258065e+08
   5091000   4.9020654e-10  107447.82      107419.05      117427.71      2.7490346e-06  5.1716304e-07  2.2318715e-06  1.1259115e+08
   5092000   4.9030283e-10  107438.14      107409.08      117516.89      2.7490352e-06  5.1736463e-07  2.2316706e-06  1.1258828e+08
   5093000   4.9039912e-10  107433.68      107403.87      117759.71      2.7490265e-06  5.1744874e-07  2.2315777e-06  1.1258779e+08
   5094000   4.9049541e-10  107453.13      107421.15      118507.72      2.7490198e-06  5.1703789e-07  2.2319819e-06  1.1259336e+08
   5095000   4.905917e-10   107446.69      107413.04      119059.28      2.7490106e-06  5.1716261e-07  2.231848e-06   1.1258813e+08
   5096000   4.9068799e-10  107459.48      107425.38      119221.63      2.7490042e-06  5.1689053e-07  2.2321137e-06  1.1259151e+08
   5097000   4.9078427e-10  107454.59      107420.1       119347.77      2.7490126e-06  5.1700046e-07  2.2320121e-06  1.1258999e+08
   5098000   4.9088056e-10  107448         107412.63      119637.73      2.7490036e-06  5.1712827e-07  2.2318753e-06  1.1258744e+08
   5099000   4.9097685e-10  107450.42      107414.59      119790.05      2.7490079e-06  5.1708248e-07  2.2319254e-06  1.1258888e+08
   5100000   4.9107314e-10  107449.09      107412.77      119956.96      2.749013e-06   5.1711501e-07  2.231898e-06   1.1258928e+08
   5101000   4.9116943e-10  107458.91      107422.45      120011.9       2.7490049e-06  5.1690293e-07  2.2321019e-06  1.1259377e+08
   5102000   4.9126572e-10  107440.43      107402.11      120616.17      2.7490232e-06  5.1730512e-07  2.2317181e-06  1.1259049e+08
   5103000   4.9136201e-10  107439.56      107399.32      121256.35      2.7490207e-06  5.1732088e-07  2.2316999e-06  1.1259017e+08
   5104000   4.914583e-10   107445.42      107405.76      121069.49      2.749012e-06   5.1719027e-07  2.2318218e-06  1.1258972e+08
   5105000   4.9155459e-10  107440.16      107400.62      121024.14      2.749022e-06   5.1730952e-07  2.2317125e-06  1.1258714e+08
   5106000   4.9165087e-10  107457.79      107416.76      121539.71      2.7490156e-06  5.1693701e-07  2.2320786e-06  1.1259264e+08
   5107000   4.9174716e-10  107448         107407.64      121303.7       2.7490165e-06  5.171413e-07   2.2318752e-06  1.1258997e+08
   5108000   4.9184345e-10  107433.83      107393.23      121372.31      2.7490254e-06  5.1744444e-07  2.231581e-06   1.1258625e+08
   5109000   4.9193974e-10  107433.81      107393.66      121218.99      2.7490315e-06  5.1745103e-07  2.2315804e-06  1.125866e+08 
   5110000   4.9203603e-10  107439.85      107401.93      120481.53      2.7490286e-06  5.1732248e-07  2.2317061e-06  1.1258825e+08
   5111000   4.9213232e-10  107447.63      107410.91      120089.04      2.7490232e-06  5.1715551e-07  2.2318676e-06  1.1259052e+08
   5112000   4.9222861e-10  107457.23      107422.93      119288.62      2.7490198e-06  5.1695281e-07  2.232067e-06   1.1259331e+08
   5113000   4.923249e-10   107454.26      107419.51      119437.76      2.7490226e-06  5.170172e-07   2.2320054e-06  1.1259164e+08
   5114000   4.9242119e-10  107443.34      107407.54      119775.24      2.7490461e-06  5.1726766e-07  2.2317784e-06  1.1258996e+08
   5115000   4.9251747e-10  107439.26      107402.98      119929.56      2.7490364e-06  5.1734276e-07  2.2316936e-06  1.1258901e+08
   5116000   4.9261376e-10  107436.46      107398.64      120445.91      2.749025e-06   5.1738947e-07  2.2316356e-06  1.1258862e+08
   5117000   4.9271005e-10  107431.07      107392.52      120682.13      2.749015e-06   5.1749143e-07  2.2315236e-06  1.12587e+08  
   5118000   4.9280634e-10  107431.45      107391.53      121143.44      2.7490071e-06  5.1747557e-07  2.2315315e-06  1.1258491e+08
   5119000   4.9290263e-10  107454.92      107414.21      121429.17      2.7490133e-06  5.1699429e-07  2.232019e-06   1.1259255e+08
   5120000   4.9299892e-10  107449.2       107407.51      121750.91      2.7490178e-06  5.171177e-07   2.2319001e-06  1.1258996e+08
   5121000   4.9309521e-10  107461.13      107420.01      121573.15      2.7490182e-06  5.1687012e-07  2.2321481e-06  1.1259473e+08
   5122000   4.931915e-10   107444.44      107403.69      121431.47      2.7490299e-06  5.172285e-07   2.2318014e-06  1.125895e+08 
   5123000   4.9328778e-10  107456.02      107415.86      121247.86      2.749016e-06   5.1697404e-07  2.2320419e-06  1.1259267e+08
   5124000   4.9338407e-10  107437.43      107396.01      121651.85      2.7490119e-06  5.1735614e-07  2.2316558e-06  1.1258518e+08
   5125000   4.9348036e-10  107444.62      107403.89      121428.19      2.7490262e-06  5.17221e-07    2.2318052e-06  1.1258982e+08
   5126000   4.9357665e-10  107443.82      107402.84      121508.06      2.749033e-06   5.1724456e-07  2.2317885e-06  1.1259141e+08
   5127000   4.9367294e-10  107429.33      107387.04      121934.63      2.7490253e-06  5.1753779e-07  2.2314875e-06  1.1258653e+08
   5128000   4.9376923e-10  107445.33      107402.35      122181.2       2.7490268e-06  5.1720693e-07  2.2318199e-06  1.1259245e+08
   5129000   4.9386552e-10  107442.8       107399.56      122264.63      2.7490345e-06  5.1726711e-07  2.2317674e-06  1.1259171e+08
   5130000   4.9396181e-10  107439.81      107396.21      122379.52      2.7490143e-06  5.1730915e-07  2.2317051e-06  1.1258796e+08
   5131000   4.940581e-10   107448.73      107404.66      122546.34      2.7490116e-06  5.1712122e-07  2.2318904e-06  1.1259013e+08
   5132000   4.9415438e-10  107453.52      107410.39      122236.15      2.7490147e-06  5.1702476e-07  2.2319899e-06  1.1259137e+08
   5133000   4.9425067e-10  107444.95      107402.45      122019.34      2.74904e-06    5.1722807e-07  2.2318119e-06  1.1259094e+08
   5134000   4.9434696e-10  107442.23      107398.1       122562.48      2.7490459e-06  5.1729038e-07  2.2317555e-06  1.1259186e+08
   5135000   4.9444325e-10  107445.38      107400.08      122955.39      2.7490508e-06  5.1722991e-07  2.2318209e-06  1.1259496e+08
   5136000   4.9453954e-10  107441.69      107395.15      123367.73      2.7490478e-06  5.1730354e-07  2.2317443e-06  1.1259456e+08
   5137000   4.9463583e-10  107430.35      107383.96      123302.8       2.7490428e-06  5.1753424e-07  2.2315086e-06  1.1259152e+08
   5138000   4.9473212e-10  107413.98      107367.96      123164.27      2.7490417e-06  5.1787308e-07  2.2311687e-06  1.1258436e+08
   5139000   4.9482841e-10  107440.03      107396.79      122259.01      2.7490496e-06  5.1733995e-07  2.2317097e-06  1.1259395e+08
   5140000   4.949247e-10   107425.87      107382.26      122369.9       2.7490572e-06  5.1764153e-07  2.2314157e-06  1.1258894e+08
   5141000   4.9502098e-10  107454.02      107408.83      122926.12      2.7490526e-06  5.170523e-07   2.2320003e-06  1.1259943e+08
   5142000   4.9511727e-10  107444.36      107397.6       123442.44      2.7490535e-06  5.1725385e-07  2.2317997e-06  1.1259505e+08
   5143000   4.9521356e-10  107437.33      107390.18      123566.08      2.7490432e-06  5.1738967e-07  2.2316536e-06  1.1259113e+08
   5144000   4.9530985e-10  107422.79      107375.02      123758.1       2.7490387e-06  5.1768713e-07  2.2313516e-06  1.1258614e+08
   5145000   4.9540614e-10  107429.29      107380.95      123954.62      2.7490568e-06  5.1757025e-07  2.2314866e-06  1.1259011e+08
   5146000   4.9550243e-10  107430.8       107382.08      124085.19      2.7490572e-06  5.1753909e-07  2.2315181e-06  1.1259056e+08
   5147000   4.9559872e-10  107431.96      107383.61      123961.96      2.7490548e-06  5.1751277e-07  2.2315421e-06  1.1258991e+08
   5148000   4.9569501e-10  107431.13      107382.58      124028.39      2.74905e-06    5.1752515e-07  2.2315249e-06  1.1258972e+08
   5149000   4.9579129e-10  107433.6       107382.82      124776.02      2.7490495e-06  5.1747336e-07  2.2315761e-06  1.125896e+08 
   5150000   4.9588758e-10  107442.67      107391.37      124958.94      2.7490316e-06  5.1726702e-07  2.2317646e-06  1.1259095e+08
   5151000   4.9598387e-10  107439.13      107387.28      125137.9       2.7490054e-06  5.1731443e-07  2.231691e-06   1.1258646e+08
   5152000   4.9608016e-10  107451.97      107401.1       124825.81      2.7489966e-06  5.1703873e-07  2.2319578e-06  1.1258982e+08
   5153000   4.9617645e-10  107450.28      107399.48      124800.25      2.749008e-06   5.1708532e-07  2.2319227e-06  1.1258993e+08
   5154000   4.9627274e-10  107450.31      107399.84      124688.44      2.7490232e-06  5.1709993e-07  2.2319233e-06  1.1259065e+08
   5155000   4.9636903e-10  107440.09      107391.16      124166.38      2.749029e-06   5.1731797e-07  2.231711e-06   1.1258898e+08
   5156000   4.9646532e-10  107448.58      107399.3       124289.65      2.7490228e-06  5.1713545e-07  2.2318873e-06  1.1259259e+08
   5157000   4.9656161e-10  107434.47      107384.68      124443.25      2.7490206e-06  5.1742647e-07  2.2315942e-06  1.1258788e+08
   5158000   4.9665789e-10  107421.96      107372.59      124291.85      2.7490138e-06  5.1767943e-07  2.2313344e-06  1.125826e+08 
   5159000   4.9675418e-10  107445.76      107396.52      124274.05      2.7490248e-06  5.1719604e-07  2.2318288e-06  1.1259168e+08
   5160000   4.9685047e-10  107438.7       107389.84      124137.94      2.7490266e-06  5.1734457e-07  2.231682e-06   1.1258873e+08
   5161000   4.9694676e-10  107445.51      107396.16      124308.6       2.749029e-06   5.1720556e-07  2.2318235e-06  1.1259197e+08
   5162000   4.9704305e-10  107449.76      107400.88      124156.48      2.7490518e-06  5.1714002e-07  2.2319118e-06  1.1259677e+08
   5163000   4.9713934e-10  107421.29      107372.52      124092.74      2.7490599e-06  5.177394e-07   2.2313205e-06  1.125895e+08 
   5164000   4.9723563e-10  107427.34      107378.88      123994.11      2.7490502e-06  5.1760409e-07  2.2314462e-06  1.1259067e+08
   5165000   4.9733192e-10  107424.94      107377.51      123644.38      2.749048e-06   5.1765179e-07  2.2313962e-06  1.1258742e+08
   5166000   4.9742821e-10  107432.2       107386.36      123124.32      2.74905e-06    5.1750287e-07  2.2315471e-06  1.1258873e+08
   5167000   4.9752449e-10  107453.63      107407.84      123127.7       2.7490439e-06  5.1705157e-07  2.2319923e-06  1.1259511e+08
   5168000   4.9762078e-10  107460.43      107415.46      122859.95      2.7490226e-06  5.1688913e-07  2.2321335e-06  1.1259526e+08
   5169000   4.9771707e-10  107452.37      107409.01      122315.31      2.7490235e-06  5.1705742e-07  2.2319661e-06  1.1259406e+08
   5170000   4.9781336e-10  107430.48      107386.88      122373.95      2.7490451e-06  5.1753365e-07  2.2315114e-06  1.1258958e+08
   5171000   4.9790965e-10  107429.92      107385.32      122706.03      2.7490391e-06  5.1753946e-07  2.2314997e-06  1.1258932e+08
   5172000   4.9800594e-10  107421.13      107378.02      122201.19      2.7490242e-06  5.1770694e-07  2.2313172e-06  1.1258408e+08
   5173000   4.9810223e-10  107456.2       107412.95      122281.7       2.7490473e-06  5.1700173e-07  2.2320456e-06  1.1259692e+08
   5174000   4.9819852e-10  107456.39      107412.1       122630.22      2.7490315e-06  5.1698189e-07  2.2320496e-06  1.1259511e+08
   5175000   4.982948e-10   107447.15      107402.47      122748.49      2.7490223e-06  5.1716471e-07  2.2318576e-06  1.1259129e+08
   5176000   4.9839109e-10  107455.01      107408.82      123261.79      2.7490125e-06  5.1699169e-07  2.2320208e-06  1.1259353e+08
   5177000   4.9848738e-10  107452.73      107405.79      123510.59      2.7490208e-06  5.1704734e-07  2.2319735e-06  1.12594e+08  
   5178000   4.9858367e-10  107433.54      107385         124028.23      2.7490443e-06  5.1746939e-07  2.2315749e-06  1.1258911e+08
   5179000   4.9867996e-10  107442.54      107391.47      124880.46      2.7490428e-06  5.1728097e-07  2.2317618e-06  1.1259181e+08
   5180000   4.9877625e-10  107439.65      107387.78      125146.93      2.7490435e-06  5.1734163e-07  2.2317019e-06  1.1259069e+08
   5181000   4.9887254e-10  107437.12      107385.69      124997.25      2.7490434e-06  5.1739423e-07  2.2316492e-06  1.1259072e+08
   5182000   4.9896883e-10  107452.02      107400.89      124909.97      2.7490412e-06  5.170825e-07   2.2319587e-06  1.1259597e+08
   5183000   4.9906512e-10  107431.38      107379.61      125105.15      2.7490352e-06  5.1750516e-07  2.2315301e-06  1.1258746e+08
   5184000   4.991614e-10   107458.26      107407.44      124812.94      2.7490287e-06  5.169403e-07   2.2320884e-06  1.1259635e+08
   5185000   4.9925769e-10  107443.91      107393.03      124818.55      2.7490268e-06  5.1723652e-07  2.2317903e-06  1.1258742e+08
   5186000   4.9935398e-10  107466.8       107415.49      124987.69      2.7489994e-06  5.1673356e-07  2.2322658e-06  1.1259111e+08
   5187000   4.9945027e-10  107460.3       107408.59      125116.34      2.7490135e-06  5.1688268e-07  2.2321309e-06  1.1259097e+08
   5188000   4.9954656e-10  107443.61      107391.64      125184.36      2.749037e-06   5.1725291e-07  2.2317841e-06  1.1258995e+08
   5189000   4.9964285e-10  107437.67      107386.64      124863.12      2.7490358e-06  5.173751e-07   2.2316607e-06  1.125902e+08 
   5190000   4.9973914e-10  107434.17      107383.7       124671.09      2.7490364e-06  5.1744843e-07  2.231588e-06   1.1258785e+08
   5191000   4.9983543e-10  107458.11      107407.48      124747.89      2.7490315e-06  5.1694628e-07  2.2320852e-06  1.1259577e+08
   5192000   4.9993172e-10  107437.17      107386.6       124712.3       2.7490293e-06  5.1737894e-07  2.2316504e-06  1.1258886e+08
   5193000   5.00028e-10    107412.77      107362.6       124552.42      2.7490255e-06  5.1788193e-07  2.2311436e-06  1.1258007e+08
   5194000   5.0012429e-10  107434.96      107384.3       124737.91      2.749019e-06   5.1741468e-07  2.2316044e-06  1.1258759e+08
   5195000   5.0022058e-10  107434.27      107383.29      124842.12      2.7490283e-06  5.1743823e-07  2.2315901e-06  1.1258886e+08
   5196000   5.0031687e-10  107429.24      107378.91      124622.42      2.7490213e-06  5.1753567e-07  2.2314856e-06  1.1258594e+08
   5197000   5.0041316e-10  107441.77      107392.86      124158.96      2.7490182e-06  5.1727238e-07  2.2317458e-06  1.1258925e+08
   5198000   5.0050945e-10  107431.57      107382.69      124137.17      2.7490207e-06  5.1748677e-07  2.2315339e-06  1.1258564e+08
   5199000   5.0060574e-10  107437.2       107389.65      123699.57      2.7490126e-06  5.1736169e-07  2.2316509e-06  1.125871e+08 
   5200000   5.0070203e-10  107451.67      107404.21      123682.79      2.7490217e-06  5.170702e-07   2.2319515e-06  1.1259251e+08
   5201000   5.0079832e-10  107442.92      107395.2       123760.31      2.7490145e-06  5.1724483e-07  2.2317697e-06  1.1258885e+08
   5202000   5.008946e-10   107427.39      107379.12      123930.95      2.7490062e-06  5.1755903e-07  2.2314471e-06  1.1258336e+08
   5203000   5.0099089e-10  107423.79      107375.72      123860.23      2.7490105e-06  5.1763814e-07  2.2313724e-06  1.125831e+08 
   5204000   5.0108718e-10  107442.26      107393.55      124093.47      2.7490225e-06  5.1726644e-07  2.2317561e-06  1.1259119e+08
   5205000   5.0118347e-10  107441.14      107393.25      123816.54      2.7490269e-06  5.1729415e-07  2.2317327e-06  1.1259114e+08
   5206000   5.0127976e-10  107429.93      107383.01      123483.46      2.7490322e-06  5.1753214e-07  2.2315e-06     1.1258733e+08
   5207000   5.0137605e-10  107432.91      107385.87      123523.79      2.7490281e-06  5.1746627e-07  2.2315619e-06  1.1258773e+08
   5208000   5.0147234e-10  107431.24      107384.11      123554.44      2.7490187e-06  5.1749145e-07  2.2315272e-06  1.1258503e+08
   5209000   5.0156863e-10  107428.88      107380.54      123953.65      2.7490151e-06  5.1753702e-07  2.231478e-06   1.1258222e+08
   5210000   5.0166491e-10  107445.17      107397.31      123812.12      2.7490001e-06  5.1718365e-07  2.2318165e-06  1.1258623e+08
   5211000   5.017612e-10   107449.58      107402.32      123616.96      2.7489983e-06  5.1709013e-07  2.2319082e-06  1.1258779e+08
   5212000   5.0185749e-10  107436.64      107389.59      123532.21      2.7490063e-06  5.1736702e-07  2.2316393e-06  1.1258441e+08
   5213000   5.0195378e-10  107448.03      107400.29      123774.09      2.749011e-06   5.171351e-07   2.2318759e-06  1.1258895e+08
   5214000   5.0205007e-10  107459.34      107412.47      123495.79      2.7490138e-06  5.1690286e-07  2.2321109e-06  1.1259297e+08
   5215000   5.0214636e-10  107440.57      107393.44      123561.94      2.7490101e-06  5.1728914e-07  2.2317209e-06  1.125876e+08 
   5216000   5.0224265e-10  107432.2       107385.93      123266.18      2.7490391e-06  5.1749201e-07  2.2315471e-06  1.1258885e+08
   5217000   5.0233894e-10  107423.39      107379.67      122406.48      2.7490455e-06  5.176814e-07   2.2313641e-06  1.1258624e+08
   5218000   5.0243523e-10  107446.44      107402.87      122380.26      2.749055e-06   5.1721208e-07  2.231843e-06   1.1259481e+08
   5219000   5.0253151e-10  107450.98      107407.27      122427.03      2.7490299e-06  5.1709279e-07  2.2319371e-06  1.1259299e+08
   5220000   5.026278e-10   107444.84      107400.05      122782.91      2.7490318e-06  5.1722215e-07  2.2318096e-06  1.1259062e+08
   5221000   5.0272409e-10  107452.68      107406.55      123242.08      2.7490239e-06  5.170514e-07   2.2319725e-06  1.1259322e+08
   5222000   5.0282038e-10  107436.31      107389.54      123438.55      2.749026e-06   5.1739355e-07  2.2316324e-06  1.1258708e+08
   5223000   5.0291667e-10  107440.69      107394.03      123404.86      2.7490281e-06  5.1730471e-07  2.2317234e-06  1.1258942e+08
   5224000   5.0301296e-10  107439.93      107394.59      122964.3       2.749011e-06   5.173034e-07   2.2317076e-06  1.1258872e+08
   5225000   5.0310925e-10  107424.71      107379.07      123050.29      2.7490158e-06  5.1762422e-07  2.2313916e-06  1.1258331e+08
   5226000   5.0320554e-10  107448.09      107403.42      122748.67      2.749031e-06   5.1715377e-07  2.2318772e-06  1.1259205e+08
   5227000   5.0330183e-10  107448.04      107402.78      122947.23      2.7490416e-06  5.1716545e-07  2.2318762e-06  1.1259375e+08
   5228000   5.0339811e-10  107430.94      107386.01      122818.2       2.7490382e-06  5.1751726e-07  2.2315209e-06  1.1258921e+08
   5229000   5.034944e-10   107454.94      107410.17      122788.24      2.749048e-06   5.1702861e-07  2.2320194e-06  1.1259869e+08
   5230000   5.0359069e-10  107453.33      107408.31      122867.09      2.749063e-06   5.1707705e-07  2.2319859e-06  1.1259759e+08
   5231000   5.0368698e-10  107444.89      107400.17      122760.5       2.7490513e-06  5.1724065e-07  2.2318106e-06  1.1259326e+08
   5232000   5.0378327e-10  107444.57      107398.8       123112.57      2.7490364e-06  5.1723234e-07  2.231804e-06   1.1259056e+08
   5233000   5.0387956e-10  107438.46      107394.26      122579.19      2.7490317e-06  5.1735452e-07  2.2316771e-06  1.1258871e+08
   5234000   5.0397585e-10  107433.11      107389.8       122277.9       2.7490295e-06  5.1746358e-07  2.231566e-06   1.1258739e+08
   5235000   5.0407214e-10  107428.75      107384.4       122621.77      2.7490318e-06  5.1755635e-07  2.2314755e-06  1.125866e+08 
   5236000   5.0416842e-10  107438.91      107394.65      122601.66      2.7490242e-06  5.173377e-07   2.2316865e-06  1.1259034e+08
   5237000   5.0426471e-10  107438.07      107392.57      123013.82      2.7490179e-06  5.1734887e-07  2.2316691e-06  1.1258898e+08
   5238000   5.04361e-10    107449.45      107403.21      123271.93      2.7490323e-06  5.1712696e-07  2.2319053e-06  1.1259336e+08
   5239000   5.0445729e-10  107434.99      107389.12      123135.29      2.74904e-06    5.1743498e-07  2.231605e-06   1.1258757e+08
   5240000   5.0455358e-10  107441.07      107395.54      123027.45      2.7490413e-06  5.1730995e-07  2.2317314e-06  1.1259004e+08
   5241000   5.0464987e-10  107450.13      107405.97      122578.52      2.7490425e-06  5.1712296e-07  2.2319195e-06  1.1259398e+08
   5242000   5.0474616e-10  107451.29      107407         122622.06      2.7490359e-06  5.1709229e-07  2.2319436e-06  1.1259388e+08
   5243000   5.0484245e-10  107424.36      107378.77      123029.74      2.7490226e-06  5.1763839e-07  2.2313842e-06  1.1258422e+08
   5244000   5.0493874e-10  107438.98      107393.37      123053.75      2.7490087e-06  5.1732071e-07  2.231688e-06   1.1259004e+08
   5245000   5.0503502e-10  107442.37      107396.34      123196.04      2.7490192e-06  5.1726086e-07  2.2317583e-06  1.1259002e+08
   5246000   5.0513131e-10  107447.95      107401.56      123321.35      2.7490186e-06  5.1714443e-07  2.2318742e-06  1.1258894e+08
   5247000   5.052276e-10   107445.82      107399.89      123166         2.7490151e-06  5.1718516e-07  2.2318299e-06  1.1258815e+08
   5248000   5.0532389e-10  107440.92      107394.33      123384.48      2.7490255e-06  5.1729724e-07  2.2317283e-06  1.1258866e+08
   5249000   5.0542018e-10  107433.13      107386.02      123546.52      2.7490077e-06  5.1744128e-07  2.2315664e-06  1.1258545e+08
   5250000   5.0551647e-10  107436.31      107390.37      123157.89      2.7490181e-06  5.1738569e-07  2.2316324e-06  1.1258724e+08
   5251000   5.0561276e-10  107436.37      107389.14      123590.82      2.7490132e-06  5.1737954e-07  2.2316336e-06  1.1258685e+08
   5252000   5.0570905e-10  107433.42      107386.84      123369.04      2.7490228e-06  5.1745042e-07  2.2315723e-06  1.1258702e+08
   5253000   5.0580534e-10  107431.56      107385.34      123247.68      2.7490442e-06  5.1751041e-07  2.2315338e-06  1.1258878e+08
   5254000   5.0590162e-10  107426.96      107382.43      122679.15      2.7490451e-06  5.1760688e-07  2.2314382e-06  1.1258781e+08
   5255000   5.0599791e-10  107439.73      107397.08      122063.45      2.7490316e-06  5.1732802e-07  2.2317035e-06  1.1259087e+08
   5256000   5.060942e-10   107444.17      107401.97      121916.34      2.7490434e-06  5.1724781e-07  2.2317956e-06  1.1259257e+08
   5257000   5.0619049e-10  107439.12      107396.07      122195.77      2.7490496e-06  5.1735878e-07  2.2316908e-06  1.1259023e+08
   5258000   5.0628678e-10  107440.41      107397.93      122007.13      2.7490357e-06  5.1731811e-07  2.2317176e-06  1.125893e+08 
   5259000   5.0638307e-10  107445.83      107404.47      121638.56      2.7490222e-06  5.1719196e-07  2.2318302e-06  1.1259074e+08
   5260000   5.0647936e-10  107439.95      107398.36      121707.99      2.7490318e-06  5.1732383e-07  2.231708e-06   1.1259011e+08
   5261000   5.0657565e-10  107457.42      107417.05      121319.58      2.749014e-06   5.1694297e-07  2.232071e-06   1.1259473e+08
   5262000   5.0667194e-10  107448.35      107410.06      120612.66      2.7490063e-06  5.1712375e-07  2.2318825e-06  1.1259031e+08
   5263000   5.0676822e-10  107436.56      107399.96      120035.5       2.749013e-06   5.1737545e-07  2.2316376e-06  1.1258672e+08
   5264000   5.0686451e-10  107446.58      107410.58      119844.19      2.749015e-06   5.1716926e-07  2.2318457e-06  1.1258976e+08
   5265000   5.069608e-10   107444.49      107407.25      120259.3       2.7490184e-06  5.1721604e-07  2.2318024e-06  1.1258847e+08
   5266000   5.0705709e-10  107444.89      107406.35      120694.08      2.7490242e-06  5.1721349e-07  2.2318107e-06  1.1258924e+08
   5267000   5.0715338e-10  107450.04      107411.15      120818         2.7490239e-06  5.171062e-07   2.2319177e-06  1.1259053e+08
   5268000   5.0724967e-10  107445.46      107406.18      120940.64      2.7490079e-06  5.1718536e-07  2.2318225e-06  1.1258736e+08
   5269000   5.0734596e-10  107465.3       107426.19      120905.26      2.7490031e-06  5.1676846e-07  2.2322346e-06  1.1259456e+08
   5270000   5.0744225e-10  107445.43      107405.33      121214.37      2.7490005e-06  5.1717865e-07  2.2318219e-06  1.1258715e+08
   5271000   5.0753853e-10  107454.15      107411.53      122067.44      2.7490067e-06  5.1700371e-07  2.232003e-06   1.1259139e+08
   5272000   5.0763482e-10  107431.16      107388.64      122008.45      2.7489927e-06  5.174673e-07   2.2315254e-06  1.1258119e+08
   5273000   5.0773111e-10  107436.8       107394.28      122016.83      2.7489935e-06  5.17351e-07    2.2316425e-06  1.125842e+08 
   5274000   5.078274e-10   107426.2       107383.49      122068.57      2.7489963e-06  5.1757386e-07  2.2314225e-06  1.1258192e+08
   5275000   5.0792369e-10  107433.91      107391.85      121861.23      2.749005e-06   5.1742237e-07  2.2315827e-06  1.1258335e+08
   5276000   5.0801998e-10  107452.61      107409.85      122111.12      2.7490063e-06  5.1703531e-07  2.231971e-06   1.1258887e+08
   5277000   5.0811627e-10  107452.15      107408.6       122377.06      2.74901e-06    5.1704857e-07  2.2319614e-06  1.1258883e+08
   5278000   5.0821256e-10  107448.27      107404.34      122498.75      2.74901e-06    5.1712918e-07  2.2318809e-06  1.1258859e+08
   5279000   5.0830885e-10  107449.52      107405.9       122397.67      2.7490043e-06  5.170974e-07   2.2319069e-06  1.1258952e+08
   5280000   5.0840513e-10  107443.83      107400.67      122236.92      2.7490234e-06  5.1723483e-07  2.2317886e-06  1.1258821e+08
   5281000   5.0850142e-10  107456.05      107412.97      122223.94      2.7490237e-06  5.1698116e-07  2.2320425e-06  1.1259235e+08
   5282000   5.0859771e-10  107456.24      107412.91      122306.66      2.7490315e-06  5.1698507e-07  2.2320464e-06  1.1259385e+08
   5283000   5.08694e-10    107449.02      107404.74      122616.71      2.7490201e-06  5.1712364e-07  2.2318965e-06  1.1259095e+08
   5284000   5.0879029e-10  107446.22      107402.81      122323.82      2.7490109e-06  5.1717255e-07  2.2318384e-06  1.1258919e+08
   5285000   5.0888658e-10  107437.81      107394.89      122152.52      2.7490091e-06  5.1734554e-07  2.2316636e-06  1.1258574e+08
   5286000   5.0898287e-10  107450.62      107407.51      122227.94      2.7490156e-06  5.1708584e-07  2.2319297e-06  1.1259306e+08
   5287000   5.0907916e-10  107430.22      107385.31      122809.17      2.7490291e-06  5.1752309e-07  2.231506e-06   1.1258748e+08
   5288000   5.0917545e-10  107426.44      107380.15      123269.87      2.7490041e-06  5.1757658e-07  2.2314275e-06  1.1258466e+08
   5289000   5.0927173e-10  107430.48      107384.01      123332.63      2.7490161e-06  5.1750477e-07  2.2315113e-06  1.1258691e+08
   5290000   5.0936802e-10  107447.71      107400.43      123618.6       2.7490317e-06  5.1716253e-07  2.2318691e-06  1.1259352e+08
   5291000   5.0946431e-10  107442.92      107395.08      123800.71      2.749036e-06   5.1726627e-07  2.2317697e-06  1.1259137e+08
   5292000   5.095606e-10   107451.61      107403.33      123959.51      2.7490315e-06  5.1708122e-07  2.2319503e-06  1.1259455e+08
   5293000   5.0965689e-10  107436.36      107389.29      123538.24      2.74903e-06    5.173965e-07   2.2316335e-06  1.1258937e+08
   5294000   5.0975318e-10  107415.14      107368.17      123483.91      2.7490318e-06  5.1783902e-07  2.2311928e-06  1.1258172e+08
   5295000   5.0984947e-10  107433.84      107386.61      123588.37      2.749016e-06   5.1743487e-07  2.2315811e-06  1.1258667e+08
   5296000   5.0994576e-10  107435.71      107387.92      123777.83      2.7490249e-06  5.1740494e-07  2.23162e-06    1.1258783e+08
   5297000   5.1004204e-10  107422.6       107375.53      123526.23      2.7490269e-06  5.1767914e-07  2.2313477e-06  1.1258301e+08
   5298000   5.1013833e-10  107441.09      107394.1       123513.86      2.749024e-06   5.1729234e-07  2.2317317e-06  1.1258965e+08
   5299000   5.1023462e-10  107437.44      107390.44      123516.44      2.7490409e-06  5.1738498e-07  2.2316559e-06  1.1258889e+08
   5300000   5.1033091e-10  107442.04      107395.74      123288.35      2.7490407e-06  5.1728919e-07  2.2317515e-06  1.1259092e+08
   5301000   5.104272e-10   107444.65      107399.23      122995.81      2.749039e-06   5.1723325e-07  2.2318057e-06  1.1259242e+08
   5302000   5.1052349e-10  107435.04      107390.98      122532.01      2.7490488e-06  5.1744263e-07  2.2316062e-06  1.1258996e+08
   5303000   5.1061978e-10  107445.37      107402.04      122298.5       2.7490357e-06  5.1721501e-07  2.2318207e-06  1.1259336e+08
   5304000   5.1071607e-10  107439.51      107396.05      122332.6       2.7490589e-06  5.1735995e-07  2.2316989e-06  1.1259387e+08
   5305000   5.1081236e-10  107422.24      107378.43      122435.29      2.7490611e-06  5.1772082e-07  2.2313403e-06  1.1258843e+08
   5306000   5.1090864e-10  107404.12      107360.93      122205.81      2.7490441e-06  5.1808035e-07  2.2309638e-06  1.1258128e+08
   5307000   5.1100493e-10  107420.33      107378.59      121740.86      2.7490319e-06  5.1773128e-07  2.2313006e-06  1.125856e+08 
   5308000   5.1110122e-10  107445.02      107403.76      121602.06      2.7490291e-06  5.1721583e-07  2.2318133e-06  1.1259248e+08
   5309000   5.1119751e-10  107425.27      107384.97      121261.01      2.7490336e-06  5.1763056e-07  2.2314031e-06  1.1258527e+08
   5310000   5.112938e-10   107428.97      107388.47      121334.5       2.7490056e-06  5.1752564e-07  2.23148e-06    1.1258506e+08
   5311000   5.1139009e-10  107424.36      107385.91      120641.59      2.7490198e-06  5.176356e-07   2.2313842e-06  1.1258474e+08
   5312000   5.1148638e-10  107415.13      107378.37      120066.63      2.7490348e-06  5.1784235e-07  2.2311925e-06  1.1258331e+08
   5313000   5.1158267e-10  107422.88      107387.18      119721.54      2.7490498e-06  5.1769637e-07  2.2313535e-06  1.1258851e+08
   5314000   5.1167896e-10  107430.12      107396.29      119103.54      2.7490359e-06  5.1753196e-07  2.2315039e-06  1.1259009e+08
   5315000   5.1177524e-10  107430.9       107398.12      118754.81      2.7490118e-06  5.1749172e-07  2.2315201e-06  1.1258803e+08
   5316000   5.1187153e-10  107442.62      107409.8       118777.35      2.7490217e-06  5.1725823e-07  2.2317635e-06  1.1259023e+08
   5317000   5.1196782e-10  107444.66      107413.17      118335.95      2.7490159e-06  5.1720989e-07  2.231806e-06   1.1259018e+08
   5318000   5.1206411e-10  107432.13      107400.54      118355.94      2.7490102e-06  5.174646e-07   2.2315456e-06  1.1258543e+08
   5319000   5.121604e-10   107452.86      107420.17      118746.6       2.7490275e-06  5.1705123e-07  2.2319762e-06  1.1259367e+08
   5320000   5.1225669e-10  107445.75      107412.88      118798.27      2.7490435e-06  5.1721505e-07  2.2318285e-06  1.1259203e+08
   5321000   5.1235298e-10  107420.26      107386.67      119016.46      2.7490365e-06  5.1773739e-07  2.2312992e-06  1.1258432e+08
   5322000   5.1244927e-10  107414.27      107379.18      119510.13      2.7490563e-06  5.1788169e-07  2.2311746e-06  1.1258509e+08
   5323000   5.1254555e-10  107428.12      107391.18      120139.32      2.7490417e-06  5.1757946e-07  2.2314623e-06  1.1258847e+08
   5324000   5.1264184e-10  107431.26      107394.35      120133.05      2.7490371e-06  5.1750957e-07  2.2315275e-06  1.1258836e+08
   5325000   5.1273813e-10  107443.04      107406.97      119863.62      2.7490302e-06  5.1725796e-07  2.2317722e-06  1.1259236e+08
   5326000   5.1283442e-10  107420.37      107383.92      119968.56      2.7490232e-06  5.1772196e-07  2.2313013e-06  1.1258242e+08
   5327000   5.1293071e-10  107444.74      107407.75      120176.74      2.7490196e-06  5.1721205e-07  2.2318076e-06  1.1258898e+08
   5328000   5.13027e-10    107456.5       107419.83      120082.32      2.7490125e-06  5.1696054e-07  2.2320519e-06  1.1259084e+08
   5329000   5.1312329e-10  107456.62      107419.69      120166.92      2.7490098e-06  5.1695556e-07  2.2320542e-06  1.1259092e+08
   5330000   5.1321958e-10  107440.89      107404.48      119980.17      2.7490098e-06  5.1728212e-07  2.2317277e-06  1.1258777e+08
   5331000   5.1331587e-10  107439.82      107403.94      119796.87      2.7490027e-06  5.1729742e-07  2.2317053e-06  1.1258966e+08
   5332000   5.1341215e-10  107427.1       107391.2       119795.01      2.7490204e-06  5.1757923e-07  2.2314412e-06  1.1258605e+08
   5333000   5.1350844e-10  107437.78      107402.59      119567.84      2.7490172e-06  5.173541e-07   2.231663e-06   1.1258736e+08
   5334000   5.1360473e-10  107454.74      107418.81      119831.46      2.7490069e-06  5.1699159e-07  2.2320153e-06  1.12591e+08  
   5335000   5.1370102e-10  107458.76      107424.01      119440.75      2.749003e-06   5.1690416e-07  2.2320989e-06  1.1259226e+08
