Job ID:        432851
Host:          daisg111
Start time:    Mon Aug 31 03:23:27 PM CEST 2026
Working dir:   /dais/fs/scratch/kshao/wd/White-Dwarf-Codes/unforced/daisslurm/daisproduction
MPI tasks:     1
CPUs/task:     12
Visible GPU:   0
LAMMPS:        /u/kshao/software/lammps-gpu-cuda12-install/bin/lmp
Input:         unforcedprod_v1.0e+08_c2.in
Currently Loaded Modulefiles:
 1) gcc/14   2) cuda/12.8   3) openmpi/5.0  
name, uuid, driver_version, memory.total [MiB]
NVIDIA H200, GPU-fc41cc81-fb89-9a78-5d2b-d3fea1acdc25, 580.173.02, 143771 MiB
Preflight checks passed; launching LAMMPS.
LAMMPS (22 Jul 2025 - Update 4)
  using 1 OpenMP thread(s) per MPI task
Created orthogonal box = (0 0 0) to (2.5694819e-05 2.5694819e-05 2.5694819e-05)
  1 by 1 by 1 MPI processor grid
Created 100000 atoms
  using lattice units in orthogonal box = (0 0 0) to (2.5694819e-05 2.5694819e-05 2.5694819e-05)
  create_atoms CPU = 113.930 seconds
Created 300 atoms
  using lattice units in orthogonal box = (0 0 0) to (2.5694819e-05 2.5694819e-05 2.5694819e-05)
  create_atoms CPU = 0.664 seconds
300 atoms in group Si
100000 atoms in group H

CITE-CITE-CITE-CITE-CITE-CITE-CITE-CITE-CITE-CITE-CITE-CITE-CITE

Your simulation uses code contributions which should be cited:
- GPU package (short-range, long-range and three-body potentials): doi:10.1016/j.cpc.2010.12.021, doi:10.1016/j.cpc.2011.10.012, doi:10.1016/j.cpc.2013.08.002, doi:10.1016/j.commatsci.2014.10.068, doi:10.1016/j.cpc.2016.10.020, doi:10.3233/APC200086
The log file lists these citations in BibTeX format.

CITE-CITE-CITE-CITE-CITE-CITE-CITE-CITE-CITE-CITE-CITE-CITE-CITE


--------------------------------------------------------------------------
- Using acceleration for yukawa:
-  with 1 proc(s) per device.
-  with 1 thread(s) per proc.
-  Horizontal vector operations: ENABLED
-  Shared memory system: No
--------------------------------------------------------------------------
Device 0: NVIDIA H200, 132 CUs, 1.4e+02/1.4e+02 GB, 2 GHZ (Mixed Precision)
--------------------------------------------------------------------------

Initializing Device and compiling on process 0...Done.
Initializing Device 0 on core 0...Done.

Generated 0 of 1 mixed pair_coeff terms from geometric mixing rule
Neighbor list info ...
  update: every = 1 steps, delay = 0 steps, check = yes
  max neighbors/atom: 10000, page size: 100000
  master list distance cutoff = 4.6290089e-06
  ghost atom cutoff = 4.6290089e-06
  binsize = 2.3145045e-06, bins = 12 12 12
  1 neighbor lists, perpetual/occasional/extra = 1 0 0
  (1) pair yukawa/gpu, perpetual
      attributes: full, newton on
      pair build: full/bin/atomonly
      stencil: full/bin/3d
      bin: standard
Setting up Verlet run ...
  Unit style    : cgs
  Current step  : 0
  Time step     : 8.81940675885343e-18
Per MPI rank memory allocation (min/avg/max) = 1085 | 1085 | 1085 Mbytes
   Step          Time           Temp         c_tempH        c_tempSi        TotEng         PotEng         KinEng         Press           v_k0           v_dt        v_collfreq       v_ccs     
         0   0              100000         100011         96653.987      2.5985855e-06  5.214177e-07   2.0771678e-06  1.0662735e+08  1080144.8      8.8194068e-18  20307101       3.209289e-20 
      1000   8.8194068e-15  100017.67      100028.64      96682.463      2.598643e-06   5.2110813e-07  2.0775348e-06  1.0663576e+08  1080144.8      8.8194068e-18  20307101       3.209289e-20 
      2000   1.7638814e-14  100139.25      100150.22      96805.545      2.6007136e-06  5.2065334e-07  2.0800602e-06  1.0672594e+08  1080144.8      8.8194068e-18  20307101       3.209289e-20 
Loop time of 6.15416 on 1 procs for 2000 steps with 100300 atoms

99.9% CPU use with 1 MPI tasks x 1 OpenMP threads

MPI task timing breakdown:
Section |  min time  |  avg time  |  max time  |%varavg| %total
---------------------------------------------------------------
Pair    | 2.6955     | 2.6955     | 2.6955     |   0.0 | 43.80
Neigh   | 0          | 0          | 0          |   0.0 |  0.00
Comm    | 1.0143     | 1.0143     | 1.0143     |   0.0 | 16.48
Output  | 0.0073562  | 0.0073562  | 0.0073562  |   0.0 |  0.12
Modify  | 1.7727     | 1.7727     | 1.7727     |   0.0 | 28.80
Other   |            | 0.6644     |            |       | 10.80

Nlocal:         100300 ave      100300 max      100300 min
Histogram: 1 0 0 0 0 0 0 0 0 0
Nghost:         151750 ave      151750 max      151750 min
Histogram: 1 0 0 0 0 0 0 0 0 0
Neighs:              0 ave           0 max           0 min
Histogram: 1 0 0 0 0 0 0 0 0 0
FullNghs:  2.46356e+08 ave 2.46356e+08 max 2.46356e+08 min
Histogram: 1 0 0 0 0 0 0 0 0 0

Total # of neighbors = 2.4635558e+08
Ave neighs/atom = 2456.1872
Neighbor list builds = 0
Dangerous builds = 0


---------------------------------------------------------------------
      Device Time Info (average): 
---------------------------------------------------------------------
Data Transfer:   0.2762 s.
Neighbor copy:   0.1496 s.
Neighbor unpack: 0.0000 s.
Force calc:      2.0278 s.
Device Overhead: 0.0734 s.
CPU Cast/Pack:   0.8426 s.
CPU Driver_Time: 0.0252 s.
CPU Idle_Time:   1.7941 s.
Average split:   1.0000.
Max Mem / Proc:  1239.66 MB.
Prefetch mode:   None.
Vector width:    32.
Lanes / atom:    4.
Pair block:      256.
Neigh block:     128.
Neigh mode:      Host.
---------------------------------------------------------------------


--------------------------------------------------------------------------
- Using acceleration for yukawa:
-  with 1 proc(s) per device.
-  with 1 thread(s) per proc.
-  Horizontal vector operations: ENABLED
-  Shared memory system: No
--------------------------------------------------------------------------
Device 0: NVIDIA H200, 132 CUs, 1.4e+02/1.4e+02 GB, 2 GHZ (Mixed Precision)
--------------------------------------------------------------------------

Initializing Device and compiling on process 0...Done.
Initializing Device 0 on core 0...Done.

Generated 0 of 1 mixed pair_coeff terms from geometric mixing rule
Setting up Verlet run ...
  Unit style    : cgs
  Current step  : 2000
  Time step     : 8.81940675885343e-18
Per MPI rank memory allocation (min/avg/max) = 1089 | 1089 | 1089 Mbytes
   Step          Time           Temp         c_tempH        c_tempSi        TotEng         PotEng         KinEng         Press     
      2000   1.7638814e-14  3471505.7      100150.22      1.1310155e+09  7.2629652e-05  5.2065334e-07  7.2108999e-05  2.8587332e+09
      3000   2.645822e-14   3471516.7      100156.98      1.1310169e+09  7.2629654e-05  5.2042671e-07  7.2109227e-05  2.8587366e+09
      4000   3.5277627e-14  3471525.3      100170.3       1.1310153e+09  7.2629651e-05  5.2024569e-07  7.2109405e-05  2.8587396e+09
      5000   4.4097034e-14  3471539        100185.17      1.131015e+09   7.2629646e-05  5.1995498e-07  7.2109691e-05  2.8587448e+09
      6000   5.2916441e-14  3471551        100192.95      1.1310164e+09  7.2629645e-05  5.1970419e-07  7.2109941e-05  2.8587487e+09
      7000   6.1735847e-14  3471559.3      100200.38      1.1310167e+09  7.2629648e-05  5.19536e-07    7.2110112e-05  2.8587509e+09
      8000   7.0555254e-14  3471571.8      100206.82      1.1310187e+09  7.2629647e-05  5.1927335e-07  7.2110373e-05  2.8587547e+09
      9000   7.9374661e-14  3471573.3      100209.84      1.1310182e+09  7.2629643e-05  5.1923858e-07  7.2110404e-05  2.8587545e+09
     10000   8.8194068e-14  3471568.7      100216.19      1.1310146e+09  7.2629643e-05  5.1933544e-07  7.2110308e-05  2.8587526e+09
     11000   9.7013474e-14  3471565.1      100219.93      1.1310121e+09  7.2629643e-05  5.1941117e-07  7.2110232e-05  2.8587511e+09
     12000   1.0583288e-13  3471574.5      100228.25      1.1310125e+09  7.2629654e-05  5.1922547e-07  7.2110428e-05  2.8587552e+09
     13000   1.1465229e-13  3471575.1      100229.75      1.1310122e+09  7.2629657e-05  5.1921655e-07  7.2110441e-05  2.8587557e+09
     14000   1.2347169e-13  3471575.3      100232.28      1.1310114e+09  7.2629655e-05  5.1921085e-07  7.2110444e-05  2.8587551e+09
     15000   1.322911e-13   3471585.3      100235.27      1.1310137e+09  7.2629652e-05  5.1899993e-07  7.2110652e-05  2.8587574e+09
     16000   1.4111051e-13  3471598.1      100243.45      1.1310153e+09  7.2629647e-05  5.187288e-07   7.2110918e-05  2.8587602e+09
     17000   1.4992991e-13  3471605.8      100245.49      1.1310172e+09  7.2629632e-05  5.1855397e-07  7.2111078e-05  2.8587603e+09
     18000   1.5874932e-13  3471605.9      100248.77      1.1310161e+09  7.2629623e-05  5.1854341e-07  7.211108e-05   2.8587589e+09
     19000   1.6756873e-13  3471598.6      100250.34      1.1310132e+09  7.2629614e-05  5.1868548e-07  7.2110929e-05  2.8587553e+09
     20000   1.7638814e-13  3471604.4      100254.91      1.1310136e+09  7.2629614e-05  5.1856491e-07  7.211105e-05   2.8587566e+09
     21000   1.8520754e-13  3471607.6      100259.64      1.1310131e+09  7.2629617e-05  5.1850076e-07  7.2111116e-05  2.8587573e+09
     22000   1.9402695e-13  3471601        100266.76      1.1310085e+09  7.2629619e-05  5.1864083e-07  7.2110979e-05  2.8587548e+09
     23000   2.0284636e-13  3471611.1      100266.88      1.1310118e+09  7.2629615e-05  5.1842679e-07  7.2111189e-05  2.8587576e+09
     24000   2.1166576e-13  3471611.8      100268.17      1.1310116e+09  7.2629618e-05  5.184146e-07   7.2111204e-05  2.8587573e+09
     25000   2.2048517e-13  3471614.5      100270.97      1.1310116e+09  7.2629619e-05  5.1836106e-07  7.2111258e-05  2.8587579e+09
     26000   2.2930458e-13  3471617.4      100275.82      1.1310109e+09  7.2629615e-05  5.1829627e-07  7.2111319e-05  2.8587584e+09
     27000   2.3812398e-13  3471615.5      100278.5       1.1310094e+09  7.2629607e-05  5.183283e-07   7.2111279e-05  2.8587569e+09
     28000   2.4694339e-13  3471616.2      100278.23      1.1310097e+09  7.2629607e-05  5.1831218e-07  7.2111295e-05  2.8587567e+09
     29000   2.557628e-13   3471613.4      100279.29      1.1310084e+09  7.262961e-05   5.1837433e-07  7.2111235e-05  2.8587551e+09
     30000   2.645822e-13   3471621.4      100282.13      1.1310102e+09  7.2629606e-05  5.1820296e-07  7.2111403e-05  2.8587564e+09
     31000   2.7340161e-13  3471633.1      100285.83      1.1310128e+09  7.2629608e-05  5.1796382e-07  7.2111645e-05  2.8587599e+09
     32000   2.8222102e-13  3471631.1      100289.34      1.131011e+09   7.2629599e-05  5.1799453e-07  7.2111604e-05  2.8587581e+09
     33000   2.9104042e-13  3471628.8      100292.26      1.1310093e+09  7.2629607e-05  5.1805186e-07  7.2111555e-05  2.8587584e+09
     34000   2.9985983e-13  3471632.9      100295.16      1.1310097e+09  7.2629612e-05  5.1797011e-07  7.2111642e-05  2.8587601e+09
     35000   3.0867924e-13  3471639.1      100303.77      1.1310089e+09  7.2629616e-05  5.1784629e-07  7.211177e-05   2.8587623e+09
     36000   3.1749864e-13  3471641.1      100304.97      1.1310091e+09  7.2629608e-05  5.1779642e-07  7.2111811e-05  2.858762e+09 
     37000   3.2631805e-13  3471642        100309.56      1.1310079e+09  7.2629601e-05  5.1777099e-07  7.211183e-05   2.8587606e+09
     38000   3.3513746e-13  3471649.7      100310.7       1.1310101e+09  7.26296e-05    5.1761081e-07  7.2111989e-05  2.8587623e+09
     39000   3.4395686e-13  3471649.4      100313.95      1.1310089e+09  7.2629599e-05  5.17614e-07    7.2111985e-05  2.8587618e+09
     40000   3.5277627e-13  3471650        100317.06      1.1310081e+09  7.2629604e-05  5.1760776e-07  7.2111997e-05  2.8587633e+09
     41000   3.6159568e-13  3471645.2      100316.31      1.1310067e+09  7.2629608e-05  5.1771016e-07  7.2111898e-05  2.8587624e+09
     42000   3.7041508e-13  3471643.8      100312.06      1.1310077e+09  7.2629606e-05  5.1773727e-07  7.2111869e-05  2.8587613e+09
     43000   3.7923449e-13  3471638.3      100312.59      1.1310057e+09  7.2629611e-05  5.1785833e-07  7.2111753e-05  2.8587591e+09
     44000   3.880539e-13   3471641        100316.25      1.1310053e+09  7.2629603e-05  5.1779406e-07  7.2111809e-05  2.8587587e+09
     45000   3.968733e-13   3471655.6      100323.95      1.1310077e+09  7.2629604e-05  5.1749106e-07  7.2112113e-05  2.8587637e+09
     46000   4.0569271e-13  3471659        100324.06      1.1310088e+09  7.2629597e-05  5.1741416e-07  7.2112183e-05  2.8587642e+09
     47000   4.1451212e-13  3471660.8      100331.49      1.1310069e+09  7.2629599e-05  5.173784e-07   7.211222e-05   2.8587657e+09
     48000   4.2333152e-13  3471660.9      100332.44      1.1310066e+09  7.2629597e-05  5.1737469e-07  7.2112222e-05  2.8587655e+09
     49000   4.3215093e-13  3471664.7      100330.27      1.1310086e+09  7.2629599e-05  5.1729833e-07  7.2112301e-05  2.8587665e+09
     50000   4.4097034e-13  3471660.7      100334.18      1.131006e+09   7.2629596e-05  5.173771e-07   7.2112219e-05  2.8587645e+09
     51000   4.4978974e-13  3471666.9      100330.2       1.1310094e+09  7.2629596e-05  5.1724777e-07  7.2112348e-05  2.8587663e+09
     52000   4.5860915e-13  3471663.8      100333.86      1.1310071e+09  7.26296e-05    5.1731807e-07  7.2112282e-05  2.8587653e+09
     53000   4.6742856e-13  3471671.4      100332.33      1.1310101e+09  7.2629599e-05  5.1715881e-07  7.211244e-05   2.8587679e+09
     54000   4.7624796e-13  3471666.9      100334.87      1.1310078e+09  7.2629599e-05  5.1725217e-07  7.2112347e-05  2.8587669e+09
     55000   4.8506737e-13  3471666.4      100338.81      1.1310063e+09  7.2629591e-05  5.1725458e-07  7.2112337e-05  2.8587668e+09
     56000   4.9388678e-13  3471660.8      100333.18      1.1310063e+09  7.2629583e-05  5.1736181e-07  7.2112221e-05  2.8587636e+09
     57000   5.0270619e-13  3471659.3      100333.16      1.1310058e+09  7.2629591e-05  5.1740199e-07  7.2112189e-05  2.8587637e+09
     58000   5.1152559e-13  3471667.3      100337.26      1.1310071e+09  7.2629591e-05  5.1723484e-07  7.2112356e-05  2.858767e+09 
     59000   5.20345e-13    3471661.9      100337.23      1.1310053e+09  7.2629599e-05  5.1735519e-07  7.2112244e-05  2.8587658e+09
     60000   5.2916441e-13  3471661.3      100337.47      1.131005e+09   7.2629599e-05  5.1736884e-07  7.2112231e-05  2.8587657e+09
     61000   5.3798381e-13  3471662.7      100334.79      1.1310064e+09  7.2629598e-05  5.1733853e-07  7.211226e-05   2.8587661e+09
     62000   5.4680322e-13  3471661.9      100334.68      1.1310062e+09  7.2629597e-05  5.1735234e-07  7.2112244e-05  2.8587665e+09
     63000   5.5562263e-13  3471656.5      100332.99      1.1310049e+09  7.26296e-05    5.1746858e-07  7.2112132e-05  2.8587658e+09
     64000   5.6444203e-13  3471651.2      100329.24      1.1310044e+09  7.2629598e-05  5.1757718e-07  7.2112021e-05  2.8587631e+09
     65000   5.7326144e-13  3471659.7      100328.41      1.1310075e+09  7.2629587e-05  5.1738936e-07  7.2112198e-05  2.8587644e+09
     66000   5.8208085e-13  3471657.8      100332.07      1.1310057e+09  7.262959e-05   5.1743215e-07  7.2112158e-05  2.8587639e+09
     67000   5.9090025e-13  3471659.4      100386.16      1.1309881e+09  7.2629625e-05  5.174335e-07   7.2112191e-05  2.8587665e+09
     68000   5.9971966e-13  3471667.7      100389.16      1.1309899e+09  7.2629622e-05  5.1725735e-07  7.2112365e-05  2.8587698e+09
     69000   6.0853907e-13  3471661.4      100385.87      1.1309889e+09  7.2629629e-05  5.1739537e-07  7.2112233e-05  2.8587676e+09
     70000   6.1735847e-13  3471656.2      100382.92      1.1309881e+09  7.2629631e-05  5.175055e-07   7.2112126e-05  2.8587655e+09
     71000   6.2617788e-13  3471652.7      100380.25      1.1309879e+09  7.2629629e-05  5.1757566e-07  7.2112053e-05  2.8587637e+09
     72000   6.3499729e-13  3471659.2      100385.38      1.1309883e+09  7.262963e-05   5.1744252e-07  7.2112187e-05  2.8587666e+09
     73000   6.4381669e-13  3471659        100387.49      1.1309875e+09  7.2629638e-05  5.1745584e-07  7.2112182e-05  2.8587679e+09
     74000   6.526361e-13   3471662.8      100386.29      1.1309892e+09  7.2629635e-05  5.1737288e-07  7.2112262e-05  2.8587691e+09
     75000   6.6145551e-13  3471651.9      100381.64      1.1309871e+09  7.2629637e-05  5.176007e-07   7.2112036e-05  2.8587647e+09
     76000   6.7027491e-13  3471667.8      100386.65      1.1309908e+09  7.2629641e-05  5.1727455e-07  7.2112366e-05  2.8587703e+09
     77000   6.7909432e-13  3471668.9      100384.72      1.1309918e+09  7.2629638e-05  5.1724919e-07  7.2112389e-05  2.8587702e+09
     78000   6.8791373e-13  3471662.1      100382.96      1.1309901e+09  7.2629638e-05  5.173904e-07   7.2112247e-05  2.8587682e+09
     79000   6.9673313e-13  3471657.5      100382.04      1.1309889e+09  7.2629642e-05  5.1749026e-07  7.2112152e-05  2.8587672e+09
     80000   7.0555254e-13  3471654.2      100380.36      1.1309883e+09  7.2629638e-05  5.1755437e-07  7.2112083e-05  2.8587659e+09
     81000   7.1437195e-13  3471650.2      100379.12      1.1309874e+09  7.2629642e-05  5.1764069e-07  7.2112001e-05  2.8587647e+09
     82000   7.2319135e-13  3471651.7      100379.1       1.1309879e+09  7.2629646e-05  5.1761436e-07  7.2112032e-05  2.8587651e+09
     83000   7.3201076e-13  3471647.7      100379.33      1.1309865e+09  7.2629644e-05  5.1769498e-07  7.2111949e-05  2.8587637e+09
     84000   7.4083017e-13  3471657.2      100381.77      1.1309889e+09  7.2629639e-05  5.1749257e-07  7.2112147e-05  2.8587679e+09
     85000   7.4964957e-13  3471654.8      100386.39      1.1309865e+09  7.2629637e-05  5.1754057e-07  7.2112096e-05  2.8587671e+09
     86000   7.5846898e-13  3471662.3      100387.8       1.1309885e+09  7.262964e-05   5.1738849e-07  7.2112252e-05  2.8587699e+09
     87000   7.6728839e-13  3471657.7      100386.02      1.1309876e+09  7.2629639e-05  5.174816e-07   7.2112157e-05  2.858768e+09 
     88000   7.7610779e-13  3471645.9      100383.34      1.1309845e+09  7.2629632e-05  5.1772035e-07  7.2111912e-05  2.8587627e+09
     89000   7.849272e-13   3471664.3      100387.65      1.1309893e+09  7.2629633e-05  5.1733809e-07  7.2112295e-05  2.8587691e+09
     90000   7.9374661e-13  3471663.8      100389.11      1.1309886e+09  7.2629637e-05  5.1735309e-07  7.2112284e-05  2.8587693e+09
     91000   8.0256602e-13  3471654.5      100388.96      1.1309855e+09  7.2629633e-05  5.1754393e-07  7.2112089e-05  2.8587668e+09
     92000   8.1138542e-13  3471647.3      100387.1       1.1309838e+09  7.2629634e-05  5.176926e-07   7.2111941e-05  2.8587645e+09
     93000   8.2020483e-13  3471651.7      100388.46      1.1309848e+09  7.2629636e-05  5.176036e-07   7.2112032e-05  2.8587657e+09
     94000   8.2902424e-13  3471651.2      100383.75      1.1309862e+09  7.2629628e-05  5.1760688e-07  7.2112021e-05  2.8587636e+09
     95000   8.3784364e-13  3471658.4      100381.45      1.1309894e+09  7.2629627e-05  5.1745679e-07  7.211217e-05   2.8587659e+09
     96000   8.4666305e-13  3471650.7      100380.66      1.130987e+09   7.2629629e-05  5.1761886e-07  7.211201e-05   2.8587638e+09
     97000   8.5548246e-13  3471644.1      100376.72      1.1309861e+09  7.2629642e-05  5.1776906e-07  7.2111873e-05  2.8587631e+09
     98000   8.6430186e-13  3471646.6      100375.06      1.1309876e+09  7.2629646e-05  5.1771916e-07  7.2111927e-05  2.8587641e+09
     99000   8.7312127e-13  3471642.5      100376.03      1.1309859e+09  7.2629642e-05  5.1780072e-07  7.2111841e-05  2.858762e+09 
    100000   8.8194068e-13  3471646.2      100379.67      1.1309859e+09  7.2629642e-05  5.1772497e-07  7.2111917e-05  2.8587634e+09
    101000   8.9076008e-13  3471643.2      100381.88      1.1309841e+09  7.2629628e-05  5.1777321e-07  7.2111855e-05  2.8587612e+09
    102000   8.9957949e-13  3471642.2      100378.29      1.130985e+09   7.2629633e-05  5.1779927e-07  7.2111834e-05  2.8587604e+09
    103000   9.083989e-13   3471646.3      100376.27      1.130987e+09   7.2629643e-05  5.177238e-07   7.2111919e-05  2.8587618e+09
    104000   9.172183e-13   3471651.1      100381.78      1.1309868e+09  7.2629654e-05  5.1763457e-07  7.2112019e-05  2.8587643e+09
    105000   9.2603771e-13  3471640.6      100385.8       1.1309819e+09  7.2629646e-05  5.1784461e-07  7.2111801e-05  2.8587604e+09
    106000   9.3485712e-13  3471650.5      100388.92      1.1309842e+09  7.2629653e-05  5.1764595e-07  7.2112007e-05  2.8587657e+09
    107000   9.4367652e-13  3471645.4      100391.86      1.1309815e+09  7.262966e-05   5.1775838e-07  7.2111901e-05  2.8587643e+09
    108000   9.5249593e-13  3471661.4      100399.08      1.1309845e+09  7.2629653e-05  5.1741994e-07  7.2112233e-05  2.85877e+09  
    109000   9.6131534e-13  3471659.8      100402.42      1.1309828e+09  7.2629646e-05  5.1744613e-07  7.21122e-05    2.8587693e+09
    110000   9.7013474e-13  3471656        100399.07      1.1309827e+09  7.2629641e-05  5.1752036e-07  7.2112121e-05  2.8587672e+09
    111000   9.7895415e-13  3471651.3      100396.5       1.1309819e+09  7.2629646e-05  5.1762305e-07  7.2112023e-05  2.8587651e+09
    112000   9.8777356e-13  3471661.1      100394.53      1.1309859e+09  7.2629645e-05  5.1741809e-07  7.2112226e-05  2.8587679e+09
    113000   9.9659296e-13  3471650        100390.52      1.1309835e+09  7.2629644e-05  5.1764814e-07  7.2111996e-05  2.8587636e+09
    114000   1.0054124e-12  3471650.6      100392.26      1.1309831e+09  7.2629637e-05  5.1762799e-07  7.2112009e-05  2.8587639e+09
    115000   1.0142318e-12  3471652.4      100392.87      1.1309835e+09  7.262963e-05   5.1758302e-07  7.2112047e-05  2.8587638e+09
    116000   1.0230512e-12  3471652.5      100395.15      1.1309828e+09  7.2629627e-05  5.1757793e-07  7.2112049e-05  2.858763e+09 
    117000   1.0318706e-12  3471649.8      100390.24      1.1309835e+09  7.2629625e-05  5.176328e-07   7.2111992e-05  2.8587616e+09
    118000   1.04069e-12    3471648.3      100389.81      1.1309832e+09  7.2629621e-05  5.1765878e-07  7.2111962e-05  2.8587614e+09
    119000   1.0495094e-12  3471650.5      100387.63      1.1309847e+09  7.2629625e-05  5.1761724e-07  7.2112007e-05  2.8587628e+09
    120000   1.0583288e-12  3471652.7      100392.49      1.1309838e+09  7.262962e-05   5.1756843e-07  7.2112052e-05  2.8587633e+09
    121000   1.0671482e-12  3471653.5      100392.12      1.1309842e+09  7.2629631e-05  5.1756158e-07  7.2112069e-05  2.8587649e+09
    122000   1.0759676e-12  3471648.4      100390.13      1.1309831e+09  7.2629629e-05  5.176649e-07   7.2111964e-05  2.8587633e+09
    123000   1.084787e-12   3471649.1      100390.39      1.1309833e+09  7.2629624e-05  5.1764571e-07  7.2111978e-05  2.8587633e+09
    124000   1.0936064e-12  3471640.3      100390.86      1.1309801e+09  7.262963e-05   5.1783512e-07  7.2111795e-05  2.8587599e+09
    125000   1.1024258e-12  3471655.4      100392.91      1.1309845e+09  7.2629625e-05  5.1751589e-07  7.2112109e-05  2.8587646e+09
    126000   1.1112453e-12  3471657.9      100396.82      1.130984e+09   7.2629626e-05  5.1746577e-07  7.211216e-05   2.8587657e+09
    127000   1.1200647e-12  3471657.9      100398.02      1.1309837e+09  7.2629611e-05  5.1745017e-07  7.2112161e-05  2.8587653e+09
    128000   1.1288841e-12  3471651.7      100396.23      1.1309822e+09  7.2629608e-05  5.1757556e-07  7.2112032e-05  2.8587627e+09
    129000   1.1377035e-12  3471648.8      100392.48      1.1309825e+09  7.2629616e-05  5.176432e-07   7.2111973e-05  2.8587616e+09
    130000   1.1465229e-12  3471651.6      100394.5       1.1309827e+09  7.2629622e-05  5.1759248e-07  7.211203e-05   2.8587631e+09
    131000   1.1553423e-12  3471644.1      100391.8       1.1309811e+09  7.2629619e-05  5.1774432e-07  7.2111875e-05  2.8587605e+09
    132000   1.1641617e-12  3471651.3      100388.33      1.1309847e+09  7.2629624e-05  5.1760183e-07  7.2112023e-05  2.8587637e+09
    133000   1.1729811e-12  3471648.6      100387.68      1.130984e+09   7.2629628e-05  5.1766107e-07  7.2111967e-05  2.858763e+09 
    134000   1.1818005e-12  3471645.5      100385.06      1.1309838e+09  7.2629629e-05  5.1772633e-07  7.2111903e-05  2.858762e+09 
    135000   1.1906199e-12  3471641.5      100387.85      1.1309816e+09  7.2629627e-05  5.1780747e-07  7.211182e-05   2.8587607e+09
    136000   1.1994393e-12  3471646.5      100390.08      1.1309825e+09  7.2629629e-05  5.1770579e-07  7.2111924e-05  2.858763e+09 
    137000   1.2082587e-12  3471640.7      100393.81      1.1309793e+09  7.2629635e-05  5.1783103e-07  7.2111804e-05  2.858761e+09 
    138000   1.2170781e-12  3471653.9      100395.93      1.130983e+09   7.2629628e-05  5.1754982e-07  7.2112078e-05  2.8587649e+09
    139000   1.2258975e-12  3471660.1      100397.1       1.1309847e+09  7.2629619e-05  5.1741203e-07  7.2112207e-05  2.8587657e+09
    140000   1.2347169e-12  3471655        100396.05      1.1309833e+09  7.2629613e-05  5.1751326e-07  7.21121e-05    2.8587622e+09
    141000   1.2435364e-12  3471658.2      100396.25      1.1309844e+09  7.2629607e-05  5.1743946e-07  7.2112168e-05  2.8587626e+09
    142000   1.2523558e-12  3471662.4      100402.82      1.1309836e+09  7.2629615e-05  5.1736093e-07  7.2112254e-05  2.8587655e+09
    143000   1.2611752e-12  3471659.3      100403.88      1.1309822e+09  7.2629624e-05  5.1743458e-07  7.211219e-05   2.8587657e+09
    144000   1.2699946e-12  3471665.4      100412.1       1.1309815e+09  7.2629624e-05  5.1730685e-07  7.2112317e-05  2.858768e+09 
    145000   1.278814e-12   3471672.3      100415.18      1.1309827e+09  7.2629626e-05  5.1716698e-07  7.2112459e-05  2.8587707e+09
    146000   1.2876334e-12  3471662.2      100412.77      1.1309802e+09  7.262962e-05   5.1736966e-07  7.211225e-05   2.8587663e+09
    147000   1.2964528e-12  3471663.1      100412.72      1.1309805e+09  7.2629617e-05  5.1734823e-07  7.2112269e-05  2.8587665e+09
    148000   1.3052722e-12  3471658.7      100405.15      1.1309815e+09  7.2629626e-05  5.1744838e-07  7.2112177e-05  2.8587652e+09
    149000   1.3140916e-12  3471662.6      100410.28      1.1309811e+09  7.2629622e-05  5.1736415e-07  7.2112257e-05  2.8587663e+09
    150000   1.322911e-12   3471659.4      100407.1       1.1309811e+09  7.2629618e-05  5.1742602e-07  7.2112192e-05  2.8587646e+09
    151000   1.3317304e-12  3471661.4      100410.67      1.1309806e+09  7.2629625e-05  5.1739254e-07  7.2112232e-05  2.8587661e+09
    152000   1.3405498e-12  3471657.3      100410.78      1.1309792e+09  7.2629621e-05  5.1747348e-07  7.2112147e-05  2.8587648e+09
    153000   1.3493692e-12  3471654.5      100410.91      1.1309782e+09  7.2629617e-05  5.1752689e-07  7.211209e-05   2.8587638e+09
    154000   1.3581886e-12  3471646.2      100408.04      1.1309764e+09  7.2629617e-05  5.1769955e-07  7.2111918e-05  2.8587602e+09
    155000   1.367008e-12   3471656.9      100407.11      1.1309803e+09  7.262961e-05   5.1746946e-07  7.211214e-05   2.8587628e+09
    156000   1.3758275e-12  3471664.2      100411.1       1.1309814e+09  7.2629609e-05  5.1731614e-07  7.2112292e-05  2.8587653e+09
    157000   1.3846469e-12  3471659.3      100409.37      1.1309803e+09  7.2629616e-05  5.174256e-07   7.2112191e-05  2.8587642e+09
    158000   1.3934663e-12  3471654.3      100410.57      1.1309783e+09  7.2629611e-05  5.1752464e-07  7.2112087e-05  2.8587624e+09
    159000   1.4022857e-12  3471656.4      100411.14      1.1309788e+09  7.2629616e-05  5.1748751e-07  7.2112128e-05  2.8587637e+09
    160000   1.4111051e-12  3471661.4      100414.29      1.1309794e+09  7.2629615e-05  5.173812e-07   7.2112234e-05  2.8587649e+09
    161000   1.4199245e-12  3471668.3      100415.43      1.1309813e+09  7.2629614e-05  5.1723717e-07  7.2112377e-05  2.858767e+09 
    162000   1.4287439e-12  3471657.5      100413.66      1.1309783e+09  7.2629618e-05  5.1746678e-07  7.2112151e-05  2.8587636e+09
    163000   1.4375633e-12  3471654.8      100409.17      1.1309789e+09  7.2629617e-05  5.1752072e-07  7.2112096e-05  2.858763e+09 
    164000   1.4463827e-12  3471652.2      100402.2       1.1309803e+09  7.2629611e-05  5.1756909e-07  7.2112042e-05  2.8587611e+09
    165000   1.4552021e-12  3471649.3      100399.3       1.1309803e+09  7.2629607e-05  5.1762637e-07  7.2111981e-05  2.8587591e+09
    166000   1.4640215e-12  3471650.6      100401.16      1.1309802e+09  7.262961e-05   5.1760151e-07  7.2112009e-05  2.8587594e+09
    167000   1.4728409e-12  3471653.1      100401.46      1.1309809e+09  7.2629609e-05  5.1754784e-07  7.2112061e-05  2.85876e+09  
    168000   1.4816603e-12  3471650.8      100401.09      1.1309803e+09  7.2629613e-05  5.1759922e-07  7.2112014e-05  2.8587593e+09
    169000   1.4904797e-12  3471652.8      100403.28      1.1309802e+09  7.2629615e-05  5.1755967e-07  7.2112055e-05  2.8587604e+09
    170000   1.4992991e-12  3471648.3      100402.77      1.1309789e+09  7.2629615e-05  5.1765341e-07  7.2111962e-05  2.8587594e+09
    171000   1.5081186e-12  3471646.5      100404.63      1.1309776e+09  7.2629605e-05  5.1768039e-07  7.2111924e-05  2.8587583e+09
    172000   1.516938e-12   3471645.8      100402.06      1.1309782e+09  7.2629613e-05  5.1770434e-07  7.2111908e-05  2.8587583e+09
    173000   1.5257574e-12  3471646.2      100402.51      1.1309782e+09  7.2629622e-05  5.1770457e-07  7.2111917e-05  2.8587589e+09
    174000   1.5345768e-12  3471642.6      100398.72      1.1309783e+09  7.2629622e-05  5.1777861e-07  7.2111843e-05  2.858757e+09 
    175000   1.5433962e-12  3471653.8      100404.47      1.1309801e+09  7.2629622e-05  5.1754654e-07  7.2112075e-05  2.8587615e+09
    176000   1.5522156e-12  3471654.3      100407.92      1.1309791e+09  7.2629622e-05  5.1753609e-07  7.2112086e-05  2.858762e+09 
    177000   1.561035e-12   3471657        100413.05      1.1309783e+09  7.2629615e-05  5.1747361e-07  7.2112141e-05  2.858762e+09 
    178000   1.5698544e-12  3471662.1      100414.63      1.1309795e+09  7.262962e-05   5.1737333e-07  7.2112247e-05  2.8587637e+09
    179000   1.5786738e-12  3471661.7      100414.82      1.1309793e+09  7.2629615e-05  5.1737595e-07  7.2112239e-05  2.8587636e+09
    180000   1.5874932e-12  3471664.7      100418.38      1.1309791e+09  7.2629615e-05  5.173144e-07   7.2112301e-05  2.8587656e+09
    181000   1.5963126e-12  3471663.3      100416.31      1.1309793e+09  7.2629626e-05  5.1735418e-07  7.2112272e-05  2.8587661e+09
    182000   1.605132e-12   3471661.6      100417.53      1.1309784e+09  7.2629628e-05  5.1739099e-07  7.2112237e-05  2.858766e+09 
    183000   1.6139514e-12  3471659.5      100416.14      1.1309781e+09  7.2629628e-05  5.174349e-07   7.2112193e-05  2.8587651e+09
    184000   1.6227708e-12  3471658.5      100410.01      1.1309799e+09  7.2629625e-05  5.1745108e-07  7.2112174e-05  2.8587643e+09
    185000   1.6315903e-12  3471653.1      100412.75      1.1309771e+09  7.2629629e-05  5.1756804e-07  7.2112061e-05  2.8587634e+09
    186000   1.6404097e-12  3471656.8      100412.65      1.1309784e+09  7.2629627e-05  5.1748905e-07  7.2112138e-05  2.858765e+09 
    187000   1.6492291e-12  3471654        100411.54      1.1309778e+09  7.2629618e-05  5.1753784e-07  7.211208e-05   2.8587631e+09
    188000   1.6580485e-12  3471653.5      100408.22      1.1309788e+09  7.2629632e-05  5.1756247e-07  7.2112069e-05  2.8587638e+09
    189000   1.6668679e-12  3471646.7      100405.21      1.1309775e+09  7.2629622e-05  5.1769392e-07  7.2111928e-05  2.8587604e+09
    190000   1.6756873e-12  3471645.5      100403.12      1.1309778e+09  7.2629626e-05  5.1772208e-07  7.2111904e-05  2.8587605e+09
    191000   1.6845067e-12  3471637.4      100401.53      1.1309756e+09  7.2629629e-05  5.1789421e-07  7.2111735e-05  2.8587578e+09
    192000   1.6933261e-12  3471643.6      100399.16      1.1309785e+09  7.2629627e-05  5.1776296e-07  7.2111864e-05  2.8587594e+09
    193000   1.7021455e-12  3471643.3      100398.69      1.1309785e+09  7.2629634e-05  5.1777614e-07  7.2111858e-05  2.85876e+09  
    194000   1.7109649e-12  3471648.5      100403.8       1.1309786e+09  7.2629634e-05  5.1766779e-07  7.2111966e-05  2.8587621e+09
    195000   1.7197843e-12  3471656.7      100413.93      1.130978e+09   7.2629645e-05  5.1750849e-07  7.2112137e-05  2.8587666e+09
    196000   1.7286037e-12  3471660.7      100415.78      1.1309786e+09  7.2629643e-05  5.1742528e-07  7.2112218e-05  2.8587684e+09
    197000   1.7374231e-12  3471659.9      100416.82      1.130978e+09   7.2629645e-05  5.1744341e-07  7.2112201e-05  2.8587685e+09
    198000   1.7462425e-12  3471644.6      100408.37      1.1309757e+09  7.2629644e-05  5.1776031e-07  7.2111884e-05  2.8587629e+09
    199000   1.7550619e-12  3471645.1      100409.65      1.1309755e+09  7.2629643e-05  5.1774838e-07  7.2111895e-05  2.8587634e+09
    200000   1.7638814e-12  3471648.4      100414.42      1.130975e+09   7.2629659e-05  5.1769477e-07  7.2111964e-05  2.8587666e+09
    201000   1.7727008e-12  3471644.9      100415.25      1.1309735e+09  7.2629657e-05  5.1776678e-07  7.211189e-05   2.8587651e+09
    202000   1.7815202e-12  3471645        100407.94      1.130976e+09   7.2629654e-05  5.1776058e-07  7.2111894e-05  2.8587647e+09
    203000   1.7903396e-12  3471636.3      100405.56      1.1309739e+09  7.2629662e-05  5.1795105e-07  7.2111711e-05  2.8587617e+09
    204000   1.799159e-12   3471642        100411.37      1.1309739e+09  7.2629664e-05  5.1783406e-07  7.211183e-05   2.8587647e+09
    205000   1.8079784e-12  3471637.9      100411.83      1.1309723e+09  7.2629656e-05  5.1791013e-07  7.2111746e-05  2.8587625e+09
    206000   1.8167978e-12  3471640.5      100411.92      1.1309732e+09  7.2629651e-05  5.1785131e-07  7.2111799e-05  2.8587631e+09
    207000   1.8256172e-12  3471640.4      100409.52      1.1309739e+09  7.2629648e-05  5.1785106e-07  7.2111797e-05  2.8587622e+09
    208000   1.8344366e-12  3471647.5      100409.04      1.1309765e+09  7.2629646e-05  5.1770095e-07  7.2111945e-05  2.8587641e+09
    209000   1.843256e-12   3471647.7      100409.18      1.1309765e+09  7.262965e-05   5.1770158e-07  7.2111949e-05  2.8587649e+09
    210000   1.8520754e-12  3471642.8      100412.09      1.1309739e+09  7.2629654e-05  5.1780654e-07  7.2111848e-05  2.8587639e+09
    211000   1.8608948e-12  3471653.8      100416.03      1.1309763e+09  7.2629648e-05  5.1757276e-07  7.2112076e-05  2.8587672e+09
    212000   1.8697142e-12  3471648.2      100416.1       1.1309744e+09  7.2629653e-05  5.1769436e-07  7.2111959e-05  2.8587652e+09
    213000   1.8785336e-12  3471644        100419.59      1.1309718e+09  7.2629653e-05  5.1777991e-07  7.2111873e-05  2.858764e+09 
    214000   1.887353e-12   3471655.6      100419.56      1.1309757e+09  7.2629654e-05  5.1754201e-07  7.2112112e-05  2.8587684e+09
    215000   1.8961725e-12  3471665.4      100423.86      1.1309775e+09  7.2629655e-05  5.1733809e-07  7.2112317e-05  2.8587717e+09
    216000   1.9049919e-12  3471662.2      100425.26      1.130976e+09   7.2629654e-05  5.1740424e-07  7.211225e-05   2.8587702e+09
    217000   1.9138113e-12  3471662.8      100424.6       1.1309764e+09  7.2629637e-05  5.1737391e-07  7.2112263e-05  2.8587693e+09
    218000   1.9226307e-12  3471656.8      100421.24      1.1309755e+09  7.2629639e-05  5.1750125e-07  7.2112137e-05  2.8587673e+09
    219000   1.9314501e-12  3471654.7      100420.32      1.1309751e+09  7.2629641e-05  5.1754592e-07  7.2112095e-05  2.8587667e+09
    220000   1.9402695e-12  3471655.1      100417.9       1.1309761e+09  7.262964e-05   5.175367e-07   7.2112103e-05  2.8587666e+09
    221000   1.9490889e-12  3471652.3      100413.23      1.1309767e+09  7.2629637e-05  5.1759355e-07  7.2112044e-05  2.8587652e+09
    222000   1.9579083e-12  3471647.7      100415.35      1.1309745e+09  7.2629637e-05  5.1768741e-07  7.211195e-05   2.8587641e+09
    223000   1.9667277e-12  3471640        100413.57      1.1309724e+09  7.2629635e-05  5.1784706e-07  7.2111788e-05  2.8587616e+09
    224000   1.9755471e-12  3471638.3      100408.5       1.1309736e+09  7.2629638e-05  5.1788572e-07  7.2111753e-05  2.8587614e+09
    225000   1.9843665e-12  3471637.1      100410.08      1.1309726e+09  7.2629639e-05  5.1791108e-07  7.2111728e-05  2.8587611e+09
    226000   1.9931859e-12  3471645.6      100410.9       1.1309752e+09  7.262964e-05   5.1773493e-07  7.2111905e-05  2.8587642e+09
    227000   2.0020053e-12  3471643.1      100412.42      1.1309739e+09  7.2629646e-05  5.1779228e-07  7.2111853e-05  2.858764e+09 
    228000   2.0108247e-12  3471646.2      100415.22      1.130974e+09   7.2629658e-05  5.1774044e-07  7.2111917e-05  2.8587668e+09
    229000   2.0196441e-12  3471635.7      100407.84      1.1309729e+09  7.2629659e-05  5.1795974e-07  7.2111699e-05  2.858763e+09 
    230000   2.0284636e-12  3471636.1      100409.96      1.1309723e+09  7.2629649e-05  5.1794186e-07  7.2111707e-05  2.8587628e+09
    231000   2.037283e-12   3471632.9      100410.02      1.1309713e+09  7.2629653e-05  5.1801114e-07  7.2111642e-05  2.8587618e+09
    232000   2.0461024e-12  3471635.8      100409.63      1.1309723e+09  7.262965e-05   5.1794973e-07  7.2111701e-05  2.8587629e+09
    233000   2.0549218e-12  3471635.2      100409.5       1.1309722e+09  7.2629646e-05  5.1795652e-07  7.211169e-05   2.8587627e+09
    234000   2.0637412e-12  3471636.1      100409.81      1.1309724e+09  7.2629646e-05  5.1793878e-07  7.2111707e-05  2.8587624e+09
    235000   2.0725606e-12  3471636.2      100411.35      1.1309719e+09  7.262964e-05   5.1792973e-07  7.2111711e-05  2.8587618e+09
    236000   2.08138e-12    3471634        100408.31      1.1309722e+09  7.2629645e-05  5.1798161e-07  7.2111663e-05  2.8587614e+09
    237000   2.0901994e-12  3471639        100414.06      1.130972e+09   7.2629643e-05  5.1787471e-07  7.2111768e-05  2.8587629e+09
    238000   2.0990188e-12  3471639        100410.44      1.1309731e+09  7.2629647e-05  5.1787949e-07  7.2111767e-05  2.8587626e+09
    239000   2.1078382e-12  3471638.6      100413.33      1.1309721e+09  7.262965e-05   5.1788919e-07  7.211176e-05   2.858763e+09 
    240000   2.1166576e-12  3471639.7      100413.66      1.1309723e+09  7.2629646e-05  5.1786301e-07  7.2111783e-05  2.8587635e+09
    241000   2.125477e-12   3471637.2      100411.54      1.1309722e+09  7.2629652e-05  5.179218e-07   7.211173e-05   2.8587631e+09
    242000   2.1342964e-12  3471633.9      100410.19      1.1309715e+09  7.2629652e-05  5.1799e-07     7.2111662e-05  2.8587615e+09
    243000   2.1431158e-12  3471634.8      100411.7       1.1309713e+09  7.2629651e-05  5.1796985e-07  7.2111681e-05  2.8587614e+09
    244000   2.1519352e-12  3471644        100417.34      1.1309725e+09  7.2629648e-05  5.1777682e-07  7.2111871e-05  2.8587646e+09
    245000   2.1607547e-12  3471642.7      100417.03      1.1309722e+09  7.262964e-05   5.1779583e-07  7.2111844e-05  2.8587638e+09
    246000   2.1695741e-12  3471636.9      100411.49      1.1309721e+09  7.2629639e-05  5.1791564e-07  7.2111723e-05  2.8587616e+09
    247000   2.1783935e-12  3471627.6      100411.81      1.1309689e+09  7.2629632e-05  5.1810071e-07  7.2111531e-05  2.8587572e+09
    248000   2.1872129e-12  3471637.4      100412.86      1.1309718e+09  7.2629629e-05  5.178954e-07   7.2111734e-05  2.8587606e+09
    249000   2.1960323e-12  3471640        100416.27      1.1309715e+09  7.2629625e-05  5.178366e-07   7.2111789e-05  2.8587611e+09
    250000   2.2048517e-12  3471643.8      100417.24      1.1309725e+09  7.2629627e-05  5.1775999e-07  7.2111867e-05  2.8587624e+09
    251000   2.2136711e-12  3471651.1      100418.03      1.1309747e+09  7.2629634e-05  5.1761382e-07  7.211202e-05   2.8587658e+09
    252000   2.2224905e-12  3471642        100418.6       1.1309714e+09  7.2629637e-05  5.178065e-07   7.2111831e-05  2.8587628e+09
    253000   2.2313099e-12  3471646        100417.94      1.130973e+09   7.2629644e-05  5.1773078e-07  7.2111913e-05  2.8587655e+09
    254000   2.2401293e-12  3471635.3      100421.1       1.1309684e+09  7.2629641e-05  5.1794945e-07  7.2111692e-05  2.8587618e+09
    255000   2.2489487e-12  3471644.5      100423.3       1.1309707e+09  7.2629642e-05  5.1776036e-07  7.2111881e-05  2.8587652e+09
    256000   2.2577681e-12  3471648.4      100425.49      1.1309713e+09  7.2629637e-05  5.1767281e-07  7.2111964e-05  2.8587652e+09
    257000   2.2665875e-12  3471650.4      100428.67      1.1309709e+09  7.2629628e-05  5.1762432e-07  7.2112004e-05  2.8587648e+09
    258000   2.2754069e-12  3471653.6      100427.24      1.1309724e+09  7.2629616e-05  5.1754435e-07  7.2112071e-05  2.8587653e+09
    259000   2.2842264e-12  3471652.4      100430.21      1.1309711e+09  7.2629623e-05  5.1757647e-07  7.2112047e-05  2.8587661e+09
    260000   2.2930458e-12  3471655.6      100430.38      1.1309721e+09  7.2629622e-05  5.1750867e-07  7.2112113e-05  2.8587666e+09
    261000   2.3018652e-12  3471657.4      100429.64      1.1309729e+09  7.2629628e-05  5.1747717e-07  7.211215e-05   2.8587666e+09
    262000   2.3106846e-12  3471662.2      100433.12      1.1309734e+09  7.2629625e-05  5.1737481e-07  7.211225e-05   2.858768e+09 
    263000   2.319504e-12   3471659        100433.97      1.130972e+09   7.2629628e-05  5.1744559e-07  7.2112183e-05  2.8587674e+09
    264000   2.3283234e-12  3471649.7      100431.45      1.1309697e+09  7.2629634e-05  5.176431e-07   7.2111991e-05  2.8587648e+09
    265000   2.3371428e-12  3471648.5      100431.61      1.1309693e+09  7.2629632e-05  5.1766615e-07  7.2111966e-05  2.8587641e+09
    266000   2.3459622e-12  3471652.6      100431.27      1.1309708e+09  7.2629629e-05  5.1757763e-07  7.2112051e-05  2.8587651e+09
    267000   2.3547816e-12  3471646.8      100431.03      1.1309689e+09  7.2629631e-05  5.1770135e-07  7.2111929e-05  2.858763e+09 
    268000   2.363601e-12   3471652.5      100432.75      1.1309702e+09  7.2629631e-05  5.1758151e-07  7.2112049e-05  2.8587654e+09
    269000   2.3724204e-12  3471651.2      100437         1.1309684e+09  7.2629636e-05  5.17615e-07    7.2112021e-05  2.8587652e+09
    270000   2.3812398e-12  3471660.6      100441.29      1.1309701e+09  7.2629636e-05  5.174199e-07   7.2112217e-05  2.8587685e+09
    271000   2.3900592e-12  3471661.9      100447.2       1.1309686e+09  7.2629635e-05  5.1739062e-07  7.2112244e-05  2.8587688e+09
    272000   2.3988786e-12  3471664.9      100445.07      1.1309703e+09  7.2629633e-05  5.1732715e-07  7.2112306e-05  2.8587694e+09
    273000   2.407698e-12   3471659.9      100441.7       1.1309697e+09  7.262963e-05   5.1742652e-07  7.2112203e-05  2.858767e+09 
    274000   2.4165175e-12  3471657        100441.93      1.1309687e+09  7.2629629e-05  5.174861e-07   7.2112142e-05  2.8587656e+09
    275000   2.4253369e-12  3471660.8      100440.87      1.1309703e+09  7.2629627e-05  5.1740724e-07  7.211222e-05   2.858766e+09 
    276000   2.4341563e-12  3471659.3      100437.65      1.1309709e+09  7.2629631e-05  5.174413e-07   7.211219e-05   2.8587652e+09
    277000   2.4429757e-12  3471660.8      100434.85      1.1309723e+09  7.2629618e-05  5.1739776e-07  7.2112221e-05  2.8587652e+09
    278000   2.4517951e-12  3471651.6      100436.36      1.1309687e+09  7.2629623e-05  5.1759242e-07  7.211203e-05   2.858763e+09 
    279000   2.4606145e-12  3471659.4      100438.36      1.1309707e+09  7.2629619e-05  5.1742642e-07  7.2112193e-05  2.8587659e+09
    280000   2.4694339e-12  3471658.6      100437.65      1.1309706e+09  7.2629629e-05  5.1745488e-07  7.2112175e-05  2.8587662e+09
    281000   2.4782533e-12  3471656.6      100439.59      1.1309693e+09  7.2629627e-05  5.1749282e-07  7.2112134e-05  2.8587652e+09
    282000   2.4870727e-12  3471651.9      100431.48      1.1309704e+09  7.2629626e-05  5.1759043e-07  7.2112035e-05  2.8587632e+09
    283000   2.4958921e-12  3471656.1      100436.07      1.1309703e+09  7.2629623e-05  5.1749958e-07  7.2112123e-05  2.8587643e+09
    284000   2.5047115e-12  3471655.6      100437.97      1.1309695e+09  7.2629627e-05  5.1751365e-07  7.2112113e-05  2.8587642e+09
    285000   2.5135309e-12  3471656        100437.67      1.1309698e+09  7.2629619e-05  5.1749702e-07  7.2112122e-05  2.8587638e+09
    286000   2.5223503e-12  3471656.6      100438.69      1.1309696e+09  7.2629622e-05  5.1748776e-07  7.2112134e-05  2.8587645e+09
    287000   2.5311697e-12  3471656.4      100442.83      1.1309682e+09  7.262962e-05   5.174905e-07   7.211213e-05   2.8587644e+09
    288000   2.5399891e-12  3471662.4      100442.79      1.1309702e+09  7.2629616e-05  5.1736268e-07  7.2112254e-05  2.8587662e+09
    289000   2.5488086e-12  3471660        100443.6       1.1309691e+09  7.2629624e-05  5.1741978e-07  7.2112205e-05  2.8587655e+09
    290000   2.557628e-12   3471655.1      100440.32      1.1309686e+09  7.2629624e-05  5.1752072e-07  7.2112103e-05  2.8587634e+09
    291000   2.5664474e-12  3471658.4      100440.47      1.1309696e+09  7.262962e-05   5.1744771e-07  7.2112172e-05  2.8587644e+09
    292000   2.5752668e-12  3471662.5      100445.03      1.1309695e+09  7.2629621e-05  5.1736584e-07  7.2112255e-05  2.8587655e+09
    293000   2.5840862e-12  3471667.5      100449.21      1.1309698e+09  7.262963e-05   5.1726928e-07  7.2112361e-05  2.8587676e+09
    294000   2.5929056e-12  3471659.8      100447.45      1.1309678e+09  7.262962e-05   5.1741994e-07  7.21122e-05    2.8587636e+09
    295000   2.601725e-12   3471663.5      100451.22      1.1309677e+09  7.2629615e-05  5.1733786e-07  7.2112277e-05  2.8587648e+09
    296000   2.6105444e-12  3471666.9      100454.13      1.1309679e+09  7.2629621e-05  5.1727286e-07  7.2112348e-05  2.858767e+09 
    297000   2.6193638e-12  3471665.8      100457.01      1.1309666e+09  7.262962e-05   5.1729503e-07  7.2112325e-05  2.8587668e+09
    298000   2.6281832e-12  3471672.3      100459.96      1.1309678e+09  7.2629623e-05  5.1716245e-07  7.211246e-05   2.8587694e+09
    299000   2.6370026e-12  3471671.4      100458.77      1.1309679e+09  7.262962e-05   5.1717897e-07  7.2112441e-05  2.8587682e+09
    300000   2.645822e-12   3471672.4      100457.11      1.1309688e+09  7.2629618e-05  5.1715537e-07  7.2112462e-05  2.8587681e+09
    301000   2.6546414e-12  3471668.6      100459.83      1.1309666e+09  7.2629611e-05  5.1722756e-07  7.2112383e-05  2.8587662e+09
    302000   2.6634608e-12  3471669        100462.75      1.1309657e+09  7.2629612e-05  5.1722063e-07  7.2112391e-05  2.8587662e+09
    303000   2.6722802e-12  3471676.3      100465.2       1.1309674e+09  7.2629612e-05  5.1706833e-07  7.2112543e-05  2.8587683e+09
    304000   2.6810997e-12  3471675.3      100464.31      1.1309673e+09  7.2629616e-05  5.1709477e-07  7.2112521e-05  2.8587683e+09
    305000   2.6899191e-12  3471674.9      100467.12      1.1309663e+09  7.262962e-05   5.1710631e-07  7.2112514e-05  2.8587689e+09
    306000   2.6987385e-12  3471670.9      100466.39      1.1309652e+09  7.2629607e-05  5.1717593e-07  7.2112431e-05  2.858767e+09 
    307000   2.7075579e-12  3471667.4      100466.4       1.130964e+09   7.2629608e-05  5.172493e-07   7.2112358e-05  2.8587653e+09
    308000   2.7163773e-12  3471674        100466.89      1.130966e+09   7.2629612e-05  5.1711775e-07  7.2112495e-05  2.8587679e+09
    309000   2.7251967e-12  3471680.7      100468.78      1.1309676e+09  7.2629606e-05  5.1697265e-07  7.2112633e-05  2.8587697e+09
    310000   2.7340161e-12  3471678.6      100468.02      1.1309672e+09  7.2629598e-05  5.1700818e-07  7.211259e-05   2.8587681e+09
    311000   2.7428355e-12  3471672.2      100463.3       1.1309666e+09  7.2629602e-05  5.1714562e-07  7.2112457e-05  2.8587657e+09
    312000   2.7516549e-12  3471674.5      100464.46      1.130967e+09   7.2629606e-05  5.1710109e-07  7.2112505e-05  2.8587667e+09
    313000   2.7604743e-12  3471677.1      100462.65      1.1309685e+09  7.2629608e-05  5.1704792e-07  7.211256e-05   2.8587676e+09
    314000   2.7692937e-12  3471671.6      100462.73      1.1309666e+09  7.2629613e-05  5.1716875e-07  7.2112444e-05  2.8587663e+09
    315000   2.7781131e-12  3471663.8      100458.68      1.1309653e+09  7.2629602e-05  5.1731931e-07  7.2112282e-05  2.8587627e+09
    316000   2.7869325e-12  3471663.7      100456.61      1.130966e+09   7.2629602e-05  5.1732045e-07  7.2112281e-05  2.8587624e+09
    317000   2.7957519e-12  3471659.5      100460.78      1.1309632e+09  7.2629599e-05  5.1740476e-07  7.2112194e-05  2.8587602e+09
    318000   2.8045713e-12  3471670.9      100460.71      1.130967e+09   7.2629602e-05  5.1717161e-07  7.211243e-05   2.8587644e+09
    319000   2.8133908e-12  3471668.2      100461.46      1.1309659e+09  7.2629598e-05  5.1722236e-07  7.2112375e-05  2.8587631e+09
    320000   2.8222102e-12  3471663.4      100459.31      1.130965e+09   7.2629601e-05  5.1732612e-07  7.2112274e-05  2.8587624e+09
    321000   2.8310296e-12  3471666.9      100460.48      1.1309658e+09  7.2629607e-05  5.1725874e-07  7.2112348e-05  2.858765e+09 
    322000   2.839849e-12   3471669.4      100461.54      1.1309663e+09  7.2629616e-05  5.1721673e-07  7.21124e-05    2.858767e+09 
    323000   2.8486684e-12  3471674.6      100464.91      1.1309669e+09  7.2629612e-05  5.1710445e-07  7.2112507e-05  2.8587686e+09
    324000   2.8574878e-12  3471669.8      100464.09      1.1309656e+09  7.2629616e-05  5.1720839e-07  7.2112408e-05  2.8587666e+09
    325000   2.8663072e-12  3471665        100463.79      1.130964e+09   7.2629614e-05  5.1730589e-07  7.2112308e-05  2.858765e+09 
    326000   2.8751266e-12  3471665.1      100465.39      1.1309635e+09  7.2629606e-05  5.1729618e-07  7.211231e-05   2.858765e+09 
    327000   2.883946e-12   3471666.2      100460.37      1.1309656e+09  7.2629602e-05  5.1726915e-07  7.2112333e-05  2.8587653e+09
    328000   2.8927654e-12  3471661.2      100461.51      1.1309635e+09  7.2629609e-05  5.1737896e-07  7.211223e-05   2.8587645e+09
    329000   2.9015848e-12  3471655.7      100456.12      1.1309635e+09  7.2629612e-05  5.1749773e-07  7.2112115e-05  2.858763e+09 
    330000   2.9104042e-12  3471667.3      100455.1       1.1309677e+09  7.262962e-05   5.1726472e-07  7.2112356e-05  2.8587674e+09
    331000   2.9192236e-12  3471658.1      100456.43      1.1309642e+09  7.2629624e-05  5.1745885e-07  7.2112165e-05  2.8587639e+09
    332000   2.928043e-12   3471664.8      100456.59      1.1309664e+09  7.2629617e-05  5.1731318e-07  7.2112304e-05  2.858766e+09 
    333000   2.9368625e-12  3471662.2      100457.44      1.1309652e+09  7.2629616e-05  5.1736723e-07  7.2112249e-05  2.8587651e+09
    334000   2.9456819e-12  3471657.2      100455.62      1.1309642e+09  7.2629619e-05  5.1747186e-07  7.2112147e-05  2.8587632e+09
    335000   2.9545013e-12  3471654.3      100453.02      1.1309641e+09  7.262962e-05   5.1753383e-07  7.2112086e-05  2.8587628e+09
    336000   2.9633207e-12  3471666.7      100457.72      1.1309666e+09  7.2629623e-05  5.1727956e-07  7.2112344e-05  2.8587683e+09
    337000   2.9721401e-12  3471664.9      100461.63      1.1309647e+09  7.2629629e-05  5.173232e-07   7.2112306e-05  2.8587685e+09
    338000   2.9809595e-12  3471658.5      100458.12      1.1309637e+09  7.2629636e-05  5.174635e-07   7.2112172e-05  2.8587668e+09
    339000   2.9897789e-12  3471665.3      100463.81      1.1309641e+09  7.2629637e-05  5.1732282e-07  7.2112315e-05  2.8587695e+09
    340000   2.9985983e-12  3471660.8      100459.44      1.1309641e+09  7.2629631e-05  5.1741004e-07  7.2112221e-05  2.8587671e+09
    341000   3.0074177e-12  3471657.5      100456.52      1.1309639e+09  7.2629628e-05  5.1747642e-07  7.2112152e-05  2.8587656e+09
    342000   3.0162371e-12  3471655.7      100451.77      1.130965e+09   7.2629623e-05  5.1750699e-07  7.2112116e-05  2.8587642e+09
    343000   3.0250565e-12  3471652.9      100447.1       1.1309656e+09  7.2629631e-05  5.1757494e-07  7.2112056e-05  2.8587639e+09
    344000   3.0338759e-12  3471646.9      100445.65      1.130964e+09   7.2629631e-05  5.1769905e-07  7.2111932e-05  2.8587626e+09
    345000   3.0426953e-12  3471638.8      100443.33      1.1309621e+09  7.2629624e-05  5.1785964e-07  7.2111764e-05  2.8587594e+09
    346000   3.0515147e-12  3471650        100448.14      1.1309643e+09  7.262963e-05   5.1763258e-07  7.2111997e-05  2.8587638e+09
    347000   3.0603341e-12  3471654.7      100451.46      1.1309647e+09  7.262962e-05   5.17526e-07    7.2112094e-05  2.8587644e+09
    348000   3.0691536e-12  3471654.5      100453.93      1.1309638e+09  7.2629618e-05  5.1752821e-07  7.2112089e-05  2.8587637e+09
    349000   3.077973e-12   3471663.1      100465.4       1.1309629e+09  7.2629618e-05  5.1734973e-07  7.2112269e-05  2.8587673e+09
    350000   3.0867924e-12  3471657.2      100464.19      1.1309613e+09  7.2629621e-05  5.1747404e-07  7.2112147e-05  2.8587653e+09
    351000   3.0956118e-12  3471662        100468.81      1.1309614e+09  7.2629625e-05  5.1737948e-07  7.2112245e-05  2.8587677e+09
    352000   3.1044312e-12  3471666.2      100469.27      1.1309626e+09  7.262962e-05   5.172881e-07   7.2112332e-05  2.8587691e+09
    353000   3.1132506e-12  3471666        100468.51      1.1309628e+09  7.262962e-05   5.1729214e-07  7.2112328e-05  2.8587687e+09
    354000   3.12207e-12    3471662.6      100469.19      1.1309614e+09  7.2629615e-05  5.1735713e-07  7.2112258e-05  2.8587666e+09
    355000   3.1308894e-12  3471666.3      100468.71      1.1309628e+09  7.2629614e-05  5.1727988e-07  7.2112334e-05  2.8587678e+09
    356000   3.1397088e-12  3471665.6      100469.82      1.1309622e+09  7.2629607e-05  5.1728642e-07  7.211232e-05   2.8587669e+09
    357000   3.1485282e-12  3471662.2      100471.45      1.1309605e+09  7.2629615e-05  5.1736501e-07  7.211225e-05   2.8587659e+09
    358000   3.1573476e-12  3471668.7      100469.11      1.1309635e+09  7.2629611e-05  5.1722582e-07  7.2112385e-05  2.8587678e+09
    359000   3.166167e-12   3471667.3      100470.2       1.1309627e+09  7.2629613e-05  5.1725719e-07  7.2112356e-05  2.8587675e+09
    360000   3.1749864e-12  3471665.9      100471.28      1.1309618e+09  7.262961e-05   5.1728401e-07  7.2112326e-05  2.8587666e+09
    361000   3.1838058e-12  3471665.5      100465.9       1.1309635e+09  7.2629614e-05  5.172946e-07   7.2112319e-05  2.8587666e+09
    362000   3.1926252e-12  3471662.3      100470.18      1.130961e+09   7.2629608e-05  5.1735667e-07  7.2112251e-05  2.858765e+09 
    363000   3.2014447e-12  3471660.7      100464.81      1.1309623e+09  7.2629615e-05  5.1739595e-07  7.2112219e-05  2.8587645e+09
    364000   3.2102641e-12  3471658.5      100459.5       1.1309633e+09  7.2629607e-05  5.1743421e-07  7.2112173e-05  2.8587627e+09
    365000   3.2190835e-12  3471649.6      100456.69      1.1309613e+09  7.2629617e-05  5.176285e-07   7.2111989e-05  2.8587608e+09
    366000   3.2279029e-12  3471652.1      100458.55      1.1309615e+09  7.262962e-05   5.175796e-07   7.2112041e-05  2.8587621e+09
    367000   3.2367223e-12  3471661.9      100465.92      1.1309623e+09  7.2629626e-05  5.173814e-07   7.2112245e-05  2.8587669e+09
    368000   3.2455417e-12  3471658        100466.81      1.1309607e+09  7.2629627e-05  5.1746333e-07  7.2112164e-05  2.8587657e+09
    369000   3.2543611e-12  3471664        100468.48      1.1309622e+09  7.262963e-05   5.1734183e-07  7.2112288e-05  2.8587682e+09
    370000   3.2631805e-12  3471661.7      100471.19      1.1309605e+09  7.262963e-05   5.1739128e-07  7.2112239e-05  2.8587673e+09
    371000   3.2719999e-12  3471665.3      100473.67      1.1309608e+09  7.2629627e-05  5.173131e-07   7.2112314e-05  2.8587685e+09
    372000   3.2808193e-12  3471664.9      100472.48      1.1309611e+09  7.2629627e-05  5.1732029e-07  7.2112306e-05  2.8587683e+09
    373000   3.2896387e-12  3471660.3      100466.26      1.1309617e+09  7.2629631e-05  5.1741952e-07  7.2112211e-05  2.8587661e+09
    374000   3.2984581e-12  3471667.6      100473.06      1.1309618e+09  7.2629628e-05  5.1726475e-07  7.2112363e-05  2.8587683e+09
    375000   3.3072775e-12  3471667.5      100470.12      1.1309628e+09  7.2629613e-05  5.1725418e-07  7.2112359e-05  2.858767e+09 
    376000   3.3160969e-12  3471655.4      100467.8       1.1309595e+09  7.2629616e-05  5.1750691e-07  7.2112109e-05  2.8587627e+09
    377000   3.3249163e-12  3471661.1      100469.62      1.1309608e+09  7.2629625e-05  5.1739719e-07  7.2112228e-05  2.8587659e+09
    378000   3.3337358e-12  3471655.9      100469.43      1.1309591e+09  7.2629628e-05  5.1750771e-07  7.211212e-05   2.8587648e+09
    379000   3.3425552e-12  3471648        100469.33      1.1309565e+09  7.2629628e-05  5.176731e-07   7.2111954e-05  2.8587621e+09
    380000   3.3513746e-12  3471662.8      100469.7       1.1309613e+09  7.2629625e-05  5.1736195e-07  7.2112263e-05  2.8587671e+09
    381000   3.360194e-12   3471656.8      100468.53      1.1309597e+09  7.2629626e-05  5.1748762e-07  7.2112138e-05  2.8587647e+09
    382000   3.3690134e-12  3471652.1      100467.94      1.1309583e+09  7.2629625e-05  5.1758514e-07  7.211204e-05   2.8587636e+09
    383000   3.3778328e-12  3471650.7      100467.32      1.1309581e+09  7.2629634e-05  5.1762221e-07  7.2112011e-05  2.8587636e+09
    384000   3.3866522e-12  3471655.2      100466.51      1.1309598e+09  7.262963e-05   5.1752674e-07  7.2112104e-05  2.8587644e+09
    385000   3.3954716e-12  3471649.2      100463.8       1.1309588e+09  7.2629635e-05  5.1765397e-07  7.2111981e-05  2.8587624e+09
    386000   3.404291e-12   3471650.7      100465.17      1.1309588e+09  7.2629631e-05  5.1761979e-07  7.2112011e-05  2.8587629e+09
    387000   3.4131104e-12  3471652.8      100466.57      1.130959e+09   7.2629631e-05  5.1757605e-07  7.2112055e-05  2.858764e+09 
    388000   3.4219298e-12  3471651.9      100466.98      1.1309586e+09  7.2629634e-05  5.1759802e-07  7.2112036e-05  2.8587638e+09
    389000   3.4307492e-12  3471647.4      100466.98      1.1309571e+09  7.2629627e-05  5.1768456e-07  7.2111943e-05  2.8587612e+09
    390000   3.4395686e-12  3471655.2      100468.84      1.1309591e+09  7.2629623e-05  5.1751927e-07  7.2112104e-05  2.8587631e+09
    391000   3.448388e-12   3471664.6      100471.94      1.1309612e+09  7.2629622e-05  5.1732173e-07  7.2112301e-05  2.8587668e+09
    392000   3.4572074e-12  3471659.8      100474.46      1.1309587e+09  7.2629627e-05  5.1742834e-07  7.2112199e-05  2.8587657e+09
    393000   3.4660269e-12  3471663        100476.38      1.1309592e+09  7.2629624e-05  5.1735729e-07  7.2112267e-05  2.8587671e+09
    394000   3.4748463e-12  3471657.7      100480.61      1.130956e+09   7.2629637e-05  5.1748038e-07  7.2112157e-05  2.8587664e+09
    395000   3.4836657e-12  3471670.9      100484.56      1.1309591e+09  7.2629636e-05  5.172048e-07   7.2112432e-05  2.8587713e+09
    396000   3.4924851e-12  3471669.5      100481.85      1.1309595e+09  7.2629641e-05  5.1724024e-07  7.2112401e-05  2.8587709e+09
    397000   3.5013045e-12  3471665.2      100482.74      1.1309578e+09  7.2629641e-05  5.1732793e-07  7.2112313e-05  2.8587699e+09
    398000   3.5101239e-12  3471659.1      100479.72      1.1309567e+09  7.2629642e-05  5.1745586e-07  7.2112186e-05  2.858768e+09 
    399000   3.5189433e-12  3471654.5      100478.03      1.1309557e+09  7.2629645e-05  5.1755598e-07  7.2112089e-05  2.8587667e+09
    400000   3.5277627e-12  3471659.8      100479.99      1.1309569e+09  7.2629647e-05  5.1744749e-07  7.2112199e-05  2.8587685e+09
    401000   3.5365821e-12  3471658.1      100478.88      1.1309567e+09  7.2629654e-05  5.1749007e-07  7.2112164e-05  2.8587678e+09
    402000   3.5454015e-12  3471661.8      100483.36      1.1309564e+09  7.2629643e-05  5.1740045e-07  7.2112242e-05  2.8587686e+09
    403000   3.5542209e-12  3471650.9      100477.93      1.1309546e+09  7.2629644e-05  5.176294e-07   7.2112015e-05  2.8587648e+09
    404000   3.5630403e-12  3471656.2      100480.61      1.1309555e+09  7.262964e-05   5.1751461e-07  7.2112125e-05  2.8587665e+09
    405000   3.5718597e-12  3471659.3      100477.37      1.1309576e+09  7.2629643e-05  5.1745293e-07  7.211219e-05   2.8587673e+09
    406000   3.5806791e-12  3471652.1      100470.9       1.1309573e+09  7.2629639e-05  5.1759989e-07  7.2112039e-05  2.8587641e+09
    407000   3.5894986e-12  3471636.2      100465.84      1.1309537e+09  7.2629633e-05  5.1792245e-07  7.2111711e-05  2.8587583e+09
    408000   3.598318e-12   3471645.7      100470.21      1.1309554e+09  7.2629635e-05  5.1772758e-07  7.2111908e-05  2.8587621e+09
    409000   3.6071374e-12  3471649.9      100469.5       1.1309571e+09  7.2629629e-05  5.1763344e-07  7.2111995e-05  2.8587617e+09
    410000   3.6159568e-12  3471658        100474.16      1.1309582e+09  7.2629629e-05  5.1746526e-07  7.2112163e-05  2.858764e+09 
    411000   3.6247762e-12  3471651.7      100471.83      1.1309569e+09  7.2629627e-05  5.1759528e-07  7.2112031e-05  2.8587616e+09
    412000   3.6335956e-12  3471654.4      100473.27      1.1309573e+09  7.2629624e-05  5.1753588e-07  7.2112088e-05  2.8587627e+09
    413000   3.642415e-12   3471658.2      100476.66      1.1309575e+09  7.2629631e-05  5.1746487e-07  7.2112167e-05  2.8587648e+09
    414000   3.6512344e-12  3471656.8      100477.29      1.1309568e+09  7.2629636e-05  5.1749812e-07  7.2112138e-05  2.8587649e+09
    415000   3.6600538e-12  3471657.4      100479.52      1.1309562e+09  7.2629642e-05  5.1749167e-07  7.211215e-05   2.8587658e+09
    416000   3.6688732e-12  3471656        100479.48      1.1309558e+09  7.262964e-05   5.175191e-07   7.2112121e-05  2.8587653e+09
    417000   3.6776926e-12  3471660.7      100481.29      1.1309567e+09  7.2629643e-05  5.1742438e-07  7.2112218e-05  2.8587674e+09
    418000   3.686512e-12   3471659        100482.81      1.1309557e+09  7.2629647e-05  5.174645e-07   7.2112182e-05  2.858767e+09 
    419000   3.6953314e-12  3471663.1      100481.7       1.1309574e+09  7.2629649e-05  5.1738103e-07  7.2112268e-05  2.8587689e+09
    420000   3.7041508e-12  3471655.9      100481.44      1.1309551e+09  7.2629653e-05  5.1753333e-07  7.211212e-05   2.8587672e+09
    421000   3.7129702e-12  3471656.5      100480.21      1.1309557e+09  7.2629653e-05  5.1752173e-07  7.2112131e-05  2.8587679e+09
    422000   3.7217897e-12  3471654.7      100478.46      1.1309557e+09  7.2629654e-05  5.1756e-07     7.2112094e-05  2.8587674e+09
    423000   3.7306091e-12  3471655.6      100479.14      1.1309558e+09  7.262966e-05   5.1754667e-07  7.2112114e-05  2.8587686e+09
    424000   3.7394285e-12  3471649.6      100474.93      1.1309552e+09  7.2629658e-05  5.1766881e-07  7.2111989e-05  2.8587664e+09
    425000   3.7482479e-12  3471647.1      100469.16      1.1309562e+09  7.262965e-05   5.1771461e-07  7.2111935e-05  2.8587647e+09
    426000   3.7570673e-12  3471645        100471.62      1.1309547e+09  7.2629652e-05  5.1775931e-07  7.2111892e-05  2.8587643e+09
    427000   3.7658867e-12  3471653.5      100474.75      1.1309565e+09  7.2629647e-05  5.17577e-07    7.211207e-05   2.8587676e+09
    428000   3.7747061e-12  3471646.5      100473.91      1.1309544e+09  7.2629649e-05  5.177263e-07   7.2111923e-05  2.8587648e+09
    429000   3.7835255e-12  3471657.1      100478.67      1.1309564e+09  7.2629644e-05  5.174994e-07   7.2112144e-05  2.8587682e+09
    430000   3.7923449e-12  3471655.9      100479.61      1.1309557e+09  7.262964e-05   5.1752096e-07  7.2112119e-05  2.8587679e+09
    431000   3.8011643e-12  3471647.4      100478.12      1.1309533e+09  7.262965e-05   5.177086e-07   7.2111942e-05  2.8587661e+09
    432000   3.8099837e-12  3471645.6      100474.49      1.130954e+09   7.262965e-05   5.1774437e-07  7.2111906e-05  2.8587655e+09
    433000   3.8188031e-12  3471642.1      100471.57      1.1309538e+09  7.2629648e-05  5.1781465e-07  7.2111833e-05  2.8587639e+09
    434000   3.8276225e-12  3471645.6      100475.61      1.1309536e+09  7.262964e-05   5.1773561e-07  7.2111904e-05  2.8587645e+09
    435000   3.8364419e-12  3471650.3      100478.12      1.1309543e+09  7.2629636e-05  5.1763316e-07  7.2112002e-05  2.8587659e+09
    436000   3.8452613e-12  3471647.2      100474.31      1.1309546e+09  7.2629639e-05  5.1770018e-07  7.2111939e-05  2.8587646e+09
    437000   3.8540808e-12  3471646.4      100477.67      1.1309532e+09  7.2629634e-05  5.1771226e-07  7.2111922e-05  2.8587638e+09
    438000   3.8629002e-12  3471653.8      100478.57      1.1309553e+09  7.2629627e-05  5.1755136e-07  7.2112075e-05  2.8587662e+09
    439000   3.8717196e-12  3471647.1      100479.12      1.1309529e+09  7.2629632e-05  5.1769677e-07  7.2111935e-05  2.8587642e+09
    440000   3.880539e-12   3471655.8      100485         1.1309539e+09  7.2629635e-05  5.1751784e-07  7.2112117e-05  2.8587675e+09
    441000   3.8893584e-12  3471649.3      100487.27      1.1309509e+09  7.2629633e-05  5.1765161e-07  7.2111981e-05  2.8587654e+09
    442000   3.8981778e-12  3471642.5      100483.31      1.13095e+09    7.2629643e-05  5.1780204e-07  7.2111841e-05  2.8587644e+09
    443000   3.9069972e-12  3471636.9      100479.41      1.1309494e+09  7.262965e-05   5.1792567e-07  7.2111725e-05  2.8587632e+09
    444000   3.9158166e-12  3471639.4      100483.22      1.130949e+09   7.2629645e-05  5.1786831e-07  7.2111776e-05  2.8587641e+09
    445000   3.924636e-12   3471639.7      100483.18      1.1309491e+09  7.2629652e-05  5.1787014e-07  7.2111782e-05  2.8587648e+09
    446000   3.9334554e-12  3471641.2      100480.72      1.1309504e+09  7.2629651e-05  5.1783743e-07  7.2111814e-05  2.8587652e+09
    447000   3.9422748e-12  3471639.1      100484.82      1.1309483e+09  7.2629647e-05  5.1787645e-07  7.2111771e-05  2.8587635e+09
    448000   3.9510942e-12  3471652.5      100487.78      1.1309518e+09  7.2629644e-05  5.1759641e-07  7.2112048e-05  2.8587679e+09
    449000   3.9599136e-12  3471652.4      100491.95      1.1309504e+09  7.2629635e-05  5.1758907e-07  7.2112046e-05  2.8587671e+09
    450000   3.968733e-12   3471648.2      100489.63      1.1309498e+09  7.2629631e-05  5.1767214e-07  7.2111959e-05  2.8587655e+09
    451000   3.9775524e-12  3471648.3      100491.94      1.130949e+09   7.2629634e-05  5.1767335e-07  7.2111961e-05  2.858766e+09 
    452000   3.9863719e-12  3471653.2      100491.66      1.1309507e+09  7.262963e-05   5.1756841e-07  7.2112062e-05  2.8587671e+09
    453000   3.9951913e-12  3471654.4      100487.14      1.1309527e+09  7.2629632e-05  5.1754435e-07  7.2112088e-05  2.8587675e+09
    454000   4.0040107e-12  3471644.9      100486.99      1.1309495e+09  7.2629633e-05  5.17743e-07    7.211189e-05   2.8587642e+09
    455000   4.0128301e-12  3471648.9      100485.63      1.1309513e+09  7.2629638e-05  5.1766401e-07  7.2111974e-05  2.8587655e+09
    456000   4.0216495e-12  3471652.5      100489.62      1.1309512e+09  7.262963e-05   5.1758206e-07  7.2112048e-05  2.8587656e+09
    457000   4.0304689e-12  3471643        100483.06      1.1309502e+09  7.262963e-05   5.177788e-07   7.2111851e-05  2.8587615e+09
    458000   4.0392883e-12  3471646.9      100485.67      1.1309507e+09  7.2629626e-05  5.1769371e-07  7.2111932e-05  2.8587633e+09
    459000   4.0481077e-12  3471648.5      100485.47      1.1309513e+09  7.2629637e-05  5.176716e-07   7.2111966e-05  2.8587654e+09
    460000   4.0569271e-12  3471646.6      100485.96      1.1309504e+09  7.2629627e-05  5.1770251e-07  7.2111925e-05  2.8587639e+09
    461000   4.0657465e-12  3471644.1      100486.1       1.1309496e+09  7.2629635e-05  5.1776012e-07  7.2111875e-05  2.8587637e+09
    462000   4.0745659e-12  3471648.3      100488.31      1.1309503e+09  7.2629635e-05  5.176729e-07   7.2111962e-05  2.858765e+09 
    463000   4.0833853e-12  3471652.7      100490.79      1.1309509e+09  7.2629623e-05  5.1757032e-07  7.2112053e-05  2.8587655e+09
    464000   4.0922047e-12  3471656.5      100496.16      1.1309504e+09  7.2629625e-05  5.1749406e-07  7.2112131e-05  2.8587668e+09
    465000   4.1010241e-12  3471648.8      100493.04      1.1309488e+09  7.2629628e-05  5.176558e-07   7.2111972e-05  2.8587644e+09
    466000   4.1098435e-12  3471653.4      100497.29      1.130949e+09   7.2629627e-05  5.1755959e-07  7.2112068e-05  2.8587667e+09
    467000   4.118663e-12   3471649.9      100496.36      1.1309481e+09  7.2629632e-05  5.1763655e-07  7.2111995e-05  2.858766e+09 
    468000   4.1274824e-12  3471653.8      100494.02      1.1309502e+09  7.2629626e-05  5.1755003e-07  7.2112076e-05  2.8587663e+09
    469000   4.1363018e-12  3471652.9      100498.63      1.1309483e+09  7.262963e-05   5.1757349e-07  7.2112056e-05  2.8587662e+09
    470000   4.1451212e-12  3471652.7      100498.97      1.1309481e+09  7.262963e-05   5.1757747e-07  7.2112052e-05  2.8587662e+09
    471000   4.1539406e-12  3471647.8      100496.14      1.1309475e+09  7.2629637e-05  5.1768547e-07  7.2111951e-05  2.8587643e+09
    472000   4.16276e-12    3471655        100494.01      1.1309506e+09  7.2629635e-05  5.1753401e-07  7.2112101e-05  2.8587667e+09
    473000   4.1715794e-12  3471645.2      100492.4       1.1309478e+09  7.2629637e-05  5.1774112e-07  7.2111896e-05  2.8587635e+09
    474000   4.1803988e-12  3471638.7      100489.51      1.1309466e+09  7.2629641e-05  5.1787864e-07  7.2111762e-05  2.8587613e+09
    475000   4.1892182e-12  3471654.4      100491.94      1.1309511e+09  7.2629642e-05  5.1755428e-07  7.2112088e-05  2.8587661e+09
    476000   4.1980376e-12  3471655.6      100493.37      1.130951e+09   7.2629633e-05  5.1752125e-07  7.2112112e-05  2.8587654e+09
    477000   4.206857e-12   3471655.4      100498.22      1.1309493e+09  7.2629632e-05  5.1752265e-07  7.2112109e-05  2.8587662e+09
    478000   4.2156764e-12  3471653.9      100505.5       1.1309464e+09  7.262963e-05   5.1755199e-07  7.2112078e-05  2.8587661e+09
    479000   4.2244958e-12  3471658.7      100504.82      1.1309482e+09  7.2629632e-05  5.1745552e-07  7.2112177e-05  2.8587681e+09
    480000   4.2333152e-12  3471654.8      100501.98      1.1309478e+09  7.2629638e-05  5.1754264e-07  7.2112096e-05  2.8587669e+09
    481000   4.2421347e-12  3471654.4      100501.18      1.130948e+09   7.2629639e-05  5.1755174e-07  7.2112088e-05  2.8587665e+09
    482000   4.2509541e-12  3471653.4      100502.02      1.1309474e+09  7.2629638e-05  5.1757079e-07  7.2112067e-05  2.8587661e+09
    483000   4.2597735e-12  3471649.2      100497.6       1.1309474e+09  7.2629639e-05  5.1765887e-07  7.211198e-05   2.8587647e+09
    484000   4.2685929e-12  3471652        100498.57      1.1309481e+09  7.2629641e-05  5.1760228e-07  7.2112039e-05  2.8587663e+09
    485000   4.2774123e-12  3471652.4      100501.86      1.1309471e+09  7.2629642e-05  5.1759557e-07  7.2112046e-05  2.8587663e+09
    486000   4.2862317e-12  3471660.9      100504.61      1.130949e+09   7.262965e-05   5.1742597e-07  7.2112224e-05  2.8587696e+09
    487000   4.2950511e-12  3471667.1      100507.43      1.1309501e+09  7.2629642e-05  5.1729091e-07  7.2112351e-05  2.858771e+09 
    488000   4.3038705e-12  3471663.3      100509.62      1.1309482e+09  7.2629637e-05  5.1736412e-07  7.2112273e-05  2.8587693e+09
    489000   4.3126899e-12  3471662.8      100505.1       1.1309495e+09  7.2629638e-05  5.1737673e-07  7.2112261e-05  2.858769e+09 
    490000   4.3215093e-12  3471674.6      100509.14      1.1309521e+09  7.262964e-05   5.171334e-07   7.2112506e-05  2.8587733e+09
    491000   4.3303287e-12  3471659.6      100507.37      1.1309477e+09  7.2629637e-05  5.174412e-07   7.2112196e-05  2.8587676e+09
    492000   4.3391481e-12  3471660.2      100504.01      1.130949e+09   7.2629631e-05  5.1742211e-07  7.2112209e-05  2.8587668e+09
    493000   4.3479675e-12  3471664.1      100499.48      1.1309518e+09  7.2629629e-05  5.1734016e-07  7.2112289e-05  2.8587677e+09
    494000   4.3567869e-12  3471652.7      100498.65      1.1309483e+09  7.2629636e-05  5.1758187e-07  7.2112054e-05  2.8587643e+09
    495000   4.3656063e-12  3471657.7      100499.04      1.1309498e+09  7.2629635e-05  5.1747793e-07  7.2112157e-05  2.8587668e+09
    496000   4.3744258e-12  3471645.7      100497.87      1.1309462e+09  7.2629635e-05  5.1772773e-07  7.2111907e-05  2.858763e+09 
    497000   4.3832452e-12  3471650.3      100498.48      1.1309475e+09  7.262964e-05   5.1763704e-07  7.2112003e-05  2.8587653e+09
    498000   4.3920646e-12  3471651.8      100498.76      1.1309479e+09  7.262964e-05   5.1760638e-07  7.2112033e-05  2.8587656e+09
    499000   4.400884e-12   3471645.8      100497.32      1.1309464e+09  7.2629634e-05  5.1772417e-07  7.211191e-05   2.858763e+09 
    500000   4.4097034e-12  3471651.2      100504.3       1.1309459e+09  7.2629637e-05  5.1761447e-07  7.2112022e-05  2.8587667e+09
    501000   4.4185228e-12  3471650.7      100504.97      1.1309455e+09  7.2629642e-05  5.1763183e-07  7.2112011e-05  2.8587678e+09
    502000   4.4273422e-12  3471656.8      100506.06      1.1309472e+09  7.2629638e-05  5.1750089e-07  7.2112137e-05  2.8587693e+09
    503000   4.4361616e-12  3471661.4      100508.82      1.1309478e+09  7.2629637e-05  5.1740421e-07  7.2112233e-05  2.8587702e+09
    504000   4.444981e-12   3471662.3      100507.55      1.1309485e+09  7.2629635e-05  5.1738396e-07  7.2112251e-05  2.8587695e+09
    505000   4.4538004e-12  3471663.8      100508.91      1.1309486e+09  7.2629632e-05  5.173479e-07   7.2112284e-05  2.8587697e+09
    506000   4.4626198e-12  3471655.7      100507.21      1.1309464e+09  7.2629635e-05  5.1752045e-07  7.2112114e-05  2.8587671e+09
    507000   4.4714392e-12  3471660.9      100511.01      1.1309469e+09  7.262963e-05   5.1740754e-07  7.2112222e-05  2.858769e+09 
    508000   4.4802586e-12  3471653.8      100511.22      1.1309444e+09  7.2629637e-05  5.1756052e-07  7.2112076e-05  2.8587677e+09
    509000   4.489078e-12   3471650.8      100511.67      1.1309433e+09  7.2629635e-05  5.1762091e-07  7.2112014e-05  2.8587666e+09
    510000   4.4978974e-12  3471654.6      100513.42      1.130944e+09   7.2629642e-05  5.1754972e-07  7.2112092e-05  2.8587692e+09
    511000   4.5067169e-12  3471657.3      100513.44      1.1309449e+09  7.2629644e-05  5.1749522e-07  7.2112148e-05  2.8587705e+09
    512000   4.5155363e-12  3471663.6      100513.63      1.1309469e+09  7.2629643e-05  5.1736478e-07  7.2112279e-05  2.8587723e+09
    513000   4.5243557e-12  3471661.3      100515.46      1.1309455e+09  7.2629639e-05  5.1740749e-07  7.2112231e-05  2.8587708e+09
    514000   4.5331751e-12  3471659.6      100511.93      1.1309461e+09  7.2629637e-05  5.1744065e-07  7.2112196e-05  2.8587699e+09
    515000   4.5419945e-12  3471659.3      100509.78      1.1309468e+09  7.2629646e-05  5.1745617e-07  7.211219e-05   2.8587712e+09
    516000   4.5508139e-12  3471662.5      100508.22      1.1309483e+09  7.2629654e-05  5.1739849e-07  7.2112256e-05  2.8587736e+09
    517000   4.5596333e-12  3471654.9      100508.58      1.1309457e+09  7.2629657e-05  5.1755889e-07  7.2112099e-05  2.858771e+09 
    518000   4.5684527e-12  3471646.4      100503.61      1.1309445e+09  7.2629649e-05  5.1772713e-07  7.2111921e-05  2.8587666e+09
    519000   4.5772721e-12  3471646.7      100504.86      1.1309442e+09  7.2629644e-05  5.1771662e-07  7.2111927e-05  2.8587661e+09
    520000   4.5860915e-12  3471644.4      100499.42      1.1309452e+09  7.2629651e-05  5.1777169e-07  7.2111879e-05  2.8587654e+09
    521000   4.5949109e-12  3471643.5      100498.26      1.1309453e+09  7.262965e-05   5.1778839e-07  7.2111861e-05  2.858765e+09 
    522000   4.6037303e-12  3471647.7      100502.4       1.1309453e+09  7.2629653e-05  5.1770512e-07  7.2111948e-05  2.8587671e+09
    523000   4.6125497e-12  3471648.2      100503.13      1.1309452e+09  7.2629656e-05  5.1769766e-07  7.2111959e-05  2.8587674e+09
    524000   4.6213691e-12  3471649        100505.4       1.1309448e+09  7.2629659e-05  5.176833e-07   7.2111975e-05  2.8587672e+09
    525000   4.6301885e-12  3471654.7      100511.78      1.1309446e+09  7.2629659e-05  5.1756369e-07  7.2112095e-05  2.8587689e+09
    526000   4.639008e-12   3471664.5      100517.41      1.1309459e+09  7.2629657e-05  5.1735917e-07  7.2112297e-05  2.8587725e+09
    527000   4.6478274e-12  3471667        100519.93      1.1309459e+09  7.2629656e-05  5.1730658e-07  7.2112349e-05  2.8587733e+09
    528000   4.6566468e-12  3471663.1      100519.44      1.1309448e+09  7.2629648e-05  5.1737962e-07  7.2112269e-05  2.8587714e+09
    529000   4.6654662e-12  3471653.9      100511.67      1.1309443e+09  7.2629651e-05  5.1757318e-07  7.2112078e-05  2.8587681e+09
    530000   4.6742856e-12  3471661.3      100515.23      1.1309456e+09  7.2629655e-05  5.1742396e-07  7.2112231e-05  2.8587713e+09
    531000   4.683105e-12   3471661.3      100518.26      1.1309446e+09  7.2629664e-05  5.1743271e-07  7.2112231e-05  2.8587721e+09
    532000   4.6919244e-12  3471670.5      100526.28      1.130945e+09   7.2629663e-05  5.1724088e-07  7.2112422e-05  2.8587766e+09
    533000   4.7007438e-12  3471664.2      100521.88      1.1309444e+09  7.2629665e-05  5.1737272e-07  7.2112292e-05  2.8587751e+09
    534000   4.7095632e-12  3471656.1      100519.13      1.1309425e+09  7.2629661e-05  5.1753795e-07  7.2112123e-05  2.8587713e+09
    535000   4.7183826e-12  3471661.1      100519.49      1.1309441e+09  7.2629664e-05  5.1743657e-07  7.2112227e-05  2.8587727e+09
    536000   4.727202e-12   3471662.5      100523.85      1.1309431e+09  7.2629665e-05  5.1740958e-07  7.2112255e-05  2.858773e+09 
    537000   4.7360214e-12  3471666        100527.34      1.1309431e+09  7.2629668e-05  5.173384e-07   7.211233e-05   2.8587755e+09
    538000   4.7448408e-12  3471664.9      100526.97      1.1309429e+09  7.2629662e-05  5.1735715e-07  7.2112305e-05  2.8587753e+09
    539000   4.7536602e-12  3471655.5      100520.12      1.130942e+09   7.2629658e-05  5.1754654e-07  7.2112112e-05  2.8587717e+09
    540000   4.7624796e-12  3471649.2      100519.04      1.1309403e+09  7.2629665e-05  5.1768524e-07  7.2111979e-05  2.8587697e+09
    541000   4.7712991e-12  3471653.4      100520.94      1.1309411e+09  7.2629655e-05  5.1758697e-07  7.2112068e-05  2.8587705e+09
    542000   4.7801185e-12  3471652.3      100515.75      1.1309424e+09  7.2629639e-05  5.1759587e-07  7.2112043e-05  2.8587684e+09
    543000   4.7889379e-12  3471644.4      100510.71      1.1309414e+09  7.2629648e-05  5.1776812e-07  7.211188e-05   2.8587659e+09
    544000   4.7977573e-12  3471648.1      100507.12      1.1309439e+09  7.2629645e-05  5.1768756e-07  7.2111958e-05  2.8587665e+09
    545000   4.8065767e-12  3471643.3      100505         1.130943e+09   7.2629648e-05  5.1779088e-07  7.2111858e-05  2.8587649e+09
    546000   4.8153961e-12  3471633.8      100500.72      1.1309412e+09  7.2629657e-05  5.1799729e-07  7.2111659e-05  2.858762e+09 
    547000   4.8242155e-12  3471636.9      100497.83      1.1309432e+09  7.2629654e-05  5.1792883e-07  7.2111725e-05  2.8587629e+09
    548000   4.8330349e-12  3471640.2      100500.01      1.1309436e+09  7.2629655e-05  5.1786117e-07  7.2111794e-05  2.8587643e+09
    549000   4.8418543e-12  3471643.8      100505.06      1.1309431e+09  7.262965e-05   5.1778267e-07  7.2111867e-05  2.8587655e+09
    550000   4.8506737e-12  3471643.4      100510.27      1.1309412e+09  7.2629657e-05  5.1779799e-07  7.2111859e-05  2.8587659e+09
    551000   4.8594931e-12  3471640.8      100507.43      1.1309413e+09  7.2629652e-05  5.1784688e-07  7.2111806e-05  2.8587643e+09
    552000   4.8683125e-12  3471641        100508.04      1.1309412e+09  7.2629645e-05  5.1783507e-07  7.211181e-05   2.8587639e+09
    553000   4.8771319e-12  3471640.3      100509.17      1.1309406e+09  7.262965e-05   5.1785547e-07  7.2111794e-05  2.8587639e+09
    554000   4.8859513e-12  3471641.8      100512.01      1.1309401e+09  7.262965e-05   5.1782349e-07  7.2111827e-05  2.8587639e+09
    555000   4.8947708e-12  3471647.5      100513.24      1.1309416e+09  7.2629652e-05  5.1770703e-07  7.2111944e-05  2.8587654e+09
    556000   4.9035902e-12  3471648.8      100516.79      1.1309409e+09  7.2629651e-05  5.1767962e-07  7.2111971e-05  2.8587655e+09
    557000   4.9124096e-12  3471648        100516.93      1.1309406e+09  7.2629635e-05  5.1767998e-07  7.2111955e-05  2.8587642e+09
    558000   4.921229e-12   3471646.7      100515.52      1.1309406e+09  7.2629642e-05  5.1771461e-07  7.2111928e-05  2.8587646e+09
    559000   4.9300484e-12  3471641.3      100510.92      1.1309403e+09  7.262965e-05   5.1783461e-07  7.2111816e-05  2.8587631e+09
    560000   4.9388678e-12  3471643.3      100515.72      1.1309394e+09  7.2629646e-05  5.1778806e-07  7.2111858e-05  2.8587634e+09
    561000   4.9476872e-12  3471645.3      100514.33      1.1309405e+09  7.2629644e-05  5.1774532e-07  7.2111899e-05  2.8587637e+09
    562000   4.9565066e-12  3471648.5      100513.55      1.1309419e+09  7.2629652e-05  5.1768573e-07  7.2111966e-05  2.858765e+09 
    563000   4.965326e-12   3471653.3      100521.84      1.1309407e+09  7.2629651e-05  5.1758599e-07  7.2112065e-05  2.8587669e+09
    564000   4.9741454e-12  3471662        100530.32      1.1309408e+09  7.2629649e-05  5.1740382e-07  7.2112245e-05  2.8587706e+09
    565000   4.9829648e-12  3471664.1      100533.94      1.1309403e+09  7.2629651e-05  5.1736218e-07  7.2112288e-05  2.8587716e+09
    566000   4.9917842e-12  3471655.7      100527.62      1.1309396e+09  7.2629659e-05  5.1754351e-07  7.2112115e-05  2.858769e+09 
    567000   5.0006036e-12  3471647.2      100523.32      1.1309382e+09  7.2629665e-05  5.177256e-07   7.2111939e-05  2.8587662e+09
    568000   5.009423e-12   3471650.8      100520.91      1.1309402e+09  7.2629654e-05  5.1764097e-07  7.2112013e-05  2.8587669e+09
    569000   5.0182424e-12  3471646.9      100514.57      1.130941e+09   7.262965e-05   5.1771896e-07  7.2111931e-05  2.8587647e+09
    570000   5.0270619e-12  3471643.5      100512.77      1.1309404e+09  7.2629653e-05  5.1779151e-07  7.2111861e-05  2.8587632e+09
    571000   5.0358813e-12  3471647.5      100515.08      1.130941e+09   7.262965e-05   5.1770598e-07  7.2111944e-05  2.8587644e+09
    572000   5.0447007e-12  3471646.5      100516.46      1.1309402e+09  7.2629653e-05  5.1773033e-07  7.2111923e-05  2.8587646e+09
    573000   5.0535201e-12  3471643.2      100513.86      1.13094e+09    7.2629656e-05  5.1780104e-07  7.2111855e-05  2.8587637e+09
    574000   5.0623395e-12  3471650        100519.61      1.1309403e+09  7.2629651e-05  5.1765473e-07  7.2111996e-05  2.8587659e+09
    575000   5.0711589e-12  3471656.7      100526.57      1.1309403e+09  7.2629643e-05  5.1750743e-07  7.2112136e-05  2.8587677e+09
    576000   5.0799783e-12  3471652.4      100524.59      1.1309395e+09  7.2629643e-05  5.1759767e-07  7.2112045e-05  2.8587657e+09
    577000   5.0887977e-12  3471651.9      100527.02      1.1309385e+09  7.2629645e-05  5.1760999e-07  7.2112035e-05  2.8587657e+09
    578000   5.0976171e-12  3471645.1      100523.84      1.1309373e+09  7.262963e-05   5.177357e-07   7.2111894e-05  2.8587619e+09
    579000   5.1064365e-12  3471652.3      100523.7       1.1309398e+09  7.2629629e-05  5.1758395e-07  7.2112045e-05  2.8587646e+09
    580000   5.1152559e-12  3471646.7      100526.24      1.130937e+09   7.2629627e-05  5.1769977e-07  7.2111927e-05  2.8587618e+09
    581000   5.1240753e-12  3471664.7      100533.31      1.1309407e+09  7.2629624e-05  5.1732103e-07  7.2112303e-05  2.8587681e+09
    582000   5.1328947e-12  3471665.7      100534.62      1.1309406e+09  7.2629633e-05  5.1731125e-07  7.2112322e-05  2.8587695e+09
    583000   5.1417141e-12  3471656.2      100535.32      1.1309372e+09  7.2629636e-05  5.1751014e-07  7.2112126e-05  2.8587665e+09
    584000   5.1505335e-12  3471653.6      100524.53      1.1309399e+09  7.2629643e-05  5.1757239e-07  7.211207e-05   2.8587657e+09
    585000   5.159353e-12   3471644        100520.53      1.130938e+09   7.262964e-05   5.1776896e-07  7.2111871e-05  2.8587619e+09
    586000   5.1681724e-12  3471648.4      100516.86      1.1309407e+09  7.2629641e-05  5.1767836e-07  7.2111963e-05  2.8587631e+09
    587000   5.1769918e-12  3471655.7      100521.63      1.1309416e+09  7.2629639e-05  5.175246e-07   7.2112114e-05  2.8587651e+09
    588000   5.1858112e-12  3471648.3      100519.12      1.1309399e+09  7.2629639e-05  5.1767814e-07  7.2111961e-05  2.8587622e+09
    589000   5.1946306e-12  3471646.2      100519.93      1.130939e+09   7.262963e-05   5.1771308e-07  7.2111917e-05  2.8587617e+09
    590000   5.20345e-12    3471637.8      100516.2       1.1309374e+09  7.2629639e-05  5.1789556e-07  7.2111743e-05  2.8587598e+09
    591000   5.2122694e-12  3471642.5      100517.13      1.1309386e+09  7.2629635e-05  5.177951e-07   7.211184e-05   2.8587615e+09
    592000   5.2210888e-12  3471641.4      100516.66      1.1309385e+09  7.2629645e-05  5.1782616e-07  7.2111818e-05  2.8587617e+09
    593000   5.2299082e-12  3471644        100517.98      1.1309389e+09  7.2629646e-05  5.1777459e-07  7.2111871e-05  2.8587624e+09
    594000   5.2387276e-12  3471647.6      100520.95      1.1309391e+09  7.262965e-05   5.1770244e-07  7.2111947e-05  2.8587642e+09
    595000   5.247547e-12   3471648.3      100525.42      1.1309378e+09  7.2629648e-05  5.1768626e-07  7.2111962e-05  2.8587646e+09
    596000   5.2563664e-12  3471646.4      100529.85      1.1309357e+09  7.2629641e-05  5.1771889e-07  7.2111923e-05  2.8587639e+09
    597000   5.2651858e-12  3471642.7      100529.19      1.1309347e+09  7.2629637e-05  5.1779255e-07  7.2111845e-05  2.8587625e+09
    598000   5.2740052e-12  3471637.2      100523.36      1.1309348e+09  7.2629641e-05  5.1790947e-07  7.2111732e-05  2.8587604e+09
    599000   5.2828246e-12  3471640.1      100523.21      1.1309358e+09  7.2629642e-05  5.1785077e-07  7.2111792e-05  2.858761e+09 
    600000   5.2916441e-12  3471648.8      100528.73      1.1309369e+09  7.2629645e-05  5.1767308e-07  7.2111972e-05  2.8587646e+09
    601000   5.3004635e-12  3471645.9      100529.34      1.1309357e+09  7.2629643e-05  5.1773092e-07  7.2111912e-05  2.8587637e+09
    602000   5.3092829e-12  3471641.2      100532.88      1.130933e+09   7.2629644e-05  5.178294e-07   7.2111814e-05  2.8587626e+09
    603000   5.3181023e-12  3471648.9      100538.86      1.1309336e+09  7.2629639e-05  5.1766419e-07  7.2111975e-05  2.8587654e+09
    604000   5.3269217e-12  3471654.9      100539.5       1.1309353e+09  7.2629645e-05  5.175471e-07   7.2112098e-05  2.8587678e+09
    605000   5.3357411e-12  3471652.8      100538.65      1.1309349e+09  7.2629653e-05  5.1759886e-07  7.2112054e-05  2.8587679e+09
    606000   5.3445605e-12  3471651.1      100535.41      1.1309354e+09  7.2629648e-05  5.1762917e-07  7.2112019e-05  2.8587668e+09
    607000   5.3533799e-12  3471656.6      100535.89      1.1309371e+09  7.2629647e-05  5.1751271e-07  7.2112134e-05  2.8587682e+09
    608000   5.3621993e-12  3471651.9      100540.59      1.130934e+09   7.2629642e-05  5.1760567e-07  7.2112037e-05  2.858766e+09 
    609000   5.3710187e-12  3471657.7      100538.82      1.1309365e+09  7.2629644e-05  5.1748744e-07  7.2112157e-05  2.8587685e+09
    610000   5.3798381e-12  3471653.9      100541.46      1.1309343e+09  7.2629649e-05  5.1757201e-07  7.2112077e-05  2.8587684e+09
    611000   5.3886575e-12  3471658.6      100543.69      1.1309352e+09  7.2629644e-05  5.1746804e-07  7.2112176e-05  2.8587696e+09
    612000   5.3974769e-12  3471661.7      100545.52      1.1309356e+09  7.2629648e-05  5.1740856e-07  7.2112239e-05  2.8587704e+09
    613000   5.4062963e-12  3471653.5      100543.05      1.1309337e+09  7.2629644e-05  5.175746e-07   7.2112069e-05  2.8587671e+09
    614000   5.4151157e-12  3471651.1      100540.61      1.1309337e+09  7.2629638e-05  5.1761781e-07  7.211202e-05   2.8587664e+09
    615000   5.4239352e-12  3471648.7      100543.65      1.1309319e+09  7.2629642e-05  5.1767232e-07  7.211197e-05   2.8587656e+09
    616000   5.4327546e-12  3471657.9      100542.74      1.1309352e+09  7.2629654e-05  5.17494e-07    7.211216e-05   2.8587694e+09
    617000   5.441574e-12   3471655.5      100540.72      1.1309351e+09  7.262965e-05   5.1753907e-07  7.2112111e-05  2.8587682e+09
    618000   5.4503934e-12  3471654        100541.03      1.1309345e+09  7.262965e-05   5.1757027e-07  7.211208e-05   2.8587677e+09
    619000   5.4592128e-12  3471658.1      100540.06      1.1309362e+09  7.2629653e-05  5.174875e-07   7.2112165e-05  2.858769e+09 
    620000   5.4680322e-12  3471656        100540.1       1.1309355e+09  7.262965e-05   5.1752868e-07  7.2112121e-05  2.8587683e+09
    621000   5.4768516e-12  3471645.8      100534.15      1.1309341e+09  7.262965e-05   5.1774105e-07  7.2111909e-05  2.8587643e+09
    622000   5.485671e-12   3471639.5      100534.62      1.1309318e+09  7.2629647e-05  5.1786914e-07  7.2111778e-05  2.8587619e+09
    623000   5.4944904e-12  3471652.6      100537.01      1.1309354e+09  7.2629646e-05  5.1759448e-07  7.2112051e-05  2.8587668e+09
    624000   5.5033098e-12  3471652.3      100538.34      1.1309348e+09  7.2629649e-05  5.1760498e-07  7.2112044e-05  2.8587669e+09
    625000   5.5121292e-12  3471649.6      100535.81      1.1309348e+09  7.2629647e-05  5.1765999e-07  7.2111987e-05  2.8587657e+09
    626000   5.5209486e-12  3471646.7      100536.87      1.1309335e+09  7.2629649e-05  5.1772079e-07  7.2111928e-05  2.858765e+09 
    627000   5.529768e-12   3471655.1      100543.19      1.1309342e+09  7.2629648e-05  5.1754505e-07  7.2112103e-05  2.8587682e+09
    628000   5.5385874e-12  3471648.6      100537.41      1.1309339e+09  7.2629641e-05  5.1767276e-07  7.2111968e-05  2.8587652e+09
    629000   5.5474069e-12  3471642.9      100535.62      1.1309326e+09  7.2629639e-05  5.1778887e-07  7.211185e-05   2.8587628e+09
    630000   5.5562263e-12  3471653.1      100534.76      1.1309363e+09  7.2629629e-05  5.1756839e-07  7.2112061e-05  2.8587656e+09
    631000   5.5650457e-12  3471649.6      100536.51      1.1309346e+09  7.2629635e-05  5.1764574e-07  7.2111989e-05  2.8587648e+09
    632000   5.5738651e-12  3471642.2      100533.01      1.1309332e+09  7.2629639e-05  5.1780546e-07  7.2111834e-05  2.8587626e+09
    633000   5.5826845e-12  3471646.3      100536.17      1.1309335e+09  7.262964e-05   5.1772116e-07  7.2111919e-05  2.8587638e+09
    634000   5.5915039e-12  3471649.5      100537.41      1.1309342e+09  7.2629635e-05  5.1764975e-07  7.2111985e-05  2.8587643e+09
    635000   5.6003233e-12  3471647.2      100533.75      1.1309347e+09  7.2629637e-05  5.1769844e-07  7.2111939e-05  2.8587636e+09
    636000   5.6091427e-12  3471646.4      100532.54      1.1309348e+09  7.2629624e-05  5.1770269e-07  7.2111921e-05  2.8587621e+09
    637000   5.6179621e-12  3471644.6      100532.31      1.1309343e+09  7.2629623e-05  5.1773879e-07  7.2111884e-05  2.8587611e+09
    638000   5.6267815e-12  3471651.1      100541.71      1.1309333e+09  7.2629627e-05  5.1760678e-07  7.211202e-05   2.8587644e+09
    639000   5.6356009e-12  3471646.7      100542.91      1.1309314e+09  7.2629626e-05  5.1769866e-07  7.2111928e-05  2.8587629e+09
    640000   5.6444203e-12  3471651.4      100544.44      1.1309325e+09  7.2629617e-05  5.1759193e-07  7.2112025e-05  2.8587643e+09
    641000   5.6532397e-12  3471653.5      100550.07      1.1309313e+09  7.2629625e-05  5.1755637e-07  7.2112069e-05  2.8587658e+09
    642000   5.6620591e-12  3471660.3      100551.33      1.1309332e+09  7.2629626e-05  5.1741558e-07  7.2112211e-05  2.8587686e+09
    643000   5.6708785e-12  3471657.1      100553.38      1.1309314e+09  7.2629633e-05  5.1748918e-07  7.2112144e-05  2.8587677e+09
    644000   5.679698e-12   3471658        100557.51      1.1309304e+09  7.2629627e-05  5.1746347e-07  7.2112163e-05  2.8587674e+09
    645000   5.6885174e-12  3471660.8      100556.3       1.1309317e+09  7.2629626e-05  5.1740564e-07  7.2112221e-05  2.8587675e+09
    646000   5.6973368e-12  3471660.4      100557.85      1.1309311e+09  7.262962e-05   5.1740639e-07  7.2112214e-05  2.8587663e+09
    647000   5.7061562e-12  3471666.1      100562.8       1.1309313e+09  7.2629623e-05  5.1729244e-07  7.2112331e-05  2.8587684e+09
    648000   5.7149756e-12  3471662.4      100556.23      1.1309322e+09  7.2629621e-05  5.173677e-07   7.2112254e-05  2.8587665e+09
    649000   5.723795e-12   3471662.8      100558.58      1.1309316e+09  7.262962e-05   5.1735714e-07  7.2112263e-05  2.8587667e+09
    650000   5.7326144e-12  3471664.9      100557.06      1.1309328e+09  7.2629621e-05  5.1731467e-07  7.2112306e-05  2.8587678e+09
    651000   5.7414338e-12  3471660.6      100556.37      1.1309316e+09  7.2629627e-05  5.1741049e-07  7.2112216e-05  2.8587671e+09
    652000   5.7502532e-12  3471660.7      100559.4       1.1309306e+09  7.2629623e-05  5.1740516e-07  7.2112218e-05  2.858767e+09 
    653000   5.7590726e-12  3471657        100556.96      1.1309302e+09  7.2629625e-05  5.1748426e-07  7.2112141e-05  2.8587655e+09
    654000   5.767892e-12   3471652.8      100552.63      1.1309302e+09  7.262962e-05   5.175663e-07   7.2112054e-05  2.8587636e+09
    655000   5.7767114e-12  3471653        100551.47      1.1309307e+09  7.2629617e-05  5.1755885e-07  7.2112058e-05  2.8587637e+09
    656000   5.7855308e-12  3471657.1      100557.11      1.1309302e+09  7.2629623e-05  5.1747771e-07  7.2112145e-05  2.8587659e+09
    657000   5.7943502e-12  3471662.9      100560.85      1.1309309e+09  7.2629624e-05  5.1735933e-07  7.2112264e-05  2.8587681e+09
    658000   5.8031696e-12  3471661.8      100563.31      1.1309297e+09  7.2629625e-05  5.17383e-07    7.2112242e-05  2.8587675e+09
    659000   5.8119891e-12  3471665.2      100562.68      1.130931e+09   7.2629629e-05  5.1731658e-07  7.2112312e-05  2.8587691e+09
    660000   5.8208085e-12  3471661.8      100559.01      1.1309311e+09  7.2629628e-05  5.1738626e-07  7.2112242e-05  2.8587676e+09
    661000   5.8296279e-12  3471651.7      100550.27      1.1309307e+09  7.2629638e-05  5.1760628e-07  7.2112031e-05  2.8587649e+09
    662000   5.8384473e-12  3471642.2      100546.21      1.1309288e+09  7.2629645e-05  5.1780948e-07  7.2111835e-05  2.8587619e+09
    663000   5.8472667e-12  3471636.3      100539.58      1.1309291e+09  7.2629641e-05  5.179291e-07   7.2111712e-05  2.8587593e+09
    664000   5.8560861e-12  3471639.7      100540.32      1.13093e+09    7.2629635e-05  5.1785176e-07  7.2111784e-05  2.8587604e+09
    665000   5.8649055e-12  3471640.2      100540.3       1.1309301e+09  7.2629629e-05  5.1783666e-07  7.2111793e-05  2.8587597e+09
    666000   5.8737249e-12  3471653.4      100548.15      1.1309319e+09  7.2629631e-05  5.1756373e-07  7.2112067e-05  2.8587647e+09
    667000   5.8825443e-12  3471650.4      100549.83      1.1309304e+09  7.2629629e-05  5.1762501e-07  7.2112004e-05  2.8587638e+09
    668000   5.8913637e-12  3471649        100550.4       1.1309297e+09  7.2629639e-05  5.1766386e-07  7.2111975e-05  2.8587646e+09
    669000   5.9001831e-12  3471646.9      100550.7       1.1309289e+09  7.262964e-05   5.1770734e-07  7.2111932e-05  2.8587642e+09
    670000   5.9090025e-12  3471649.4      100550.25      1.1309299e+09  7.2629635e-05  5.1765159e-07  7.2111983e-05  2.858765e+09 
    671000   5.9178219e-12  3471654.6      100555.7       1.1309298e+09  7.2629635e-05  5.1754163e-07  7.2112093e-05  2.8587672e+09
    672000   5.9266413e-12  3471648.2      100557.25      1.1309271e+09  7.262964e-05   5.1768183e-07  7.2111958e-05  2.8587649e+09
    673000   5.9354607e-12  3471655.5      100556.68      1.1309298e+09  7.2629634e-05  5.1752337e-07  7.211211e-05   2.8587666e+09
    674000   5.9442802e-12  3471653.7      100553.75      1.1309302e+09  7.2629626e-05  5.1755326e-07  7.2112073e-05  2.8587652e+09
    675000   5.9530996e-12  3471647        100554.4       1.1309277e+09  7.2629615e-05  5.1768186e-07  7.2111933e-05  2.8587622e+09
    676000   5.961919e-12   3471657.2      100559.95      1.1309293e+09  7.2629617e-05  5.1747177e-07  7.2112145e-05  2.8587665e+09
    677000   5.9707384e-12  3471656.6      100557.53      1.1309299e+09  7.2629613e-05  5.1748073e-07  7.2112133e-05  2.8587662e+09
    678000   5.9795578e-12  3471650.2      100556.97      1.1309279e+09  7.2629614e-05  5.1761331e-07  7.2112001e-05  2.8587641e+09
    679000   5.9883772e-12  3471650        100555.91      1.1309282e+09  7.2629612e-05  5.1761601e-07  7.2111996e-05  2.8587631e+09
    680000   5.9971966e-12  3471649.4      100551.95      1.1309293e+09  7.262961e-05   5.1762603e-07  7.2111984e-05  2.8587615e+09
    681000   6.006016e-12   3471657.1      100559.11      1.1309295e+09  7.2629607e-05  5.1746158e-07  7.2112145e-05  2.8587634e+09
    682000   6.0148354e-12  3471660.4      100558.04      1.130931e+09   7.2629601e-05  5.1738931e-07  7.2112212e-05  2.8587634e+09
    683000   6.0236548e-12  3471657.9      100556.97      1.1309305e+09  7.2629611e-05  5.1744951e-07  7.2112161e-05  2.8587632e+09
    684000   6.0324742e-12  3471650.9      100560.14      1.1309271e+09  7.2629616e-05  5.1760045e-07  7.2112016e-05  2.8587622e+09
    685000   6.0412936e-12  3471646.4      100556.49      1.1309268e+09  7.2629617e-05  5.1769567e-07  7.2111921e-05  2.858762e+09 
    686000   6.050113e-12   3471647.8      100559.16      1.1309264e+09  7.2629618e-05  5.1766764e-07  7.2111951e-05  2.8587627e+09
    687000   6.0589324e-12  3471659.5      100563.18      1.130929e+09   7.2629623e-05  5.1742878e-07  7.2112194e-05  2.8587663e+09
    688000   6.0677519e-12  3471664.3      100571.99      1.1309276e+09  7.2629621e-05  5.1732763e-07  7.2112293e-05  2.858767e+09 
    689000   6.0765713e-12  3471664.6      100571.83      1.1309278e+09  7.262962e-05   5.1732103e-07  7.2112299e-05  2.858767e+09 
    690000   6.0853907e-12  3471669.3      100576.66      1.1309277e+09  7.262962e-05   5.1722316e-07  7.2112397e-05  2.8587697e+09
    691000   6.0942101e-12  3471669.6      100578.4       1.1309272e+09  7.2629624e-05  5.1722089e-07  7.2112403e-05  2.8587712e+09
    692000   6.1030295e-12  3471672        100580.19      1.1309274e+09  7.262963e-05   5.1717717e-07  7.2112453e-05  2.8587732e+09
    693000   6.1118489e-12  3471673.9      100581.34      1.1309277e+09  7.2629633e-05  5.1714067e-07  7.2112493e-05  2.8587738e+09
    694000   6.1206683e-12  3471673.2      100573.23      1.1309302e+09  7.2629633e-05  5.1715515e-07  7.2112477e-05  2.858772e+09 
    695000   6.1294877e-12  3471664.3      100566.55      1.1309294e+09  7.2629631e-05  5.1733729e-07  7.2112294e-05  2.8587675e+09
    696000   6.1383071e-12  3471657.5      100569.74      1.1309261e+09  7.2629628e-05  5.174752e-07   7.2112153e-05  2.8587645e+09
    697000   6.1471265e-12  3471666.3      100570.4       1.1309288e+09  7.2629626e-05  5.1729048e-07  7.2112335e-05  2.858768e+09 
    698000   6.1559459e-12  3471663.3      100569.59      1.1309281e+09  7.2629636e-05  5.1736359e-07  7.2112272e-05  2.8587684e+09
    699000   6.1647653e-12  3471658.2      100570.14      1.1309262e+09  7.2629632e-05  5.1746431e-07  7.2112168e-05  2.8587669e+09
    700000   6.1735847e-12  3471656.9      100566.52      1.130927e+09   7.2629637e-05  5.1749659e-07  7.2112141e-05  2.8587665e+09
    701000   6.1824041e-12  3471662.4      100573.3       1.1309266e+09  7.2629646e-05  5.1739105e-07  7.2112255e-05  2.8587693e+09
    702000   6.1912235e-12  3471658.4      100571.48      1.1309258e+09  7.262964e-05   5.174692e-07   7.2112171e-05  2.8587678e+09
    703000   6.200043e-12   3471661.9      100571.66      1.1309269e+09  7.2629633e-05  5.1738898e-07  7.2112244e-05  2.8587687e+09
    704000   6.2088624e-12  3471662.1      100571.57      1.130927e+09   7.2629634e-05  5.1738517e-07  7.2112249e-05  2.8587687e+09
    705000   6.2176818e-12  3471659.4      100567.32      1.1309275e+09  7.2629641e-05  5.1744876e-07  7.2112192e-05  2.8587681e+09
    706000   6.2265012e-12  3471658.7      100571.78      1.1309258e+09  7.2629647e-05  5.1747071e-07  7.2112177e-05  2.8587687e+09
    707000   6.2353206e-12  3471660        100568.77      1.1309272e+09  7.2629639e-05  5.1743548e-07  7.2112203e-05  2.8587684e+09
    708000   6.24414e-12    3471661.8      100570.72      1.1309272e+09  7.2629636e-05  5.1739545e-07  7.2112241e-05  2.8587681e+09
    709000   6.2529594e-12  3471666.8      100567.79      1.1309299e+09  7.2629643e-05  5.1729793e-07  7.2112345e-05  2.8587704e+09
    710000   6.2617788e-12  3471654.5      100564.21      1.1309269e+09  7.2629637e-05  5.1754794e-07  7.2112089e-05  2.8587665e+09
    711000   6.2705982e-12  3471646        100561.48      1.130925e+09   7.2629647e-05  5.177338e-07   7.2111913e-05  2.8587655e+09
    712000   6.2794176e-12  3471642.3      100554.21      1.1309262e+09  7.2629646e-05  5.1780989e-07  7.2111836e-05  2.8587642e+09
    713000   6.288237e-12   3471640.1      100547.77      1.1309276e+09  7.2629643e-05  5.1785279e-07  7.211179e-05   2.8587622e+09
    714000   6.2970564e-12  3471642.5      100546.4       1.1309289e+09  7.2629638e-05  5.1779629e-07  7.2111841e-05  2.8587615e+09
    715000   6.3058758e-12  3471645.4      100546.53      1.1309298e+09  7.2629643e-05  5.1774306e-07  7.21119e-05    2.8587625e+09
    716000   6.3146952e-12  3471641.7      100540.89      1.1309304e+09  7.2629644e-05  5.1782107e-07  7.2111823e-05  2.8587616e+09
    717000   6.3235146e-12  3471630        100541.13      1.1309264e+09  7.262964e-05   5.1805999e-07  7.211158e-05   2.8587577e+09
    718000   6.3323341e-12  3471633.8      100542.24      1.1309274e+09  7.2629643e-05  5.1798238e-07  7.2111661e-05  2.8587599e+09
    719000   6.3411535e-12  3471635.5      100544.23      1.1309272e+09  7.2629646e-05  5.1795111e-07  7.2111695e-05  2.8587611e+09
    720000   6.3499729e-12  3471638.1      100548.59      1.1309267e+09  7.2629648e-05  5.1789962e-07  7.2111749e-05  2.8587627e+09
    721000   6.3587923e-12  3471636.3      100548.07      1.1309262e+09  7.2629653e-05  5.1794009e-07  7.2111712e-05  2.8587617e+09
    722000   6.3676117e-12  3471642.3      100552.92      1.1309266e+09  7.2629652e-05  5.1781495e-07  7.2111837e-05  2.8587633e+09
    723000   6.3764311e-12  3471644.2      100553.71      1.130927e+09   7.2629656e-05  5.1778064e-07  7.2111876e-05  2.858764e+09 
    724000   6.3852505e-12  3471650.5      100558.31      1.1309276e+09  7.2629652e-05  5.1764549e-07  7.2112007e-05  2.8587663e+09
    725000   6.3940699e-12  3471649.8      100560.85      1.1309265e+09  7.2629658e-05  5.1766661e-07  7.2111992e-05  2.8587669e+09
    726000   6.4028893e-12  3471645.5      100559.69      1.1309254e+09  7.2629644e-05  5.1774086e-07  7.2111903e-05  2.8587643e+09
    727000   6.4117087e-12  3471650.8      100561.37      1.1309267e+09  7.2629648e-05  5.1763377e-07  7.2112014e-05  2.8587664e+09
    728000   6.4205281e-12  3471655.5      100562.82      1.1309277e+09  7.2629655e-05  5.1754421e-07  7.2112111e-05  2.8587678e+09
    729000   6.4293475e-12  3471662.9      100567.89      1.1309285e+09  7.2629647e-05  5.1738186e-07  7.2112265e-05  2.85877e+09  
    730000   6.4381669e-12  3471658.7      100571.32      1.130926e+09   7.2629653e-05  5.1747525e-07  7.2112178e-05  2.8587694e+09
    731000   6.4469863e-12  3471655.2      100569.4       1.1309254e+09  7.2629655e-05  5.1755017e-07  7.2112105e-05  2.8587683e+09
    732000   6.4558057e-12  3471654        100566.44      1.130926e+09   7.2629658e-05  5.1757763e-07  7.2112081e-05  2.8587681e+09
    733000   6.4646252e-12  3471658.8      100571.1       1.1309261e+09  7.2629655e-05  5.1747567e-07  7.2112179e-05  2.8587698e+09
    734000   6.4734446e-12  3471656.3      100570.39      1.1309255e+09  7.2629653e-05  5.1752578e-07  7.2112127e-05  2.8587683e+09
    735000   6.482264e-12   3471653.9      100567.66      1.1309256e+09  7.2629668e-05  5.175902e-07   7.2112078e-05  2.8587687e+09
    736000   6.4910834e-12  3471656.2      100571.93      1.1309249e+09  7.2629664e-05  5.1753732e-07  7.2112126e-05  2.8587704e+09
    737000   6.4999028e-12  3471649.8      100570.98      1.1309231e+09  7.2629663e-05  5.1767163e-07  7.2111992e-05  2.8587686e+09
    738000   6.5087222e-12  3471649.3      100570.42      1.1309231e+09  7.2629665e-05  5.1768411e-07  7.2111981e-05  2.8587685e+09
    739000   6.5175416e-12  3471649.9      100569.55      1.1309236e+09  7.2629674e-05  5.1767917e-07  7.2111995e-05  2.8587688e+09
    740000   6.526361e-12   3471657.5      100570.11      1.130926e+09   7.2629666e-05  5.175126e-07   7.2112153e-05  2.8587705e+09
    741000   6.5351804e-12  3471654.3      100569.32      1.1309252e+09  7.2629661e-05  5.1757525e-07  7.2112086e-05  2.8587687e+09
    742000   6.5439998e-12  3471652.6      100566.03      1.1309257e+09  7.2629658e-05  5.1760713e-07  7.2112051e-05  2.8587675e+09
    743000   6.5528192e-12  3471651.9      100565.75      1.1309255e+09  7.2629663e-05  5.1762764e-07  7.2112035e-05  2.8587675e+09
    744000   6.5616386e-12  3471646.9      100561.99      1.1309251e+09  7.262967e-05   5.1773812e-07  7.2111932e-05  2.8587667e+09
    745000   6.570458e-12   3471643        100563.7       1.1309233e+09  7.2629668e-05  5.1781684e-07  7.2111851e-05  2.8587652e+09
    746000   6.5792774e-12  3471650.4      100567.17      1.1309246e+09  7.2629668e-05  5.1766318e-07  7.2112005e-05  2.8587674e+09
    747000   6.5880968e-12  3471657.6      100573.62      1.1309248e+09  7.2629667e-05  5.1751181e-07  7.2112155e-05  2.8587695e+09
    748000   6.5969163e-12  3471660.4      100579.78      1.1309237e+09  7.2629658e-05  5.1744537e-07  7.2112213e-05  2.8587702e+09
    749000   6.6057357e-12  3471667        100584.52      1.1309243e+09  7.2629656e-05  5.1730602e-07  7.211235e-05   2.8587727e+09
    750000   6.6145551e-12  3471660.2      100584.39      1.1309221e+09  7.2629664e-05  5.1745535e-07  7.2112208e-05  2.8587705e+09
    751000   6.6233745e-12  3471670.9      100589.74      1.1309239e+09  7.2629662e-05  5.1723254e-07  7.211243e-05   2.8587742e+09
    752000   6.6321939e-12  3471663.1      100585.88      1.1309226e+09  7.2629663e-05  5.173949e-07   7.2112268e-05  2.8587711e+09
    753000   6.6410133e-12  3471661.5      100586.61      1.1309218e+09  7.2629652e-05  5.1741783e-07  7.2112235e-05  2.85877e+09  
    754000   6.6498327e-12  3471672        100591.04      1.1309238e+09  7.2629642e-05  5.1718893e-07  7.2112454e-05  2.8587735e+09
    755000   6.6586521e-12  3471668.4      100592.47      1.1309222e+09  7.2629641e-05  5.1726116e-07  7.2112379e-05  2.8587718e+09
    756000   6.6674715e-12  3471671.6      100591.26      1.1309236e+09  7.2629643e-05  5.1719908e-07  7.2112444e-05  2.8587733e+09
    757000   6.6762909e-12  3471668.4      100589.89      1.130923e+09   7.2629649e-05  5.1726986e-07  7.2112379e-05  2.8587727e+09
    758000   6.6851103e-12  3471662.4      100586.58      1.1309221e+09  7.2629656e-05  5.1740276e-07  7.2112253e-05  2.858772e+09 
    759000   6.6939297e-12  3471655        100587.46      1.1309193e+09  7.2629661e-05  5.1756022e-07  7.2112101e-05  2.8587703e+09
    760000   6.7027491e-12  3471651.7      100579.2       1.130921e+09   7.2629658e-05  5.1762553e-07  7.2112033e-05  2.8587689e+09
    761000   6.7115685e-12  3471653        100577.42      1.130922e+09   7.2629659e-05  5.1759998e-07  7.2112059e-05  2.858769e+09 
    762000   6.720388e-12   3471657.7      100579.08      1.130923e+09   7.2629651e-05  5.1749408e-07  7.2112157e-05  2.8587696e+09
    763000   6.7292074e-12  3471662.6      100580.54      1.1309242e+09  7.2629652e-05  5.1739339e-07  7.2112259e-05  2.8587715e+09
    764000   6.7380268e-12  3471661.7      100580         1.1309241e+09  7.262965e-05   5.1740964e-07  7.211224e-05   2.8587709e+09
    765000   6.7468462e-12  3471656.2      100575.75      1.1309236e+09  7.2629645e-05  5.1751961e-07  7.2112125e-05  2.8587684e+09
    766000   6.7556656e-12  3471657.2      100570.83      1.1309256e+09  7.2629645e-05  5.1749879e-07  7.2112146e-05  2.8587685e+09
    767000   6.764485e-12   3471648.7      100565.84      1.1309244e+09  7.2629653e-05  5.1768366e-07  7.211197e-05   2.8587664e+09
    768000   6.7733044e-12  3471638.3      100561.56      1.1309224e+09  7.2629649e-05  5.1789536e-07  7.2111753e-05  2.8587629e+09
    769000   6.7821238e-12  3471637.9      100564.97      1.1309211e+09  7.2629649e-05  5.1790497e-07  7.2111744e-05  2.858763e+09 
    770000   6.7909432e-12  3471645.3      100569.76      1.130922e+09   7.2629649e-05  5.1774953e-07  7.21119e-05    2.8587657e+09
    771000   6.7997626e-12  3471644.2      100572.52      1.1309207e+09  7.2629654e-05  5.177781e-07   7.2111876e-05  2.8587655e+09
    772000   6.808582e-12   3471652.9      100576.56      1.1309223e+09  7.262965e-05   5.1759215e-07  7.2112057e-05  2.8587681e+09
    773000   6.8174014e-12  3471649.4      100577.62      1.1309207e+09  7.2629653e-05  5.1766861e-07  7.2111984e-05  2.8587672e+09
    774000   6.8262208e-12  3471649.8      100575.54      1.1309216e+09  7.2629647e-05  5.176548e-07   7.2111993e-05  2.8587669e+09
    775000   6.8350402e-12  3471657.1      100583.07      1.1309215e+09  7.262965e-05   5.1750679e-07  7.2112144e-05  2.8587697e+09
    776000   6.8438596e-12  3471657.9      100581.19      1.1309224e+09  7.2629653e-05  5.17492e-07    7.2112161e-05  2.8587703e+09
    777000   6.8526791e-12  3471648.5      100582.5       1.1309188e+09  7.2629654e-05  5.1768812e-07  7.2111966e-05  2.8587671e+09
    778000   6.8614985e-12  3471649.1      100583.88      1.1309186e+09  7.262965e-05   5.1767142e-07  7.2111978e-05  2.8587673e+09
    779000   6.8703179e-12  3471643.9      100580.27      1.130918e+09   7.2629651e-05  5.1778189e-07  7.2111869e-05  2.8587649e+09
    780000   6.8791373e-12  3471653.9      100580.21      1.1309214e+09  7.2629657e-05  5.1757865e-07  7.2112078e-05  2.8587691e+09
    781000   6.8879567e-12  3471643.9      100577.23      1.130919e+09   7.2629654e-05  5.1778399e-07  7.211187e-05   2.8587653e+09
    782000   6.8967761e-12  3471638.9      100575.4       1.130918e+09   7.2629646e-05  5.1788032e-07  7.2111766e-05  2.8587629e+09
    783000   6.9055955e-12  3471647.5      100579.12      1.1309196e+09  7.2629652e-05  5.1770725e-07  7.2111944e-05  2.8587664e+09
    784000   6.9144149e-12  3471659        100587.58      1.1309206e+09  7.2629654e-05  5.1747028e-07  7.2112184e-05  2.8587704e+09
    785000   6.9232343e-12  3471658.4      100584.84      1.1309214e+09  7.2629656e-05  5.1748462e-07  7.2112171e-05  2.8587696e+09
    786000   6.9320537e-12  3471665.2      100585.94      1.1309233e+09  7.2629656e-05  5.1734296e-07  7.2112313e-05  2.858772e+09 
    787000   6.9408731e-12  3471661.2      100584.79      1.1309223e+09  7.2629656e-05  5.1742749e-07  7.2112228e-05  2.858771e+09 
    788000   6.9496925e-12  3471644.2      100575.92      1.1309196e+09  7.2629648e-05  5.1777185e-07  7.2111876e-05  2.8587643e+09
    789000   6.9585119e-12  3471641.7      100575.75      1.1309188e+09  7.2629645e-05  5.1782127e-07  7.2111823e-05  2.8587638e+09
    790000   6.9673313e-12  3471643.4      100576.09      1.1309192e+09  7.262965e-05   5.1779124e-07  7.2111859e-05  2.8587639e+09
    791000   6.9761507e-12  3471641.8      100572.37      1.13092e+09    7.2629645e-05  5.1781831e-07  7.2111827e-05  2.8587616e+09
    792000   6.9849702e-12  3471647.1      100571.71      1.1309219e+09  7.2629642e-05  5.177059e-07   7.2111936e-05  2.8587624e+09
    793000   6.9937896e-12  3471651.4      100578.81      1.130921e+09   7.2629632e-05  5.176068e-07   7.2112025e-05  2.8587638e+09
    794000   7.002609e-12   3471648.5      100579.79      1.1309197e+09  7.2629626e-05  5.1766146e-07  7.2111964e-05  2.8587627e+09
    795000   7.0114284e-12  3471646.2      100579.24      1.1309191e+09  7.2629623e-05  5.1770639e-07  7.2111917e-05  2.8587616e+09
    796000   7.0202478e-12  3471649.1      100577.04      1.1309208e+09  7.2629626e-05  5.1764862e-07  7.2111977e-05  2.858762e+09 
    797000   7.0290672e-12  3471648.4      100576.04      1.1309209e+09  7.2629622e-05  5.1765922e-07  7.2111963e-05  2.8587608e+09
    798000   7.0378866e-12  3471652.6      100579.22      1.1309213e+09  7.262962e-05   5.1756883e-07  7.2112052e-05  2.8587628e+09
    799000   7.046706e-12   3471645.6      100578.27      1.1309193e+09  7.2629616e-05  5.1770957e-07  7.2111906e-05  2.8587604e+09
    800000   7.0555254e-12  3471651.1      100580.18      1.1309205e+09  7.2629627e-05  5.1760716e-07  7.211202e-05   2.8587636e+09
    801000   7.0643448e-12  3471649.8      100576.45      1.1309213e+09  7.2629623e-05  5.176293e-07   7.2111993e-05  2.8587627e+09
    802000   7.0731642e-12  3471644.8      100573.64      1.1309205e+09  7.262963e-05   5.1774085e-07  7.2111889e-05  2.8587613e+09
    803000   7.0819836e-12  3471639.1      100572.65      1.130919e+09   7.2629632e-05  5.178619e-07   7.211177e-05   2.8587593e+09
    804000   7.090803e-12   3471640.8      100575.18      1.1309187e+09  7.2629632e-05  5.1782616e-07  7.2111805e-05  2.8587597e+09
    805000   7.0996224e-12  3471648.5      100581.7       1.1309191e+09  7.2629634e-05  5.1766967e-07  7.2111965e-05  2.8587632e+09
    806000   7.1084418e-12  3471647.6      100586.15      1.1309173e+09  7.2629642e-05  5.1769483e-07  7.2111947e-05  2.858764e+09 
    807000   7.1172613e-12  3471656.6      100592.79      1.1309181e+09  7.2629637e-05  5.1750385e-07  7.2112133e-05  2.858767e+09 
    808000   7.1260807e-12  3471667.9      100601.67      1.1309189e+09  7.2629643e-05  5.1727457e-07  7.2112368e-05  2.8587719e+09
    809000   7.1349001e-12  3471665.8      100604.33      1.1309173e+09  7.2629637e-05  5.1731257e-07  7.2112324e-05  2.8587703e+09
    810000   7.1437195e-12  3471663.8      100602.01      1.1309174e+09  7.2629639e-05  5.1735604e-07  7.2112283e-05  2.8587696e+09
    811000   7.1525389e-12  3471653.1      100597.13      1.1309155e+09  7.2629634e-05  5.1757287e-07  7.2112061e-05  2.8587647e+09
    812000   7.1613583e-12  3471659        100590.75      1.1309196e+09  7.2629635e-05  5.1745153e-07  7.2112183e-05  2.8587669e+09
    813000   7.1701777e-12  3471650.8      100595.1       1.1309154e+09  7.2629635e-05  5.1762219e-07  7.2112013e-05  2.8587649e+09
    814000   7.1789971e-12  3471656.6      100597.41      1.1309165e+09  7.2629634e-05  5.1749988e-07  7.2112134e-05  2.8587674e+09
    815000   7.1878165e-12  3471662.6      100600.85      1.1309174e+09  7.2629636e-05  5.1737768e-07  7.2112258e-05  2.8587696e+09
    816000   7.1966359e-12  3471664.4      100604.32      1.1309169e+09  7.2629638e-05  5.1734221e-07  7.2112296e-05  2.8587702e+09
    817000   7.2054553e-12  3471669.8      100603.77      1.1309189e+09  7.2629635e-05  5.1722621e-07  7.2112409e-05  2.8587725e+09
    818000   7.2142747e-12  3471657.9      100604.77      1.1309145e+09  7.2629638e-05  5.1747727e-07  7.2112161e-05  2.8587681e+09
    819000   7.2230941e-12  3471669.1      100603.7       1.1309186e+09  7.2629636e-05  5.1724185e-07  7.2112394e-05  2.8587719e+09
    820000   7.2319135e-12  3471663.8      100606.03      1.1309161e+09  7.2629637e-05  5.1735395e-07  7.2112284e-05  2.85877e+09  
    821000   7.2407329e-12  3471668        100607.1       1.1309171e+09  7.2629635e-05  5.1726354e-07  7.2112371e-05  2.8587719e+09
    822000   7.2495524e-12  3471668        100602.61      1.1309186e+09  7.2629634e-05  5.1726414e-07  7.211237e-05   2.8587715e+09
    823000   7.2583718e-12  3471661.1      100601.26      1.1309168e+09  7.2629641e-05  5.174139e-07   7.2112227e-05  2.858769e+09 
    824000   7.2671912e-12  3471663.5      100607.06      1.1309156e+09  7.2629637e-05  5.1735976e-07  7.2112277e-05  2.8587698e+09
    825000   7.2760106e-12  3471657.7      100602.69      1.1309151e+09  7.2629636e-05  5.1748026e-07  7.2112156e-05  2.8587679e+09
    826000   7.28483e-12    3471658.6      100603.17      1.1309153e+09  7.2629642e-05  5.1746761e-07  7.2112174e-05  2.8587691e+09
    827000   7.2936494e-12  3471659.7      100605.41      1.1309149e+09  7.2629643e-05  5.1744518e-07  7.2112198e-05  2.8587702e+09
    828000   7.3024688e-12  3471652.7      100600.26      1.1309143e+09  7.2629649e-05  5.1759617e-07  7.2112053e-05  2.8587679e+09
    829000   7.3112882e-12  3471661.3      100604.24      1.1309158e+09  7.2629647e-05  5.1741533e-07  7.2112231e-05  2.8587704e+09
    830000   7.3201076e-12  3471655.7      100603.08      1.1309143e+09  7.262964e-05   5.1752582e-07  7.2112115e-05  2.8587673e+09
    831000   7.328927e-12   3471656.6      100602.22      1.1309149e+09  7.2629639e-05  5.1750583e-07  7.2112133e-05  2.8587669e+09
    832000   7.3377464e-12  3471657.6      100604.41      1.1309145e+09  7.2629645e-05  5.1749152e-07  7.2112154e-05  2.8587678e+09
    833000   7.3465658e-12  3471660        100604.73      1.1309152e+09  7.2629652e-05  5.1744691e-07  7.2112205e-05  2.8587693e+09
    834000   7.3553852e-12  3471659.8      100606.44      1.1309146e+09  7.2629648e-05  5.1744645e-07  7.2112201e-05  2.8587697e+09
    835000   7.3642046e-12  3471657.5      100606.12      1.1309139e+09  7.2629649e-05  5.1749574e-07  7.2112153e-05  2.8587694e+09
    836000   7.3730241e-12  3471657.8      100608.69      1.1309132e+09  7.2629643e-05  5.1748563e-07  7.2112158e-05  2.8587691e+09
    837000   7.3818435e-12  3471658.8      100607.63      1.1309139e+09  7.2629642e-05  5.1746285e-07  7.211218e-05   2.8587689e+09
    838000   7.3906629e-12  3471663.5      100608.42      1.1309152e+09  7.2629632e-05  5.1735622e-07  7.2112276e-05  2.858769e+09 
    839000   7.3994823e-12  3471667.3      100615.19      1.1309142e+09  7.2629627e-05  5.1727042e-07  7.2112356e-05  2.8587692e+09
    840000   7.4083017e-12  3471674.7      100620.29      1.130915e+09   7.2629626e-05  5.1711631e-07  7.2112509e-05  2.8587713e+09
    841000   7.4171211e-12  3471676.8      100620.42      1.1309156e+09  7.262963e-05   5.1707673e-07  7.2112554e-05  2.8587727e+09
    842000   7.4259405e-12  3471671.5      100617.57      1.1309148e+09  7.2629631e-05  5.1718752e-07  7.2112443e-05  2.858771e+09 
    843000   7.4347599e-12  3471672.9      100614.59      1.1309163e+09  7.2629623e-05  5.1715077e-07  7.2112472e-05  2.8587709e+09
    844000   7.4435793e-12  3471663.8      100613.88      1.1309134e+09  7.2629619e-05  5.1733645e-07  7.2112282e-05  2.8587675e+09
    845000   7.4523987e-12  3471661.7      100611.17      1.1309136e+09  7.262963e-05   5.1739151e-07  7.2112239e-05  2.858768e+09 
    846000   7.4612181e-12  3471655.6      100606.65      1.1309131e+09  7.2629631e-05  5.1751842e-07  7.2112113e-05  2.8587658e+09
    847000   7.4700375e-12  3471657.1      100602.71      1.1309149e+09  7.2629635e-05  5.1749102e-07  7.2112144e-05  2.858767e+09 
    848000   7.4788569e-12  3471651.6      100603.41      1.1309129e+09  7.2629636e-05  5.1760564e-07  7.211203e-05   2.8587649e+09
    849000   7.4876763e-12  3471653.7      100603.82      1.1309134e+09  7.2629629e-05  5.1755571e-07  7.2112073e-05  2.8587653e+09
    850000   7.4964957e-12  3471645        100600.44      1.1309116e+09  7.2629629e-05  5.1773722e-07  7.2111892e-05  2.8587618e+09
    851000   7.5053152e-12  3471656.1      100603.46      1.1309143e+09  7.2629637e-05  5.1751407e-07  7.2112123e-05  2.8587672e+09
    852000   7.5141346e-12  3471644.8      100607.5       1.1309092e+09  7.2629644e-05  5.1775492e-07  7.2111889e-05  2.8587635e+09
    853000   7.522954e-12   3471651.8      100607.62      1.1309115e+09  7.2629647e-05  5.1761367e-07  7.2112033e-05  2.8587672e+09
    854000   7.5317734e-12  3471655.3      100609.73      1.130912e+09   7.2629643e-05  5.175356e-07   7.2112107e-05  2.8587679e+09
    855000   7.5405928e-12  3471654.2      100609.17      1.1309118e+09  7.2629643e-05  5.175591e-07   7.2112084e-05  2.8587667e+09
    856000   7.5494122e-12  3471648.2      100604.88      1.1309112e+09  7.2629642e-05  5.1768345e-07  7.2111958e-05  2.858764e+09 
    857000   7.5582316e-12  3471654        100606.9       1.1309125e+09  7.2629637e-05  5.1755765e-07  7.2112079e-05  2.8587659e+09
    858000   7.567051e-12   3471663.8      100613.2       1.1309137e+09  7.2629634e-05  5.173507e-07   7.2112283e-05  2.8587695e+09
    859000   7.5758704e-12  3471659.4      100611.05      1.1309129e+09  7.262963e-05   5.1743702e-07  7.2112193e-05  2.8587675e+09
    860000   7.5846898e-12  3471660.1      100612.87      1.1309125e+09  7.2629637e-05  5.1743072e-07  7.2112207e-05  2.8587686e+09
    861000   7.5935092e-12  3471660        100614.64      1.1309119e+09  7.2629636e-05  5.1743067e-07  7.2112205e-05  2.8587688e+09
    862000   7.6023286e-12  3471660        100620.06      1.1309101e+09  7.2629643e-05  5.1743869e-07  7.2112204e-05  2.8587699e+09
    863000   7.611148e-12   3471664.1      100621.37      1.130911e+09   7.2629641e-05  5.1735182e-07  7.211229e-05   2.8587713e+09
    864000   7.6199674e-12  3471669.7      100624.15      1.130912e+09   7.2629644e-05  5.1723798e-07  7.2112406e-05  2.8587731e+09
    865000   7.6287868e-12  3471670.1      100623.61      1.1309123e+09  7.2629644e-05  5.1722998e-07  7.2112414e-05  2.8587733e+09
    866000   7.6376063e-12  3471671        100621.96      1.1309132e+09  7.2629634e-05  5.1720082e-07  7.2112433e-05  2.8587735e+09
    867000   7.6464257e-12  3471663.4      100620.19      1.1309112e+09  7.2629631e-05  5.1735607e-07  7.2112275e-05  2.8587706e+09
    868000   7.6552451e-12  3471658.2      100617.03      1.1309105e+09  7.2629634e-05  5.1746719e-07  7.2112166e-05  2.8587679e+09
    869000   7.6640645e-12  3471656.2      100613.92      1.1309109e+09  7.2629639e-05  5.1751333e-07  7.2112126e-05  2.8587673e+09
    870000   7.6728839e-12  3471646.9      100615.17      1.1309073e+09  7.262963e-05   5.176989e-07   7.2111931e-05  2.8587641e+09
    871000   7.6817033e-12  3471650.6      100612.61      1.1309094e+09  7.2629626e-05  5.1761734e-07  7.2112009e-05  2.8587652e+09
    872000   7.6905227e-12  3471650.6      100608.89      1.1309107e+09  7.2629638e-05  5.1762771e-07  7.211201e-05   2.8587659e+09
    873000   7.6993421e-12  3471646.8      100610.23      1.130909e+09   7.2629639e-05  5.177085e-07   7.2111931e-05  2.8587647e+09
    874000   7.7081615e-12  3471646.5      100612.38      1.1309081e+09  7.2629642e-05  5.1771944e-07  7.2111923e-05  2.8587649e+09
    875000   7.7169809e-12  3471654.3      100619.25      1.1309084e+09  7.2629635e-05  5.175496e-07   7.2112085e-05  2.8587671e+09
    876000   7.7258003e-12  3471660.8      100621.46      1.1309099e+09  7.2629632e-05  5.1741108e-07  7.2112221e-05  2.8587687e+09
    877000   7.7346197e-12  3471658.7      100618.68      1.1309101e+09  7.2629627e-05  5.1744845e-07  7.2112178e-05  2.8587666e+09
    878000   7.7434391e-12  3471667        100619.41      1.1309127e+09  7.2629625e-05  5.1727457e-07  7.2112351e-05  2.8587692e+09
    879000   7.7522585e-12  3471661.2      100619.36      1.1309107e+09  7.2629629e-05  5.1740067e-07  7.2112228e-05  2.8587678e+09
    880000   7.7610779e-12  3471653        100619.94      1.1309078e+09  7.2629627e-05  5.1756769e-07  7.2112059e-05  2.8587647e+09
    881000   7.7698974e-12  3471676.3      100690.39      1.1308921e+09  7.2630016e-05  5.1747285e-07  7.2112543e-05  2.8587823e+09
    882000   7.7787168e-12  3471676.2      100693.87      1.1308909e+09  7.2630008e-05  5.1746731e-07  7.2112541e-05  2.8587816e+09
    883000   7.7875362e-12  3471686.5      100695.94      1.1308936e+09  7.2630013e-05  5.1725759e-07  7.2112755e-05  2.8587856e+09
    884000   7.7963556e-12  3471684.9      100695.6       1.1308932e+09  7.2630006e-05  5.1728472e-07  7.2112721e-05  2.8587841e+09
    885000   7.805175e-12   3471684        100696.72      1.1308925e+09  7.263e-05      5.1729765e-07  7.2112703e-05  2.8587834e+09
    886000   7.8139944e-12  3471675.1      100694.7       1.1308902e+09  7.2629991e-05  5.1747336e-07  7.2112518e-05  2.8587795e+09
    887000   7.8228138e-12  3471677.5      100691.44      1.1308921e+09  7.2629992e-05  5.1742439e-07  7.2112568e-05  2.8587799e+09
    888000   7.8316332e-12  3471676.1      100694.84      1.1308905e+09  7.2629986e-05  5.1744684e-07  7.2112539e-05  2.8587785e+09
    889000   7.8404526e-12  3471685.5      100696.18      1.1308932e+09  7.2629986e-05  5.1725276e-07  7.2112734e-05  2.858782e+09 
    890000   7.849272e-12   3471682.2      100702.42      1.13089e+09    7.2629979e-05  5.1731425e-07  7.2112665e-05  2.8587802e+09
    891000   7.8580914e-12  3471699.6      100705.51      1.1308948e+09  7.2629978e-05  5.1695153e-07  7.2113026e-05  2.8587863e+09
    892000   7.8669108e-12  3471698        100705.38      1.1308943e+09  7.2629983e-05  5.1698911e-07  7.2112994e-05  2.8587853e+09
    893000   7.8757302e-12  3471700.6      100709.37      1.1308939e+09  7.262998e-05   5.1693247e-07  7.2113048e-05  2.8587858e+09
    894000   7.8845496e-12  3471698.7      100710.71      1.1308928e+09  7.2629993e-05  5.1698397e-07  7.2113009e-05  2.8587861e+09
    895000   7.893369e-12   3471697.5      100706.56      1.1308938e+09  7.2629986e-05  5.1700282e-07  7.2112983e-05  2.8587851e+09
    896000   7.9021885e-12  3471692.5      100705.51      1.1308924e+09  7.2629993e-05  5.171128e-07   7.211288e-05   2.8587842e+09
    897000   7.9110079e-12  3471683.9      100701.75      1.1308908e+09  7.2629995e-05  5.172945e-07   7.21127e-05    2.8587811e+09
    898000   7.9198273e-12  3471681.9      100699.64      1.1308908e+09  7.2630001e-05  5.1734185e-07  7.2112659e-05  2.8587805e+09
    899000   7.9286467e-12  3471677.7      100700.32      1.1308892e+09  7.2630006e-05  5.174339e-07   7.2112572e-05  2.8587795e+09
    900000   7.9374661e-12  3471674        100697.45      1.1308889e+09  7.2630003e-05  5.1750897e-07  7.2112494e-05  2.8587785e+09
    901000   7.9462855e-12  3471673.8      100699.54      1.1308881e+09  7.2630005e-05  5.1751397e-07  7.2112491e-05  2.858779e+09 
    902000   7.9551049e-12  3471677.3      100700.39      1.130889e+09   7.2630004e-05  5.1744019e-07  7.2112564e-05  2.8587799e+09
    903000   7.9639243e-12  3471680.8      100700.12      1.1308903e+09  7.2630008e-05  5.17372e-07    7.2112636e-05  2.8587807e+09
    904000   7.9727437e-12  3471676.9      100701.42      1.1308886e+09  7.2630001e-05  5.1744571e-07  7.2112556e-05  2.8587786e+09
    905000   7.9815631e-12  3471682.8      100706.31      1.1308889e+09  7.2630004e-05  5.1732657e-07  7.2112677e-05  2.8587814e+09
    906000   7.9903825e-12  3471687.8      100713.55      1.1308882e+09  7.2630001e-05  5.1721799e-07  7.2112783e-05  2.8587828e+09
    907000   7.9992019e-12  3471697        100718.67      1.1308895e+09  7.2630001e-05  5.170289e-07   7.2112972e-05  2.8587859e+09
    908000   8.0080213e-12  3471700.4      100717.01      1.1308912e+09  7.2630009e-05  5.1696579e-07  7.2113044e-05  2.8587871e+09
    909000   8.0168407e-12  3471690.6      100713.84      1.130889e+09   7.2630004e-05  5.1716344e-07  7.211284e-05   2.8587829e+09
    910000   8.0256602e-12  3471689.2      100707.15      1.1308908e+09  7.2630005e-05  5.1719538e-07  7.211281e-05   2.8587832e+09
    911000   8.0344796e-12  3471684.7      100701.03      1.1308913e+09  7.2630004e-05  5.1728737e-07  7.2112717e-05  2.8587818e+09
    912000   8.043299e-12   3471686.1      100701.58      1.1308916e+09  7.2630005e-05  5.172592e-07   7.2112746e-05  2.8587828e+09
    913000   8.0521184e-12  3471674.8      100701.47      1.1308878e+09  7.2629993e-05  5.1748214e-07  7.2112511e-05  2.858778e+09 
    914000   8.0609378e-12  3471678.8      100699.13      1.13089e+09    7.2629995e-05  5.1740068e-07  7.2112594e-05  2.8587794e+09
    915000   8.0697572e-12  3471679.9      100695.25      1.1308916e+09  7.2630011e-05  5.1739378e-07  7.2112617e-05  2.858781e+09 
    916000   8.0785766e-12  3471661.9      100687.38      1.1308882e+09  7.2630011e-05  5.1776711e-07  7.2112244e-05  2.8587752e+09
    917000   8.087396e-12   3471646.2      100681.2       1.130885e+09   7.2630013e-05  5.1809616e-07  7.2111917e-05  2.8587707e+09
    918000   8.0962154e-12  3471647.1      100678.2       1.1308863e+09  7.2630017e-05  5.1807956e-07  7.2111937e-05  2.8587716e+09
    919000   8.1050348e-12  3471649.9      100676.66      1.1308878e+09  7.2630024e-05  5.1803021e-07  7.2111994e-05  2.8587729e+09
    920000   8.1138542e-12  3471655        100676.78      1.1308894e+09  7.2630016e-05  5.1791669e-07  7.2112099e-05  2.8587745e+09
    921000   8.1226736e-12  3471653.6      100675.53      1.1308894e+09  7.263001e-05   5.1793807e-07  7.2112072e-05  2.8587742e+09
    922000   8.131493e-12   3471647.9      100674.35      1.1308879e+09  7.263001e-05   5.1805811e-07  7.2111952e-05  2.8587721e+09
    923000   8.1403124e-12  3471648.9      100673.51      1.1308885e+09  7.2630016e-05  5.1804283e-07  7.2111973e-05  2.858772e+09 
    924000   8.1491318e-12  3471650.2      100668.58      1.1308906e+09  7.2630011e-05  5.1800992e-07  7.2112001e-05  2.8587714e+09
    925000   8.1579513e-12  3471647.2      100673.3       1.130888e+09   7.2629999e-05  5.1806063e-07  7.2111938e-05  2.8587693e+09
    926000   8.1667707e-12  3471652.7      100673.64      1.1308897e+09  7.263001e-05   5.1795674e-07  7.2112053e-05  2.8587723e+09
    927000   8.1755901e-12  3471658.4      100676.17      1.1308908e+09  7.2630009e-05  5.178374e-07   7.2112171e-05  2.8587746e+09
    928000   8.1844095e-12  3471665.1      100683.42      1.1308906e+09  7.2630006e-05  5.1769653e-07  7.211231e-05   2.8587772e+09
    929000   8.1932289e-12  3471670.4      100689.11      1.1308905e+09  7.2630006e-05  5.1758463e-07  7.2112421e-05  2.8587793e+09
    930000   8.2020483e-12  3471666.9      100688.79      1.1308894e+09  7.2630003e-05  5.1765481e-07  7.2112348e-05  2.8587774e+09
    931000   8.2108677e-12  3471672.8      100692.19      1.1308903e+09  7.263e-05      5.1752918e-07  7.211247e-05   2.8587786e+09
    932000   8.2196871e-12  3471672.3      100690.91      1.1308905e+09  7.2630004e-05  5.1754409e-07  7.2112459e-05  2.858778e+09 
    933000   8.2285065e-12  3471675.2      100692.7       1.1308909e+09  7.2630004e-05  5.1748531e-07  7.2112519e-05  2.858779e+09 
    934000   8.2373259e-12  3471671.8      100691.85      1.1308901e+09  7.2630004e-05  5.1755425e-07  7.2112449e-05  2.858778e+09 
    935000   8.2461453e-12  3471665.7      100689.55      1.1308888e+09  7.2630008e-05  5.1768412e-07  7.2112323e-05  2.8587767e+09
    936000   8.2549647e-12  3471671.9      100694.17      1.1308893e+09  7.2630008e-05  5.1755779e-07  7.2112451e-05  2.8587788e+09
    937000   8.2637841e-12  3471680.6      100699.39      1.1308905e+09  7.2630012e-05  5.1738049e-07  7.2112632e-05  2.858782e+09 
    938000   8.2726035e-12  3471682        100700.93      1.1308904e+09  7.2630017e-05  5.1735551e-07  7.2112662e-05  2.858783e+09 
    939000   8.2814229e-12  3471681.5      100703.63      1.1308894e+09  7.2630015e-05  5.1736353e-07  7.2112652e-05  2.858783e+09 
    940000   8.2902424e-12  3471668.3      100700.77      1.1308859e+09  7.2630014e-05  5.1763696e-07  7.2112377e-05  2.8587786e+09
    941000   8.2990618e-12  3471675.6      100705.8       1.1308867e+09  7.2630007e-05  5.1747972e-07  7.2112528e-05  2.8587811e+09
    942000   8.3078812e-12  3471681.8      100709.19      1.1308876e+09  7.2630014e-05  5.1735716e-07  7.2112656e-05  2.8587837e+09
    943000   8.3167006e-12  3471678.7      100708.67      1.1308867e+09  7.2630022e-05  5.1743062e-07  7.2112592e-05  2.8587828e+09
    944000   8.32552e-12    3471679.8      100708.28      1.1308872e+09  7.2630023e-05  5.1740809e-07  7.2112615e-05  2.8587829e+09
    945000   8.3343394e-12  3471676.6      100707.63      1.1308864e+09  7.2630022e-05  5.174738e-07   7.2112548e-05  2.8587814e+09
    946000   8.3431588e-12  3471681.9      100707.6       1.1308882e+09  7.2630016e-05  5.1735678e-07  7.211266e-05   2.8587831e+09
    947000   8.3519782e-12  3471680.5      100709.17      1.1308872e+09  7.2630023e-05  5.1739398e-07  7.2112629e-05  2.8587827e+09
    948000   8.3607976e-12  3471693.8      100714.2       1.1308899e+09  7.2630025e-05  5.1711941e-07  7.2112906e-05  2.8587882e+09
    949000   8.369617e-12   3471683.5      100712.22      1.1308872e+09  7.2630024e-05  5.1733179e-07  7.2112692e-05  2.8587844e+09
    950000   8.3784364e-12  3471683.5      100706.69      1.130889e+09   7.2630017e-05  5.173258e-07   7.2112692e-05  2.8587833e+09
    951000   8.3872558e-12  3471684.9      100705.8       1.1308898e+09  7.2630014e-05  5.172931e-07   7.2112721e-05  2.858783e+09 
    952000   8.3960752e-12  3471683.5      100706.84      1.130889e+09   7.263001e-05   5.1731745e-07  7.2112692e-05  2.8587815e+09
    953000   8.4048946e-12  3471684.1      100706.09      1.1308894e+09  7.2630002e-05  5.1729774e-07  7.2112704e-05  2.8587809e+09
    954000   8.413714e-12   3471680.1      100708.27      1.1308874e+09  7.2630004e-05  5.1738148e-07  7.2112622e-05  2.8587798e+09
    955000   8.4225335e-12  3471682.1      100708.68      1.1308879e+09  7.2630004e-05  5.1733964e-07  7.2112664e-05  2.8587807e+09
    956000   8.4313529e-12  3471688        100712.19      1.1308887e+09  7.2630001e-05  5.1721596e-07  7.2112785e-05  2.8587829e+09
    957000   8.4401723e-12  3471687.2      100717.18      1.1308867e+09  7.2630012e-05  5.1724316e-07  7.2112769e-05  2.8587831e+09
    958000   8.4489917e-12  3471691.5      100717.12      1.1308882e+09  7.2630016e-05  5.1715762e-07  7.2112858e-05  2.8587851e+09
    959000   8.4578111e-12  3471682.6      100715.02      1.1308859e+09  7.2630019e-05  5.1734439e-07  7.2112674e-05  2.858783e+09 
    960000   8.4666305e-12  3471678.3      100714.56      1.1308846e+09  7.2630012e-05  5.1742821e-07  7.2112584e-05  2.858782e+09 
    961000   8.4754499e-12  3471679.3      100711.58      1.130886e+09   7.263e-05      5.1739379e-07  7.2112606e-05  2.8587813e+09
    962000   8.4842693e-12  3471675.7      100705.01      1.130887e+09   7.2629999e-05  5.1746911e-07  7.211253e-05   2.8587787e+09
    963000   8.4930887e-12  3471678.7      100703.3       1.1308885e+09  7.2629999e-05  5.1740591e-07  7.2112593e-05  2.8587788e+09
    964000   8.5019081e-12  3471680.5      100710.12      1.1308868e+09  7.2630002e-05  5.1737229e-07  7.2112629e-05  2.8587795e+09
    965000   8.5107275e-12  3471685.2      100711.67      1.1308879e+09  7.263e-05      5.1727276e-07  7.2112728e-05  2.8587813e+09
    966000   8.5195469e-12  3471689.4      100713.89      1.1308886e+09  7.2629999e-05  5.1718372e-07  7.2112815e-05  2.8587826e+09
    967000   8.5283663e-12  3471693.2      100719.53      1.130888e+09   7.2629996e-05  5.1710107e-07  7.2112895e-05  2.8587841e+09
    968000   8.5371857e-12  3471686.3      100721.99      1.1308848e+09  7.2629994e-05  5.1724269e-07  7.2112751e-05  2.858782e+09 
    969000   8.5460051e-12  3471691.8      100715.63      1.1308888e+09  7.2629996e-05  5.1713163e-07  7.2112864e-05  2.8587843e+09
    970000   8.5548246e-12  3471690.2      100716.43      1.130888e+09   7.2629998e-05  5.1716679e-07  7.2112831e-05  2.8587836e+09
    971000   8.563644e-12   3471679.2      100710.12      1.1308864e+09  7.2630006e-05  5.1740361e-07  7.2112603e-05  2.8587799e+09
    972000   8.5724634e-12  3471677.9      100710.56      1.1308858e+09  7.2629995e-05  5.174199e-07   7.2112575e-05  2.8587782e+09
    973000   8.5812828e-12  3471680.2      100707.04      1.1308878e+09  7.2629995e-05  5.173708e-07   7.2112625e-05  2.8587784e+09
    974000   8.5901022e-12  3471686.9      100709.17      1.1308893e+09  7.2629993e-05  5.172293e-07   7.2112764e-05  2.8587805e+09
    975000   8.5989216e-12  3471687.1      100714.09      1.1308878e+09  7.2630005e-05  5.1723721e-07  7.2112767e-05  2.8587827e+09
    976000   8.607741e-12   3471690.7      100717.17      1.1308879e+09  7.2630009e-05  5.1716804e-07  7.2112841e-05  2.8587851e+09
    977000   8.6165604e-12  3471686.1      100715.8       1.1308868e+09  7.2630012e-05  5.1726556e-07  7.2112746e-05  2.8587845e+09
    978000   8.6253798e-12  3471680.7      100713.42      1.1308858e+09  7.2630026e-05  5.1739198e-07  7.2112634e-05  2.8587842e+09
    979000   8.6341992e-12  3471677.9      100711.4       1.1308856e+09  7.263002e-05   5.1744326e-07  7.2112576e-05  2.8587825e+09
    980000   8.6430186e-12  3471668.1      100707.87      1.1308834e+09  7.2630028e-05  5.1765607e-07  7.2112372e-05  2.858779e+09 
    981000   8.651838e-12   3471675.9      100710.93      1.130885e+09   7.2630026e-05  5.1749111e-07  7.2112535e-05  2.8587818e+09
    982000   8.6606574e-12  3471672.2      100705.38      1.1308857e+09  7.2630015e-05  5.1755782e-07  7.2112457e-05  2.8587793e+09
    983000   8.6694768e-12  3471664.9      100703.27      1.1308839e+09  7.2630009e-05  5.1770331e-07  7.2112306e-05  2.8587761e+09
    984000   8.6782963e-12  3471666.2      100705.6       1.1308836e+09  7.2630006e-05  5.1767367e-07  7.2112332e-05  2.8587764e+09
    985000   8.6871157e-12  3471672.1      100706         1.1308854e+09  7.2630006e-05  5.1754995e-07  7.2112456e-05  2.8587783e+09
    986000   8.6959351e-12  3471664.3      100704.68      1.1308832e+09  7.2630007e-05  5.177139e-07   7.2112294e-05  2.8587752e+09
    987000   8.7047545e-12  3471671        100707.29      1.1308846e+09  7.2630013e-05  5.1757929e-07  7.2112434e-05  2.8587783e+09
    988000   8.7135739e-12  3471667.9      100710.85      1.1308824e+09  7.2630011e-05  5.1764412e-07  7.2112367e-05  2.8587772e+09
    989000   8.7223933e-12  3471670.9      100708.71      1.1308841e+09  7.2630014e-05  5.175835e-07   7.2112431e-05  2.858779e+09 
    990000   8.7312127e-12  3471666.8      100706.29      1.1308835e+09  7.2630018e-05  5.1767301e-07  7.2112345e-05  2.8587781e+09
    991000   8.7400321e-12  3471661.3      100706.6       1.1308816e+09  7.2630021e-05  5.1778963e-07  7.2112232e-05  2.8587769e+09
    992000   8.7488515e-12  3471664.4      100706.24      1.1308827e+09  7.2630016e-05  5.1772075e-07  7.2112295e-05  2.8587774e+09
    993000   8.7576709e-12  3471674.7      100708.29      1.1308855e+09  7.2630011e-05  5.1750036e-07  7.2112511e-05  2.8587798e+09
    994000   8.7664903e-12  3471670        100708.22      1.130884e+09   7.2630005e-05  5.1759288e-07  7.2112413e-05  2.8587765e+09
    995000   8.7753097e-12  3471674.1      100711.36      1.1308843e+09  7.2630011e-05  5.1751334e-07  7.2112498e-05  2.8587783e+09
    996000   8.7841291e-12  3471680.7      100715.98      1.130885e+09   7.2630011e-05  5.1737624e-07  7.2112635e-05  2.8587814e+09
    997000   8.7929485e-12  3471672.7      100713.97      1.130883e+09   7.2630014e-05  5.1754663e-07  7.2112468e-05  2.8587789e+09
    998000   8.8017679e-12  3471679        100721.42      1.1308826e+09  7.2630018e-05  5.1741891e-07  7.2112599e-05  2.8587818e+09
    999000   8.8105874e-12  3471682        100722.36      1.1308833e+09  7.2630019e-05  5.1735757e-07  7.2112661e-05  2.8587835e+09
   1000000   8.8194068e-12  3471672.1      100714.53      1.1308826e+09  7.2630017e-05  5.1756028e-07  7.2112456e-05  2.85878e+09  
   1001000   8.8282262e-12  3471662.5      100714.23      1.1308794e+09  7.2630015e-05  5.1775873e-07  7.2112256e-05  2.8587763e+09
   1002000   8.8370456e-12  3471666        100717.65      1.1308795e+09  7.2630012e-05  5.1768315e-07  7.2112329e-05  2.858777e+09 
   1003000   8.845865e-12   3471682.2      100725.62      1.1308822e+09  7.2630012e-05  5.1734678e-07  7.2112665e-05  2.8587823e+09
   1004000   8.8546844e-12  3471677.8      100721.99      1.130882e+09   7.2630016e-05  5.1744209e-07  7.2112573e-05  2.8587804e+09
   1005000   8.8635038e-12  3471679.2      100720.01      1.1308831e+09  7.2630016e-05  5.1741323e-07  7.2112603e-05  2.8587811e+09
   1006000   8.8723232e-12  3471682.4      100726.43      1.1308821e+09  7.263001e-05   5.1733927e-07  7.211267e-05   2.8587822e+09
   1007000   8.8811426e-12  3471683.1      100724.07      1.1308831e+09  7.2630009e-05  5.1732459e-07  7.2112685e-05  2.8587823e+09
   1008000   8.889962e-12   3471688.4      100729.6       1.130883e+09   7.2630009e-05  5.1721471e-07  7.2112794e-05  2.8587836e+09
   1009000   8.8987814e-12  3471815.1      100811.36      1.1308982e+09  7.2632566e-05  5.1713928e-07  7.2115426e-05  2.8588847e+09
   1010000   8.9076008e-12  3471805        100809.98      1.1308952e+09  7.2632567e-05  5.1735151e-07  7.2115216e-05  2.8588812e+09
   1011000   8.9164202e-12  3471807.3      100809.75      1.1308961e+09  7.2632574e-05  5.1731071e-07  7.2115263e-05  2.8588829e+09
   1012000   8.9252396e-12  3471800.5      100807.62      1.1308945e+09  7.263257e-05   5.1744717e-07  7.2115123e-05  2.8588805e+09
   1013000   8.934059e-12   3471800.3      100807.34      1.1308945e+09  7.2632573e-05  5.1745408e-07  7.2115119e-05  2.8588809e+09
   1014000   8.9428785e-12  3471798.8      100805.58      1.1308946e+09  7.263257e-05   5.1748286e-07  7.2115087e-05  2.8588795e+09
   1015000   8.9516979e-12  3471801.4      100806.85      1.1308951e+09  7.2632577e-05  5.1743495e-07  7.2115142e-05  2.858881e+09 
   1016000   8.9605173e-12  3471805.7      100806.43      1.1308967e+09  7.2632569e-05  5.17338e-07    7.2115231e-05  2.8588823e+09
   1017000   8.9693367e-12  3471796.1      100801.39      1.1308951e+09  7.2632572e-05  5.1753975e-07  7.2115032e-05  2.8588789e+09
   1018000   8.9781561e-12  3471788.2      100795.23      1.1308945e+09  7.2632572e-05  5.1770349e-07  7.2114868e-05  2.8588758e+09
   1019000   8.9869755e-12  3471784        100791.71      1.1308943e+09  7.2632578e-05  5.1779702e-07  7.2114781e-05  2.8588747e+09
   1020000   8.9957949e-12  3471777.8      100788.05      1.1308934e+09  7.263258e-05   5.1792948e-07  7.2114651e-05  2.8588726e+09
   1021000   9.0046143e-12  3471783.7      100787.33      1.1308957e+09  7.263258e-05   5.178052e-07   7.2114775e-05  2.8588747e+09
   1022000   9.0134337e-12  3471782.1      100789.35      1.1308944e+09  7.2632583e-05  5.1784237e-07  7.2114741e-05  2.8588741e+09
   1023000   9.0222531e-12  3471795        100795.57      1.1308967e+09  7.2632582e-05  5.1757353e-07  7.2115008e-05  2.8588787e+09
   1024000   9.0310725e-12  3471794.3      100797.65      1.1308958e+09  7.2632582e-05  5.1758806e-07  7.2114994e-05  2.8588788e+09
   1025000   9.0398919e-12  3471788.5      100800.49      1.1308928e+09  7.2632581e-05  5.1770816e-07  7.2114872e-05  2.8588776e+09
   1026000   9.0487113e-12  3471789        100801.01      1.1308929e+09  7.263259e-05   5.1770613e-07  7.2114884e-05  2.858879e+09 
   1027000   9.0575307e-12  3471794.2      100803.21      1.1308939e+09  7.2632587e-05  5.1759536e-07  7.2114991e-05  2.8588804e+09
   1028000   9.0663501e-12  3471792.7      100806.92      1.1308921e+09  7.263259e-05   5.1762805e-07  7.2114962e-05  2.85888e+09  
   1029000   9.0751696e-12  3471792        100807.31      1.1308917e+09  7.2632586e-05  5.1764041e-07  7.2114945e-05  2.8588794e+09
   1030000   9.083989e-12   3471796.3      100807.53      1.1308931e+09  7.2632579e-05  5.175429e-07   7.2115036e-05  2.8588801e+09
   1031000   9.0928084e-12  3471804.1      100813.14      1.1308939e+09  7.2632586e-05  5.1738852e-07  7.2115198e-05  2.8588832e+09
   1032000   9.1016278e-12  3471804.3      100815.54      1.1308931e+09  7.2632586e-05  5.1738423e-07  7.2115202e-05  2.8588827e+09
   1033000   9.1104472e-12  3471807.6      100817.15      1.1308937e+09  7.2632586e-05  5.1731528e-07  7.211527e-05   2.858884e+09 
   1034000   9.1192666e-12  3471803.5      100816.54      1.1308925e+09  7.263259e-05   5.1740525e-07  7.2115185e-05  2.8588837e+09
   1035000   9.128086e-12   3471802.6      100817.97      1.1308917e+09  7.2632595e-05  5.1742929e-07  7.2115166e-05  2.858884e+09 
   1036000   9.1369054e-12  3471811        100824.27      1.1308925e+09  7.2632595e-05  5.172543e-07   7.2115341e-05  2.8588869e+09
   1037000   9.1457248e-12  3471815.4      100821.11      1.130895e+09   7.2632599e-05  5.1716769e-07  7.2115431e-05  2.8588879e+09
   1038000   9.1545442e-12  3471804.7      100817.03      1.1308928e+09  7.2632588e-05  5.1737715e-07  7.211521e-05   2.8588828e+09
   1039000   9.1633636e-12  3471799.4      100812         1.1308927e+09  7.2632575e-05  5.1747536e-07  7.21151e-05    2.8588797e+09
   1040000   9.172183e-12   3471800.8      100808.79      1.1308942e+09  7.2632572e-05  5.1744371e-07  7.2115128e-05  2.8588798e+09
   1041000   9.1810024e-12  3471792.8      100808.18      1.1308917e+09  7.2632583e-05  5.1762044e-07  7.2114962e-05  2.8588776e+09
   1042000   9.1898218e-12  3471795.2      100811.32      1.1308915e+09  7.2632578e-05  5.1756493e-07  7.2115013e-05  2.8588781e+09
   1043000   9.1986412e-12  3471799.9      100816.6       1.1308913e+09  7.263258e-05   5.1746986e-07  7.211511e-05   2.8588807e+09
   1044000   9.2074607e-12  3471798.6      100817.88      1.1308904e+09  7.2632586e-05  5.1750377e-07  7.2115083e-05  2.8588808e+09
   1045000   9.2162801e-12  3471800.3      100818.6       1.1308908e+09  7.2632588e-05  5.1747029e-07  7.2115118e-05  2.8588812e+09
   1046000   9.2250995e-12  3471809.5      100817.9       1.1308941e+09  7.263258e-05   5.1726987e-07  7.2115311e-05  2.8588844e+09
   1047000   9.2339189e-12  3471797.6      100816.26      1.1308906e+09  7.2632579e-05  5.1751687e-07  7.2115062e-05  2.8588804e+09
   1048000   9.2427383e-12  3471797.5      100815.93      1.1308907e+09  7.2632585e-05  5.1752529e-07  7.211506e-05   2.8588808e+09
   1049000   9.2515577e-12  3471800.9      100813.94      1.1308925e+09  7.2632591e-05  5.1746135e-07  7.211513e-05   2.8588818e+09
   1050000   9.2603771e-12  3471801.1      100815.69      1.130892e+09   7.2632594e-05  5.1745941e-07  7.2115134e-05  2.8588817e+09
   1051000   9.2691965e-12  3471804.5      100816.34      1.1308929e+09  7.2632589e-05  5.1738327e-07  7.2115206e-05  2.8588828e+09
   1052000   9.2780159e-12  3471798.4      100819.45      1.1308898e+09  7.2632577e-05  5.1749848e-07  7.2115078e-05  2.8588802e+09
   1053000   9.2868353e-12  3471797.3      100819.33      1.1308895e+09  7.2632576e-05  5.1751942e-07  7.2115056e-05  2.8588796e+09
   1054000   9.2956547e-12  3471802.7      100820.4       1.130891e+09   7.2632569e-05  5.174005e-07   7.2115169e-05  2.858881e+09 
   1055000   9.3044741e-12  3471806.3      100826.95      1.13089e+09    7.2632572e-05  5.1732942e-07  7.2115242e-05  2.8588827e+09
   1056000   9.3132935e-12  3471808.3      100830.62      1.1308894e+09  7.2632577e-05  5.1729193e-07  7.2115285e-05  2.8588841e+09
   1057000   9.3221129e-12  3471811.3      100831.42      1.1308902e+09  7.2632572e-05  5.1722564e-07  7.2115347e-05  2.8588855e+09
   1058000   9.3309324e-12  3471801.6      100830.95      1.1308871e+09  7.263257e-05   5.1742448e-07  7.2115146e-05  2.8588826e+09
   1059000   9.3397518e-12  3471805.2      100827.61      1.1308894e+09  7.2632578e-05  5.1735713e-07  7.2115221e-05  2.858884e+09 
   1060000   9.3485712e-12  3471804.6      100823.99      1.1308904e+09  7.2632577e-05  5.173698e-07   7.2115207e-05  2.8588826e+09
   1061000   9.3573906e-12  3471804.8      100819.45      1.130892e+09   7.2632576e-05  5.1736439e-07  7.2115211e-05  2.858882e+09 
   1062000   9.36621e-12    3471793.8      100816.88      1.1308892e+09  7.2632565e-05  5.1758133e-07  7.2114983e-05  2.858877e+09 
   1063000   9.3750294e-12  3471789.4      100810.71      1.1308897e+09  7.2632557e-05  5.1766628e-07  7.2114891e-05  2.8588751e+09
   1064000   9.3838488e-12  3471787.4      100811.66      1.1308888e+09  7.2632561e-05  5.1771072e-07  7.211485e-05   2.8588747e+09
   1065000   9.3926682e-12  3471789.1      100812.49      1.130889e+09   7.2632565e-05  5.1767976e-07  7.2114886e-05  2.8588759e+09
   1066000   9.4014876e-12  3471786.7      100808.43      1.1308896e+09  7.2632573e-05  5.1773641e-07  7.2114836e-05  2.8588762e+09
   1067000   9.410307e-12   3471774.5      100799.82      1.1308884e+09  7.2632571e-05  5.179881e-07   7.2114583e-05  2.8588721e+09
   1068000   9.4191264e-12  3471768.9      100793.53      1.1308886e+09  7.263257e-05   5.1810354e-07  7.2114466e-05  2.8588702e+09
   1069000   9.4279458e-12  3471769.8      100794.9       1.1308885e+09  7.2632579e-05  5.1809422e-07  7.2114484e-05  2.8588709e+09
   1070000   9.4367652e-12  3471778.3      100800.83      1.1308893e+09  7.2632573e-05  5.1791097e-07  7.2114663e-05  2.8588732e+09
   1071000   9.4455846e-12  3471785.2      100805.91      1.13089e+09    7.2632578e-05  5.1777237e-07  7.2114805e-05  2.8588762e+09
   1072000   9.454404e-12   3471782.1      100805.36      1.1308891e+09  7.2632564e-05  5.1782316e-07  7.211474e-05   2.8588736e+09
   1073000   9.4632235e-12  3471788.5      100810.26      1.1308896e+09  7.2632565e-05  5.1769213e-07  7.2114873e-05  2.8588756e+09
   1074000   9.4720429e-12  3471785.9      100808.76      1.1308892e+09  7.2632569e-05  5.1775029e-07  7.2114819e-05  2.8588745e+09
   1075000   9.4808623e-12  3471800.5      100815.52      1.1308918e+09  7.2632571e-05  5.1744964e-07  7.2115122e-05  2.8588805e+09
   1076000   9.4896817e-12  3471792.6      100816.73      1.1308888e+09  7.2632574e-05  5.1761472e-07  7.2114959e-05  2.8588788e+09
   1077000   9.4985011e-12  3471793.4      100817.51      1.1308888e+09  7.2632583e-05  5.1760776e-07  7.2114975e-05  2.8588804e+09
   1078000   9.5073205e-12  3471794.6      100816.37      1.1308896e+09  7.2632586e-05  5.1758592e-07  7.2115e-05     2.8588807e+09
   1079000   9.5161399e-12  3471798.1      100817.35      1.1308904e+09  7.2632583e-05  5.1751043e-07  7.2115073e-05  2.8588812e+09
   1080000   9.5249593e-12  3471794.5      100818.74      1.1308888e+09  7.2632582e-05  5.1758386e-07  7.2114998e-05  2.8588797e+09
   1081000   9.5337787e-12  3471790.2      100816.9       1.130888e+09   7.2632583e-05  5.1767389e-07  7.211491e-05   2.8588783e+09
   1082000   9.5425981e-12  3471781.8      100813.62      1.1308862e+09  7.2632581e-05  5.1784648e-07  7.2114735e-05  2.8588755e+09
   1083000   9.5514175e-12  3471780        100811.9       1.1308862e+09  7.2632585e-05  5.1788901e-07  7.2114696e-05  2.8588761e+09
   1084000   9.5602369e-12  3471782.9      100814.38      1.1308863e+09  7.2632589e-05  5.1783223e-07  7.2114757e-05  2.858878e+09 
   1085000   9.5690563e-12  3471785.9      100817.47      1.1308863e+09  7.2632588e-05  5.177685e-07   7.2114819e-05  2.8588784e+09
   1086000   9.5778757e-12  3471794.5      100822.7       1.1308874e+09  7.2632583e-05  5.1758578e-07  7.2114997e-05  2.8588809e+09
   1087000   9.5866951e-12  3471796.7      100826.27      1.130887e+09   7.2632577e-05  5.1753255e-07  7.2115045e-05  2.8588811e+09
   1088000   9.5955146e-12  3471799.2      100826.38      1.1308878e+09  7.2632573e-05  5.1747635e-07  7.2115096e-05  2.8588815e+09
   1089000   9.604334e-12   3471800.9      100820.45      1.1308903e+09  7.2632573e-05  5.1744234e-07  7.2115131e-05  2.8588818e+09
   1090000   9.6131534e-12  3471785.1      100815.48      1.1308867e+09  7.2632576e-05  5.1777241e-07  7.2114804e-05  2.8588766e+09
   1091000   9.6219728e-12  3471781.2      100812.89      1.1308863e+09  7.2632579e-05  5.1785675e-07  7.2114722e-05  2.8588765e+09
   1092000   9.6307922e-12  3471783.6      100813.19      1.130887e+09   7.263258e-05   5.17808e-07    7.2114772e-05  2.8588779e+09
   1093000   9.6396116e-12  3471786.7      100814.53      1.1308876e+09  7.2632585e-05  5.1774983e-07  7.2114835e-05  2.858879e+09 
   1094000   9.648431e-12   3471777.9      100809.95      1.1308861e+09  7.2632582e-05  5.1792909e-07  7.2114653e-05  2.8588744e+09
   1095000   9.6572504e-12  3471782        100808.33      1.1308881e+09  7.2632577e-05  5.1783782e-07  7.2114739e-05  2.8588752e+09
   1096000   9.6660698e-12  3471781.8      100809.08      1.1308878e+09  7.2632568e-05  5.1783321e-07  7.2114735e-05  2.8588752e+09
   1097000   9.6748892e-12  3471781.7      100811.93      1.1308868e+09  7.2632573e-05  5.1784137e-07  7.2114732e-05  2.8588759e+09
   1098000   9.6837086e-12  3471781.4      100811.83      1.1308867e+09  7.2632579e-05  5.1785347e-07  7.2114726e-05  2.8588766e+09
   1099000   9.692528e-12   3471778.7      100811.03      1.130886e+09   7.2632576e-05  5.1790659e-07  7.2114669e-05  2.8588758e+09
   1100000   9.7013474e-12  3471787.7      100820.46      1.1308859e+09  7.2632578e-05  5.1772179e-07  7.2114856e-05  2.8588798e+09
   1101000   9.7101668e-12  3471796.7      100825.29      1.1308873e+09  7.2632579e-05  5.1753526e-07  7.2115044e-05  2.8588832e+09
   1102000   9.7189862e-12  3471794.5      100826.66      1.1308861e+09  7.2632577e-05  5.175794e-07   7.2114997e-05  2.8588819e+09
   1103000   9.7278057e-12  3471796.7      100822.76      1.1308882e+09  7.2632575e-05  5.1752986e-07  7.2115045e-05  2.8588823e+09
   1104000   9.7366251e-12  3471789        100820.37      1.1308864e+09  7.2632573e-05  5.1768879e-07  7.2114885e-05  2.8588787e+09
   1105000   9.7454445e-12  3471794.3      100822.16      1.1308876e+09  7.2632574e-05  5.1758024e-07  7.2114994e-05  2.8588803e+09
   1106000   9.7542639e-12  3471797.6      100824.91      1.1308878e+09  7.2632568e-05  5.1750515e-07  7.2115063e-05  2.8588811e+09
   1107000   9.7630833e-12  3471799.6      100827.94      1.1308874e+09  7.2632571e-05  5.1746579e-07  7.2115105e-05  2.8588822e+09
   1108000   9.7719027e-12  3471801.5      100833.86      1.1308861e+09  7.2632573e-05  5.174299e-07   7.2115143e-05  2.8588834e+09
   1109000   9.7807221e-12  3471802.2      100831.86      1.130887e+09   7.2632579e-05  5.1742054e-07  7.2115159e-05  2.8588839e+09
   1110000   9.7895415e-12  3471802.9      100836.8       1.1308856e+09  7.2632581e-05  5.1740899e-07  7.2115172e-05  2.858884e+09 
   1111000   9.7983609e-12  3471800.4      100836.35      1.1308849e+09  7.2632583e-05  5.1746203e-07  7.2115121e-05  2.8588832e+09
   1112000   9.8071803e-12  3471802.5      100837.41      1.1308852e+09  7.2632588e-05  5.1742426e-07  7.2115163e-05  2.8588854e+09
   1113000   9.8159997e-12  3471792.8      100834.71      1.1308829e+09  7.2632593e-05  5.1763038e-07  7.2114962e-05  2.8588827e+09
   1114000   9.8248191e-12  3471800        100830.1       1.1308868e+09  7.26326e-05    5.1748786e-07  7.2115112e-05  2.8588861e+09
   1115000   9.8336385e-12  3471792.4      100830.34      1.1308842e+09  7.2632604e-05  5.1765e-07     7.2114954e-05  2.858884e+09 
   1116000   9.8424579e-12  3471791.7      100832.17      1.1308833e+09  7.2632602e-05  5.1766224e-07  7.2114939e-05  2.8588836e+09
   1117000   9.8512773e-12  3471798.8      100834.2       1.130885e+09   7.2632597e-05  5.1750967e-07  7.2115088e-05  2.8588857e+09
   1118000   9.8600968e-12  3471797.9      100835.3       1.1308844e+09  7.2632592e-05  5.1752414e-07  7.2115068e-05  2.8588847e+09
   1119000   9.8689162e-12  3471790.6      100832.75      1.1308828e+09  7.2632597e-05  5.1768036e-07  7.2114917e-05  2.8588824e+09
   1120000   9.8777356e-12  3471791.3      100831.43      1.1308835e+09  7.2632603e-05  5.1767023e-07  7.2114933e-05  2.8588836e+09
   1121000   9.886555e-12   3471785.2      100831.39      1.1308814e+09  7.2632604e-05  5.1780031e-07  7.2114804e-05  2.8588815e+09
   1122000   9.8953744e-12  3471791.8      100831.93      1.1308835e+09  7.2632611e-05  5.1766811e-07  7.2114943e-05  2.8588847e+09
   1123000   9.9041938e-12  3471783.9      100831.87      1.1308808e+09  7.2632615e-05  5.1783632e-07  7.2114779e-05  2.8588817e+09
   1124000   9.9130132e-12  3471791.7      100830.83      1.1308838e+09  7.2632606e-05  5.1766709e-07  7.2114939e-05  2.858883e+09 
   1125000   9.9218326e-12  3471799.1      100834.66      1.130885e+09   7.2632605e-05  5.1751273e-07  7.2115093e-05  2.8588855e+09
   1126000   9.930652e-12   3471797.2      100837.75      1.1308833e+09  7.2632605e-05  5.1755113e-07  7.2115054e-05  2.8588852e+09
   1127000   9.9394714e-12  3471799.6      100837.73      1.1308841e+09  7.2632607e-05  5.175026e-07   7.2115105e-05  2.8588868e+09
   1128000   9.9482908e-12  3471800.2      100839.68      1.1308837e+09  7.2632604e-05  5.1748699e-07  7.2115117e-05  2.8588867e+09
   1129000   9.9571102e-12  3471804.6      100840.63      1.1308849e+09  7.2632604e-05  5.1739511e-07  7.2115209e-05  2.858888e+09 
   1130000   9.9659296e-12  3471800        100838.19      1.1308841e+09  7.2632611e-05  5.1749863e-07  7.2115113e-05  2.8588872e+09
   1131000   9.974749e-12   3471797.3      100835.8       1.130884e+09   7.2632606e-05  5.1755e-07     7.2115056e-05  2.858886e+09 
   1132000   9.9835685e-12  3471800        100838.25      1.1308841e+09  7.2632614e-05  5.1750103e-07  7.2115113e-05  2.858888e+09 
   1133000   9.9923879e-12  3471799        100839.21      1.1308834e+09  7.2632614e-05  5.1752355e-07  7.2115091e-05  2.8588875e+09
   1134000   1.0001207e-11  3471798.7      100842.16      1.1308823e+09  7.2632604e-05  5.1751925e-07  7.2115084e-05  2.8588866e+09
   1135000   1.0010027e-11  3471796.4      100838.98      1.1308826e+09  7.26326e-05    5.1756263e-07  7.2115037e-05  2.858885e+09 
   1136000   1.0018846e-11  3471784.8      100833.2       1.1308807e+09  7.2632603e-05  5.1780564e-07  7.2114797e-05  2.8588805e+09
   1137000   1.0027665e-11  3471790.6      100830.37      1.1308836e+09  7.2632605e-05  5.1768846e-07  7.2114916e-05  2.8588824e+09
   1138000   1.0036485e-11  3471795.1      100831.07      1.1308849e+09  7.263261e-05   5.1759917e-07  7.2115011e-05  2.8588847e+09
   1139000   1.0045304e-11  3471797.1      100832.81      1.1308849e+09  7.2632608e-05  5.1755647e-07  7.2115051e-05  2.8588854e+09
   1140000   1.0054124e-11  3471797.5      100836.83      1.1308837e+09  7.2632608e-05  5.175476e-07   7.211506e-05   2.8588862e+09
   1141000   1.0062943e-11  3471785.9      100833.49      1.1308809e+09  7.2632608e-05  5.177892e-07   7.2114818e-05  2.8588811e+09
   1142000   1.0071763e-11  3471789.6      100836.44      1.1308812e+09  7.2632601e-05  5.1770533e-07  7.2114896e-05  2.8588817e+09
   1143000   1.0080582e-11  3471797.8      100834.62      1.1308846e+09  7.2632598e-05  5.1753233e-07  7.2115066e-05  2.8588839e+09
   1144000   1.0089401e-11  3471793.8      100836.22      1.1308827e+09  7.2632593e-05  5.1760826e-07  7.2114984e-05  2.8588821e+09
   1145000   1.0098221e-11  3471794.8      100836.6       1.1308829e+09  7.2632595e-05  5.1759155e-07  7.2115003e-05  2.8588836e+09
   1146000   1.010704e-11   3471791.7      100837.13      1.1308817e+09  7.2632598e-05  5.1765797e-07  7.211494e-05   2.8588837e+09
   1147000   1.011586e-11   3471795.3      100838.79      1.1308823e+09  7.2632596e-05  5.1758261e-07  7.2115014e-05  2.8588851e+09
   1148000   1.0124679e-11  3471803.1      100840.98      1.1308842e+09  7.2632597e-05  5.1741986e-07  7.2115177e-05  2.8588876e+09
   1149000   1.0133498e-11  3471788.7      100837.72      1.1308805e+09  7.2632597e-05  5.1771962e-07  7.2114878e-05  2.8588821e+09
   1150000   1.0142318e-11  3471791.8      100832.45      1.1308833e+09  7.2632595e-05  5.1765296e-07  7.2114942e-05  2.8588835e+09
   1151000   1.0151137e-11  3471784.5      100829.5       1.1308818e+09  7.2632592e-05  5.1780182e-07  7.211479e-05   2.8588805e+09
   1152000   1.0159957e-11  3471781.9      100831.39      1.1308803e+09  7.2632599e-05  5.1786175e-07  7.2114737e-05  2.8588799e+09
   1153000   1.0168776e-11  3471777.1      100826.95      1.1308802e+09  7.2632591e-05  5.1795442e-07  7.2114637e-05  2.8588778e+09
   1154000   1.0177595e-11  3471775.6      100828.12      1.1308793e+09  7.263259e-05   5.1798527e-07  7.2114605e-05  2.8588769e+09
   1155000   1.0186415e-11  3471789.7      100832.02      1.1308827e+09  7.2632594e-05  5.1769597e-07  7.2114898e-05  2.8588821e+09
   1156000   1.0195234e-11  3471789.8      100834.72      1.1308818e+09  7.263259e-05   5.1769053e-07  7.21149e-05    2.8588814e+09
   1157000   1.0204054e-11  3471790.1      100834.87      1.1308819e+09  7.2632597e-05  5.1769042e-07  7.2114907e-05  2.858882e+09 
   1158000   1.0212873e-11  3471784.1      100833.7       1.1308803e+09  7.2632589e-05  5.178076e-07   7.2114781e-05  2.8588795e+09
   1159000   1.0221692e-11  3471776.4      100826.3       1.1308802e+09  7.2632597e-05  5.1797464e-07  7.2114622e-05  2.8588775e+09
   1160000   1.0230512e-11  3471784        100832.39      1.1308807e+09  7.2632604e-05  5.1782297e-07  7.2114781e-05  2.8588808e+09
   1161000   1.0239331e-11  3471781.3      100830.55      1.1308804e+09  7.26326e-05    5.1787627e-07  7.2114724e-05  2.8588794e+09
   1162000   1.0248151e-11  3471782.8      100827.35      1.130882e+09   7.2632603e-05  5.1784712e-07  7.2114755e-05  2.8588799e+09
   1163000   1.025697e-11   3471790.6      100833.11      1.1308827e+09  7.2632607e-05  5.1768977e-07  7.2114918e-05  2.858883e+09 
   1164000   1.0265789e-11  3471791.8      100834.67      1.1308826e+09  7.2632609e-05  5.1766657e-07  7.2114943e-05  2.8588826e+09
   1165000   1.0274609e-11  3471793.3      100832.83      1.1308836e+09  7.2632599e-05  5.1762656e-07  7.2114972e-05  2.8588819e+09
   1166000   1.0283428e-11  3471790.5      100835.59      1.1308818e+09  7.2632595e-05  5.1767999e-07  7.2114915e-05  2.8588816e+09
   1167000   1.0292248e-11  3471785.4      100834.49      1.1308804e+09  7.2632591e-05  5.1778294e-07  7.2114808e-05  2.8588803e+09
   1168000   1.0301067e-11  3471778.9      100827.71      1.1308805e+09  7.2632596e-05  5.1792168e-07  7.2114674e-05  2.8588781e+09
   1169000   1.0309887e-11  3471779.4      100827.4       1.1308808e+09  7.2632604e-05  5.1791926e-07  7.2114685e-05  2.8588785e+09
   1170000   1.0318706e-11  3471782.4      100830.77      1.1308807e+09  7.2632606e-05  5.1786012e-07  7.2114746e-05  2.8588793e+09
   1171000   1.0327525e-11  3471784.6      100828.88      1.1308821e+09  7.2632602e-05  5.1781047e-07  7.2114792e-05  2.85888e+09  
   1172000   1.0336345e-11  3471785.6      100830.37      1.1308819e+09  7.26326e-05    5.1778647e-07  7.2114813e-05  2.858881e+09 
   1173000   1.0345164e-11  3471780.9      100832.66      1.1308796e+09  7.2632593e-05  5.1787804e-07  7.2114715e-05  2.8588792e+09
   1174000   1.0353984e-11  3471776        100828.17      1.1308794e+09  7.2632597e-05  5.1798366e-07  7.2114613e-05  2.8588772e+09
   1175000   1.0362803e-11  3471786.8      100826.89      1.1308835e+09  7.2632597e-05  5.1775942e-07  7.2114837e-05  2.8588806e+09
   1176000   1.0371622e-11  3471785.6      100830.42      1.1308819e+09  7.2632599e-05  5.1778696e-07  7.2114812e-05  2.8588801e+09
   1177000   1.0380442e-11  3471786.9      100828.13      1.1308831e+09  7.2632597e-05  5.1775634e-07  7.211484e-05   2.8588811e+09
   1178000   1.0389261e-11  3471775.1      100831.24      1.1308781e+09  7.2632595e-05  5.1800002e-07  7.2114595e-05  2.8588775e+09
   1179000   1.0398081e-11  3471781.7      100830.07      1.1308807e+09  7.2632597e-05  5.1786404e-07  7.2114733e-05  2.8588803e+09
   1180000   1.04069e-11    3471783.9      100828.64      1.1308819e+09  7.2632594e-05  5.1781499e-07  7.2114779e-05  2.8588805e+09
   1181000   1.0415719e-11  3471774.6      100825.9       1.1308797e+09  7.2632593e-05  5.1800791e-07  7.2114585e-05  2.8588768e+09
   1182000   1.0424539e-11  3471777.1      100826.63      1.1308803e+09  7.2632591e-05  5.179544e-07   7.2114637e-05  2.8588774e+09
   1183000   1.0433358e-11  3471775.3      100825.98      1.1308799e+09  7.2632592e-05  5.1799343e-07  7.2114599e-05  2.8588768e+09
   1184000   1.0442178e-11  3471775.1      100827.46      1.1308794e+09  7.2632594e-05  5.1799833e-07  7.2114596e-05  2.8588774e+09
   1185000   1.0450997e-11  3471776.9      100825.73      1.1308805e+09  7.2632589e-05  5.1795766e-07  7.2114631e-05  2.8588782e+09
   1186000   1.0459816e-11  3471766.8      100824.06      1.1308777e+09  7.2632596e-05  5.1817304e-07  7.2114423e-05  2.8588752e+09
   1187000   1.0468636e-11  3471767        100824.78      1.1308775e+09  7.2632601e-05  5.1817366e-07  7.2114427e-05  2.8588752e+09
   1188000   1.0477455e-11  3471774.5      100827.68      1.1308791e+09  7.26326e-05    5.180175e-07   7.2114582e-05  2.8588772e+09
   1189000   1.0486275e-11  3471781.1      100830.44      1.1308804e+09  7.2632602e-05  5.1788088e-07  7.2114721e-05  2.8588794e+09
   1190000   1.0495094e-11  3471789.5      100832.32      1.1308825e+09  7.2632601e-05  5.1770731e-07  7.2114894e-05  2.8588823e+09
   1191000   1.0503913e-11  3471781.3      100832.75      1.1308796e+09  7.2632603e-05  5.1787999e-07  7.2114723e-05  2.8588796e+09
   1192000   1.0512733e-11  3471787        100833.68      1.1308813e+09  7.2632598e-05  5.1775456e-07  7.2114843e-05  2.8588819e+09
   1193000   1.0521552e-11  3471787.9      100834.35      1.1308813e+09  7.2632608e-05  5.1774798e-07  7.211486e-05   2.8588831e+09
   1194000   1.0530372e-11  3471788        100839.39      1.1308797e+09  7.2632605e-05  5.1774208e-07  7.2114863e-05  2.8588822e+09
   1195000   1.0539191e-11  3471797.1      100841.67      1.130882e+09   7.2632599e-05  5.1754721e-07  7.2115052e-05  2.8588848e+09
   1196000   1.054801e-11   3471798        100840.72      1.1308826e+09  7.2632604e-05  5.1753238e-07  7.2115072e-05  2.8588855e+09
   1197000   1.055683e-11   3471789        100838.12      1.1308804e+09  7.2632606e-05  5.1772326e-07  7.2114883e-05  2.8588825e+09
   1198000   1.0565649e-11  3471791.2      100836.95      1.1308816e+09  7.2632606e-05  5.1767662e-07  7.211493e-05   2.8588837e+09
   1199000   1.0574469e-11  3471790        100840.61      1.1308799e+09  7.2632604e-05  5.1770024e-07  7.2114904e-05  2.8588832e+09
   1200000   1.0583288e-11  3471779.9      100833.41      1.130879e+09   7.2632605e-05  5.1790982e-07  7.2114695e-05  2.8588793e+09
   1201000   1.0592108e-11  3471784        100836.47      1.1308793e+09  7.26326e-05    5.1781912e-07  7.2114781e-05  2.8588807e+09
   1202000   1.0600927e-11  3471786.9      100837.22      1.1308801e+09  7.2632611e-05  5.1776961e-07  7.2114841e-05  2.8588822e+09
   1203000   1.0609746e-11  3471799.5      100841.71      1.1308828e+09  7.2632613e-05  5.1751097e-07  7.2115102e-05  2.8588866e+09
   1204000   1.0618566e-11  3471799.3      100843.03      1.1308823e+09  7.2632612e-05  5.175139e-07   7.2115098e-05  2.8588864e+09
   1205000   1.0627385e-11  3471794.8      100845.96      1.1308798e+09  7.2632609e-05  5.1760435e-07  7.2115004e-05  2.858885e+09 
   1206000   1.0636205e-11  3471794.5      100844.16      1.1308803e+09  7.2632603e-05  5.1760513e-07  7.2114997e-05  2.8588845e+09
   1207000   1.0645024e-11  3471792.5      100840.48      1.1308808e+09  7.2632606e-05  5.1764922e-07  7.2114956e-05  2.8588835e+09
   1208000   1.0653843e-11  3471792.8      100840.92      1.1308808e+09  7.263261e-05   5.1764841e-07  7.2114962e-05  2.8588839e+09
   1209000   1.0662663e-11  3471785.8      100838.02      1.1308794e+09  7.2632616e-05  5.1779838e-07  7.2114818e-05  2.8588817e+09
   1210000   1.0671482e-11  3471792.1      100838.44      1.1308814e+09  7.2632611e-05  5.1766256e-07  7.2114949e-05  2.8588832e+09
   1211000   1.0680302e-11  3471792.5      100839.92      1.130881e+09   7.2632612e-05  5.1765421e-07  7.2114957e-05  2.8588836e+09
   1212000   1.0689121e-11  3471790.7      100844.32      1.130879e+09   7.2632607e-05  5.1768697e-07  7.211492e-05   2.8588823e+09
   1213000   1.069794e-11   3471794.6      100844.94      1.13088e+09    7.2632613e-05  5.1761413e-07  7.2114999e-05  2.8588836e+09
   1214000   1.070676e-11   3471788.7      100845.53      1.1308779e+09  7.263261e-05   5.1773172e-07  7.2114878e-05  2.8588815e+09
   1215000   1.0715579e-11  3471788.8      100845.72      1.1308779e+09  7.2632603e-05  5.1772217e-07  7.2114881e-05  2.8588814e+09
   1216000   1.0724399e-11  3471798.7      100852.03      1.130879e+09   7.2632601e-05  5.1751605e-07  7.2115085e-05  2.8588853e+09
   1217000   1.0733218e-11  3471798.6      100851.83      1.1308791e+09  7.2632603e-05  5.1751925e-07  7.2115084e-05  2.8588847e+09
   1218000   1.0742037e-11  3471796.3      100852.45      1.1308781e+09  7.2632602e-05  5.1756643e-07  7.2115036e-05  2.8588826e+09
   1219000   1.0750857e-11  3471804.1      100857.37      1.1308791e+09  7.2632603e-05  5.1740606e-07  7.2115197e-05  2.8588856e+09
   1220000   1.0759676e-11  3471799.2      100855.18      1.1308782e+09  7.2632602e-05  5.1750523e-07  7.2115096e-05  2.8588841e+09
   1221000   1.0768496e-11  3471790.1      100851.87      1.1308762e+09  7.2632594e-05  5.1768723e-07  7.2114906e-05  2.8588808e+09
   1222000   1.0777315e-11  3471790.3      100853         1.1308759e+09  7.2632596e-05  5.1768597e-07  7.2114911e-05  2.8588819e+09
   1223000   1.0786134e-11  3471794.5      100852.32      1.1308775e+09  7.2632602e-05  5.1760396e-07  7.2114998e-05  2.8588845e+09
   1224000   1.0794954e-11  3471784.6      100845.35      1.1308766e+09  7.2632602e-05  5.178087e-07   7.2114793e-05  2.8588807e+09
   1225000   1.0803773e-11  3471787.7      100847.2       1.130877e+09   7.2632606e-05  5.177492e-07   7.2114857e-05  2.8588814e+09
   1226000   1.0812593e-11  3471782.5      100844.62      1.1308761e+09  7.2632608e-05  5.1785842e-07  7.211475e-05   2.8588789e+09
   1227000   1.0821412e-11  3471790        100840.3       1.1308801e+09  7.2632603e-05  5.1769776e-07  7.2114905e-05  2.8588808e+09
   1228000   1.0830231e-11  3471779.8      100839.21      1.130877e+09   7.2632604e-05  5.1791069e-07  7.2114693e-05  2.8588771e+09
   1229000   1.0839051e-11  3471778.8      100835.32      1.130878e+09   7.2632608e-05  5.1793571e-07  7.2114672e-05  2.858877e+09 
   1230000   1.084787e-11   3471783.5      100834.61      1.1308798e+09  7.2632603e-05  5.1783347e-07  7.2114769e-05  2.8588781e+09
   1231000   1.085669e-11   3471776.8      100833.19      1.130878e+09   7.263261e-05   5.1797898e-07  7.2114631e-05  2.8588763e+09
   1232000   1.0865509e-11  3471777.9      100836.04      1.1308774e+09  7.2632609e-05  5.1795626e-07  7.2114652e-05  2.858877e+09 
   1233000   1.0874329e-11  3471778        100844.88      1.1308745e+09  7.2632597e-05  5.1794126e-07  7.2114656e-05  2.8588764e+09
   1234000   1.0883148e-11  3471785.6      100849.39      1.1308755e+09  7.2632595e-05  5.1778258e-07  7.2114812e-05  2.8588791e+09
   1235000   1.0891967e-11  3471784.1      100846.36      1.1308761e+09  7.2632597e-05  5.1781372e-07  7.2114783e-05  2.8588784e+09
   1236000   1.0900787e-11  3471780.2      100846.83      1.1308746e+09  7.2632603e-05  5.1790218e-07  7.21147e-05    2.8588776e+09
   1237000   1.0909606e-11  3471783.5      100849.56      1.1308748e+09  7.263261e-05   5.1783954e-07  7.211477e-05   2.8588796e+09
   1238000   1.0918426e-11  3471788.2      100853.55      1.130875e+09   7.2632609e-05  5.1774083e-07  7.2114868e-05  2.8588812e+09
   1239000   1.0927245e-11  3471789.8      100856.06      1.1308747e+09  7.2632601e-05  5.1770056e-07  7.2114901e-05  2.8588814e+09
   1240000   1.0936064e-11  3471789.7      100855.66      1.1308748e+09  7.2632609e-05  5.1771137e-07  7.2114897e-05  2.8588819e+09
   1241000   1.0944884e-11  3471790.2      100860.33      1.1308734e+09  7.2632604e-05  5.1769523e-07  7.2114909e-05  2.8588814e+09
   1242000   1.0953703e-11  3471785.6      100858.14      1.1308726e+09  7.2632604e-05  5.1779076e-07  7.2114813e-05  2.85888e+09  
   1243000   1.0962523e-11  3471793.7      100861.3       1.1308743e+09  7.26326e-05    5.17619e-07    7.2114981e-05  2.8588834e+09
   1244000   1.0971342e-11  3471786.4      100862.43      1.1308715e+09  7.2632598e-05  5.1776821e-07  7.211483e-05   2.8588807e+09
   1245000   1.0980161e-11  3471794.5      100864.63      1.1308734e+09  7.2632593e-05  5.1759365e-07  7.2114999e-05  2.8588827e+09
   1246000   1.0988981e-11  3471793.8      100863.09      1.1308737e+09  7.2632586e-05  5.1760294e-07  7.2114983e-05  2.8588814e+09
   1247000   1.09978e-11    3471790.1      100857.2       1.1308744e+09  7.263259e-05   5.1768256e-07  7.2114907e-05  2.8588802e+09
   1248000   1.100662e-11   3471783.2      100854.13      1.1308731e+09  7.2632589e-05  5.1782601e-07  7.2114763e-05  2.8588778e+09
   1249000   1.1015439e-11  3471789.7      100857.37      1.1308742e+09  7.2632586e-05  5.1768718e-07  7.2114898e-05  2.8588802e+09
   1250000   1.1024258e-11  3471795.4      100864.68      1.1308737e+09  7.2632586e-05  5.1756869e-07  7.2115017e-05  2.858882e+09 
   1251000   1.1033078e-11  3471797.1      100865.94      1.1308739e+09  7.2632584e-05  5.1753076e-07  7.2115053e-05  2.8588816e+09
   1252000   1.1041897e-11  3471797.9      100865.89      1.1308741e+09  7.2632585e-05  5.1751605e-07  7.2115068e-05  2.858881e+09 
   1253000   1.1050717e-11  3471793.5      100865.82      1.1308727e+09  7.263259e-05   5.176122e-07   7.2114978e-05  2.8588799e+09
   1254000   1.1059536e-11  3471787.1      100866.01      1.1308705e+09  7.2632588e-05  5.1774299e-07  7.2114845e-05  2.858878e+09 
   1255000   1.1068355e-11  3471797.1      100865.31      1.1308741e+09  7.2632588e-05  5.175357e-07   7.2115052e-05  2.858882e+09 
   1256000   1.1077175e-11  3471798.2      100868.71      1.1308733e+09  7.2632588e-05  5.1751375e-07  7.2115075e-05  2.8588823e+09
   1257000   1.1085994e-11  3471797.8      100868.93      1.1308731e+09  7.2632591e-05  5.1752338e-07  7.2115067e-05  2.8588822e+09
   1258000   1.1094814e-11  3471799        100866.42      1.1308743e+09  7.2632598e-05  5.175065e-07   7.2115092e-05  2.858883e+09 
   1259000   1.1103633e-11  3471794.2      100861.93      1.1308742e+09  7.2632595e-05  5.1760384e-07  7.2114991e-05  2.8588808e+09
   1260000   1.1112453e-11  3471797.5      100871.48      1.1308721e+09  7.2632595e-05  5.1753577e-07  7.2115059e-05  2.8588821e+09
   1261000   1.1121272e-11  3471796.8      100871.58      1.1308719e+09  7.2632598e-05  5.1755138e-07  7.2115047e-05  2.8588817e+09
   1262000   1.1130091e-11  3471796.8      100868.72      1.1308728e+09  7.2632592e-05  5.1754737e-07  7.2115045e-05  2.8588807e+09
   1263000   1.1138911e-11  3471799.4      100871.3       1.1308729e+09  7.2632596e-05  5.1749526e-07  7.2115101e-05  2.8588818e+09
   1264000   1.114773e-11   3471801        100873.84      1.1308725e+09  7.2632598e-05  5.1746493e-07  7.2115133e-05  2.8588827e+09
   1265000   1.115655e-11   3471790.2      100871.97      1.1308695e+09  7.2632593e-05  5.176851e-07   7.2114908e-05  2.8588785e+09
   1266000   1.1165369e-11  3471799.1      100873.58      1.130872e+09   7.2632589e-05  5.1749539e-07  7.2115093e-05  2.8588815e+09
   1267000   1.1174188e-11  3471804.4      100875.91      1.130873e+09   7.2632587e-05  5.1738352e-07  7.2115203e-05  2.8588826e+09
   1268000   1.1183008e-11  3471803.7      100876.51      1.1308725e+09  7.2632581e-05  5.1739206e-07  7.2115189e-05  2.8588811e+09
   1269000   1.1191827e-11  3471813.3      100880.8       1.1308743e+09  7.2632591e-05  5.1720274e-07  7.2115388e-05  2.858885e+09 
   1270000   1.1200647e-11  3471805.5      100880.25      1.1308719e+09  7.263258e-05   5.1735313e-07  7.2115227e-05  2.8588808e+09
   1271000   1.1209466e-11  3471804.4      100888.04      1.1308689e+09  7.2632577e-05  5.1737234e-07  7.2115205e-05  2.8588809e+09
   1272000   1.1218285e-11  3471808.2      100888.55      1.13087e+09    7.2632574e-05  5.1729179e-07  7.2115283e-05  2.8588823e+09
   1273000   1.1227105e-11  3471814        100890         1.1308715e+09  7.2632578e-05  5.1717553e-07  7.2115402e-05  2.8588836e+09
   1274000   1.1235924e-11  3471818.6      100894.69      1.1308715e+09  7.2632568e-05  5.1706925e-07  7.2115499e-05  2.8588842e+09
   1275000   1.1244744e-11  3471820.5      100895.73      1.1308717e+09  7.2632562e-05  5.1702466e-07  7.2115537e-05  2.8588842e+09
   1276000   1.1253563e-11  3471818.9      100896.82      1.1308709e+09  7.2632564e-05  5.1705845e-07  7.2115505e-05  2.858884e+09 
   1277000   1.1262382e-11  3471818.3      100899.8       1.1308696e+09  7.2632564e-05  5.1707122e-07  7.2115492e-05  2.8588845e+09
   1278000   1.1271202e-11  3471820.5      100931.68      1.1308597e+09  7.2632736e-05  5.1719802e-07  7.2115538e-05  2.858889e+09 
   1279000   1.1280021e-11  3471831.6      100934.37      1.1308626e+09  7.2632746e-05  5.169771e-07   7.2115769e-05  2.8588934e+09
   1280000   1.1288841e-11  3471828.2      100934.17      1.1308615e+09  7.2632747e-05  5.1704827e-07  7.2115699e-05  2.8588924e+09
   1281000   1.129766e-11   3471822.6      100932.2       1.1308603e+09  7.2632743e-05  5.1716108e-07  7.2115582e-05  2.8588906e+09
   1282000   1.1306479e-11  3471818        100929.17      1.1308597e+09  7.2632744e-05  5.1725813e-07  7.2115486e-05  2.8588893e+09
   1283000   1.1315299e-11  3471808.5      100927.18      1.1308572e+09  7.2632747e-05  5.1745763e-07  7.2115289e-05  2.8588858e+09
   1284000   1.1324118e-11  3471816.9      100930.26      1.130859e+09   7.2632743e-05  5.1728097e-07  7.2115462e-05  2.8588889e+09
   1285000   1.1332938e-11  3471817.5      100929.67      1.1308594e+09  7.2632743e-05  5.172662e-07   7.2115476e-05  2.8588892e+09
   1286000   1.1341757e-11  3471814.6      100925.04      1.13086e+09    7.2632742e-05  5.1732639e-07  7.2115416e-05  2.858888e+09 
   1287000   1.1350576e-11  3471809.2      100925.9       1.1308579e+09  7.2632746e-05  5.174431e-07   7.2115303e-05  2.8588871e+09
   1288000   1.1359396e-11  3471808.1      100926.8       1.1308572e+09  7.2632742e-05  5.1746073e-07  7.2115281e-05  2.8588867e+09
   1289000   1.1368215e-11  3471811.5      100930.53      1.1308571e+09  7.2632747e-05  5.173948e-07   7.2115352e-05  2.858888e+09 
   1290000   1.1377035e-11  3471811.2      100928.11      1.1308578e+09  7.2632738e-05  5.1739403e-07  7.2115344e-05  2.8588867e+09
   1291000   1.1385854e-11  3471811.2      100930.39      1.130857e+09   7.263274e-05   5.173952e-07   7.2115345e-05  2.8588864e+09
   1292000   1.1394674e-11  3471813.1      100929.44      1.130858e+09   7.2632738e-05  5.1735339e-07  7.2115385e-05  2.8588872e+09
   1293000   1.1403493e-11  3471811.2      100927.54      1.130858e+09   7.2632747e-05  5.1740232e-07  7.2115344e-05  2.858888e+09 
   1294000   1.1412312e-11  3471809.2      100928.09      1.1308571e+09  7.2632744e-05  5.1744115e-07  7.2115302e-05  2.8588874e+09
   1295000   1.1421132e-11  3471811.3      100929.53      1.1308574e+09  7.263274e-05   5.1739248e-07  7.2115347e-05  2.8588874e+09
   1296000   1.1429951e-11  3471811.9      100928.81      1.1308578e+09  7.2632745e-05  5.1738562e-07  7.2115359e-05  2.8588875e+09
   1297000   1.1438771e-11  3471804.4      100929.3       1.1308551e+09  7.2632739e-05  5.1753575e-07  7.2115203e-05  2.8588837e+09
   1298000   1.144759e-11   3471816.3      100930.93      1.1308586e+09  7.2632745e-05  5.1729542e-07  7.211545e-05   2.8588886e+09
   1299000   1.1456409e-11  3471805.1      100931.49      1.1308546e+09  7.2632743e-05  5.1752574e-07  7.2115218e-05  2.8588851e+09
   1300000   1.1465229e-11  3471803.7      100927.67      1.1308554e+09  7.2632754e-05  5.1756458e-07  7.2115189e-05  2.8588866e+09
   1301000   1.1474048e-11  3471788        100920.53      1.1308525e+09  7.2632761e-05  5.1789811e-07  7.2114863e-05  2.8588815e+09
   1302000   1.1482868e-11  3471785.9      100916.4       1.1308532e+09  7.263276e-05   5.1794161e-07  7.2114818e-05  2.8588808e+09
   1303000   1.1491687e-11  3471791.4      100919.18      1.1308541e+09  7.2632753e-05  5.1781975e-07  7.2114933e-05  2.8588818e+09
   1304000   1.1500506e-11  3471791.7      100920.34      1.1308538e+09  7.2632756e-05  5.1781678e-07  7.2114939e-05  2.8588812e+09
   1305000   1.1509326e-11  3471801.1      100919.43      1.1308573e+09  7.2632754e-05  5.1761861e-07  7.2115135e-05  2.8588837e+09
   1306000   1.1518145e-11  3471803.3      100923.96      1.1308565e+09  7.2632752e-05  5.1757111e-07  7.2115181e-05  2.8588845e+09
   1307000   1.1526965e-11  3471800.6      100929.76      1.1308537e+09  7.263274e-05   5.1761587e-07  7.2115124e-05  2.8588828e+09
   1308000   1.1535784e-11  3471814.3      100933.77      1.1308569e+09  7.2632744e-05  5.1733599e-07  7.2115408e-05  2.8588884e+09
   1309000   1.1544603e-11  3471809.9      100931.85      1.1308561e+09  7.2632747e-05  5.174281e-07   7.2115319e-05  2.8588871e+09
   1310000   1.1553423e-11  3471794.9      100923.25      1.130854e+09   7.2632742e-05  5.1773536e-07  7.2115006e-05  2.8588812e+09
   1311000   1.1562242e-11  3471792.1      100919.35      1.1308543e+09  7.2632734e-05  5.1778533e-07  7.2114948e-05  2.8588792e+09
   1312000   1.1571062e-11  3471799.8      100924.75      1.1308551e+09  7.2632736e-05  5.1762816e-07  7.2115107e-05  2.8588822e+09
   1313000   1.1579881e-11  3471804.5      100927.48      1.1308558e+09  7.2632738e-05  5.1753162e-07  7.2115206e-05  2.8588847e+09
   1314000   1.15887e-11    3471802.6      100927.33      1.1308552e+09  7.2632736e-05  5.1756934e-07  7.2115166e-05  2.8588848e+09
   1315000   1.159752e-11   3471790.4      100931.69      1.1308496e+09  7.2632741e-05  5.1782687e-07  7.2114914e-05  2.8588814e+09
   1316000   1.1606339e-11  3471807.4      100934.3       1.1308545e+09  7.2632739e-05  5.1747204e-07  7.2115267e-05  2.8588874e+09
   1317000   1.1615159e-11  3471804.3      100934.05      1.1308535e+09  7.2632745e-05  5.1754412e-07  7.2115201e-05  2.8588861e+09
   1318000   1.1623978e-11  3471803.8      100938.33      1.1308519e+09  7.263274e-05   5.175481e-07   7.2115191e-05  2.8588852e+09
   1319000   1.1632798e-11  3471809.8      100935.77      1.1308548e+09  7.2632746e-05  5.1742978e-07  7.2115316e-05  2.8588883e+09
   1320000   1.1641617e-11  3471801.1      100935.95      1.1308518e+09  7.2632739e-05  5.1760531e-07  7.2115134e-05  2.8588851e+09
   1321000   1.1650436e-11  3471796.9      100934.72      1.1308508e+09  7.2632739e-05  5.1769101e-07  7.2115048e-05  2.858884e+09 
   1322000   1.1659256e-11  3471798.5      100931.34      1.1308524e+09  7.2632734e-05  5.176537e-07   7.211508e-05   2.8588833e+09
   1323000   1.1668075e-11  3471800.7      100934.2       1.1308522e+09  7.2632737e-05  5.1761043e-07  7.2115126e-05  2.8588837e+09
   1324000   1.1676895e-11  3471804.3      100931.9       1.1308542e+09  7.2632741e-05  5.1753889e-07  7.2115202e-05  2.858885e+09 
   1325000   1.1685714e-11  3471793.5      100933.85      1.1308499e+09  7.2632737e-05  5.1775999e-07  7.2114977e-05  2.8588812e+09
   1326000   1.1694533e-11  3471806.2      100935.72      1.1308536e+09  7.263274e-05   5.1749926e-07  7.2115241e-05  2.8588861e+09
   1327000   1.1703353e-11  3471808.9      100939.66      1.1308532e+09  7.2632744e-05  5.1744716e-07  7.2115297e-05  2.8588872e+09
   1328000   1.1712172e-11  3471805        100937.96      1.1308524e+09  7.2632742e-05  5.1752579e-07  7.2115216e-05  2.8588856e+09
   1329000   1.1720992e-11  3471802.2      100942.15      1.1308501e+09  7.2632744e-05  5.1758662e-07  7.2115158e-05  2.8588848e+09
   1330000   1.1729811e-11  3471816.6      100952.59      1.1308514e+09  7.2632745e-05  5.1728857e-07  7.2115456e-05  2.85889e+09  
   1331000   1.173863e-11   3471816.2      100956.86      1.1308498e+09  7.2632745e-05  5.1729714e-07  7.2115448e-05  2.8588894e+09
   1332000   1.174745e-11   3471819        100955.54      1.1308512e+09  7.2632744e-05  5.1723715e-07  7.2115507e-05  2.8588908e+09
   1333000   1.1756269e-11  3471817.9      100952.72      1.1308518e+09  7.2632744e-05  5.1725923e-07  7.2115484e-05  2.8588902e+09
   1334000   1.1765089e-11  3471814.1      100952.9       1.1308505e+09  7.2632743e-05  5.1733803e-07  7.2115405e-05  2.8588888e+09
   1335000   1.1773908e-11  3471817.4      100954.62      1.130851e+09   7.2632746e-05  5.1727285e-07  7.2115473e-05  2.8588904e+09
   1336000   1.1782727e-11  3471812.6      100950.76      1.1308507e+09  7.2632751e-05  5.1737565e-07  7.2115375e-05  2.8588888e+09
   1337000   1.1791547e-11  3471806.9      100947.6       1.1308498e+09  7.2632747e-05  5.1749221e-07  7.2115255e-05  2.8588861e+09
   1338000   1.1800366e-11  3471800.4      100938.71      1.1308506e+09  7.2632754e-05  5.1763248e-07  7.2115121e-05  2.858884e+09 
   1339000   1.1809186e-11  3471806.3      100942.78      1.1308512e+09  7.2632748e-05  5.1750545e-07  7.2115243e-05  2.8588858e+09
   1340000   1.1818005e-11  3471807.6      100942.2       1.1308519e+09  7.2632753e-05  5.1748181e-07  7.2115271e-05  2.8588866e+09
   1341000   1.1826824e-11  3471806.9      100943.1       1.1308513e+09  7.2632754e-05  5.174985e-07   7.2115256e-05  2.8588865e+09
   1342000   1.1835644e-11  3471816.1      100947.67      1.1308529e+09  7.2632754e-05  5.1730794e-07  7.2115446e-05  2.8588905e+09
   1343000   1.1844463e-11  3471807.4      100947.96      1.1308499e+09  7.2632759e-05  5.1749252e-07  7.2115267e-05  2.8588881e+09
   1344000   1.1853283e-11  3471810.6      100947.95      1.130851e+09   7.263275e-05   5.1741822e-07  7.2115332e-05  2.8588886e+09
   1345000   1.1862102e-11  3471807.3      100946.69      1.1308503e+09  7.2632754e-05  5.1749091e-07  7.2115263e-05  2.8588872e+09
   1346000   1.1870921e-11  3471815.8      100951.16      1.1308516e+09  7.2632755e-05  5.1731452e-07  7.211544e-05   2.8588903e+09
   1347000   1.1879741e-11  3471814.5      100955.55      1.1308497e+09  7.2632753e-05  5.1733927e-07  7.2115413e-05  2.8588898e+09
   1348000   1.188856e-11   3471821.8      100958.49      1.1308512e+09  7.2632746e-05  5.1718018e-07  7.2115566e-05  2.8588925e+09
   1349000   1.189738e-11   3471812        100958.32      1.1308479e+09  7.2632756e-05  5.173951e-07   7.2115361e-05  2.85889e+09  
   1350000   1.1906199e-11  3471817.6      100954.21      1.1308512e+09  7.263276e-05   5.1728178e-07  7.2115478e-05  2.8588922e+09
   1351000   1.1915019e-11  3471807        100951.73      1.1308485e+09  7.2632764e-05  5.1750627e-07  7.2115257e-05  2.8588888e+09
   1352000   1.1923838e-11  3471806.4      100948.17      1.1308495e+09  7.2632759e-05  5.1751382e-07  7.2115245e-05  2.8588883e+09
   1353000   1.1932657e-11  3471801.7      100944.37      1.1308492e+09  7.2632763e-05  5.1761592e-07  7.2115147e-05  2.8588866e+09
   1354000   1.1941477e-11  3471804.7      100944.59      1.1308501e+09  7.2632756e-05  5.1754581e-07  7.211521e-05   2.8588875e+09
   1355000   1.1950296e-11  3471805.1      100945.72      1.1308499e+09  7.263275e-05   5.1753222e-07  7.2115218e-05  2.8588876e+09
   1356000   1.1959116e-11  3471799.3      100945.05      1.1308481e+09  7.263275e-05   5.1765242e-07  7.2115097e-05  2.8588853e+09
   1357000   1.1967935e-11  3471804.2      100944.68      1.1308499e+09  7.2632756e-05  5.1755718e-07  7.2115199e-05  2.8588876e+09
   1358000   1.1976754e-11  3471794.9      100938.58      1.1308488e+09  7.2632765e-05  5.1775882e-07  7.2115006e-05  2.8588852e+09
   1359000   1.1985574e-11  3471792        100937.96      1.1308481e+09  7.2632769e-05  5.1782248e-07  7.2114946e-05  2.8588851e+09
   1360000   1.1994393e-11  3471799.9      100942.87      1.1308491e+09  7.2632772e-05  5.1766135e-07  7.211511e-05   2.8588881e+09
   1361000   1.2003213e-11  3471799.1      100943.41      1.1308486e+09  7.2632766e-05  5.1767223e-07  7.2115094e-05  2.8588866e+09
   1362000   1.2012032e-11  3471801.8      100945.11      1.130849e+09   7.263276e-05   5.1761118e-07  7.2115149e-05  2.8588866e+09
   1363000   1.2020851e-11  3471802        100947.04      1.1308484e+09  7.263276e-05   5.1760705e-07  7.2115153e-05  2.8588865e+09
   1364000   1.2029671e-11  3471805.8      100952.79      1.1308477e+09  7.2632762e-05  5.175293e-07   7.2115233e-05  2.8588887e+09
   1365000   1.203849e-11   3471814.9      100960.48      1.1308482e+09  7.2632758e-05  5.1733504e-07  7.2115423e-05  2.858893e+09 
   1366000   1.204731e-11   3471804.5      100957.47      1.1308457e+09  7.2632765e-05  5.1755921e-07  7.2115206e-05  2.8588895e+09
   1367000   1.2056129e-11  3471803.9      100956.71      1.1308458e+09  7.2632771e-05  5.175778e-07   7.2115193e-05  2.8588892e+09
   1368000   1.2064948e-11  3471797.1      100948.64      1.1308462e+09  7.263277e-05   5.1771707e-07  7.2115053e-05  2.8588863e+09
   1369000   1.2073768e-11  3471798.4      100951.52      1.1308457e+09  7.263277e-05   5.1769077e-07  7.2115079e-05  2.8588875e+09
   1370000   1.2082587e-11  3471800.5      100950.26      1.1308468e+09  7.2632776e-05  5.1765309e-07  7.2115123e-05  2.8588886e+09
   1371000   1.2091407e-11  3471800.2      100949.69      1.1308469e+09  7.2632779e-05  5.1766172e-07  7.2115117e-05  2.8588887e+09
   1372000   1.2100226e-11  3471797.7      100950.61      1.1308457e+09  7.2632779e-05  5.1771446e-07  7.2115065e-05  2.8588875e+09
   1373000   1.2109045e-11  3471798.9      100953.27      1.1308453e+09  7.2632774e-05  5.1768444e-07  7.211509e-05   2.8588871e+09
   1374000   1.2117865e-11  3471816.4      100959.92      1.1308489e+09  7.2632774e-05  5.1732038e-07  7.2115454e-05  2.8588928e+09
   1375000   1.2126684e-11  3471825.8      100967.21      1.1308496e+09  7.2632768e-05  5.1711915e-07  7.2115649e-05  2.8588955e+09
   1376000   1.2135504e-11  3471817.2      100964.87      1.1308475e+09  7.2632771e-05  5.1730196e-07  7.2115469e-05  2.8588924e+09
   1377000   1.2144323e-11  3471813.9      100961.33      1.1308476e+09  7.2632769e-05  5.1736816e-07  7.2115401e-05  2.8588915e+09
   1378000   1.2153143e-11  3471816.5      100965.31      1.1308471e+09  7.2632766e-05  5.1731111e-07  7.2115455e-05  2.8588931e+09
   1379000   1.2161962e-11  3471811.8      100965.74      1.1308454e+09  7.2632767e-05  5.1740924e-07  7.2115357e-05  2.8588916e+09
   1380000   1.2170781e-11  3471813.6      100964.89      1.1308463e+09  7.263277e-05   5.1737592e-07  7.2115394e-05  2.8588918e+09
   1381000   1.2179601e-11  3471812.9      100958.08      1.1308483e+09  7.2632763e-05  5.1738274e-07  7.211538e-05   2.8588899e+09
   1382000   1.218842e-11   3471812.6      100953.77      1.1308497e+09  7.2632755e-05  5.1738053e-07  7.2115375e-05  2.8588888e+09
   1383000   1.219724e-11   3471797.9      100948.37      1.1308466e+09  7.2632752e-05  5.1768266e-07  7.2115069e-05  2.8588829e+09
   1384000   1.2206059e-11  3471798.2      100944.4       1.130848e+09   7.2632753e-05  5.1767766e-07  7.2115075e-05  2.8588828e+09
   1385000   1.2214878e-11  3471801.5      100943.04      1.1308495e+09  7.2632758e-05  5.1761571e-07  7.2115143e-05  2.8588843e+09
   1386000   1.2223698e-11  3471790.1      100946.13      1.1308447e+09  7.2632754e-05  5.1784693e-07  7.2114907e-05  2.8588806e+09
   1387000   1.2232517e-11  3471784.1      100942.7       1.1308438e+09  7.2632747e-05  5.1796483e-07  7.2114783e-05  2.858879e+09 
   1388000   1.2241337e-11  3471780.2      100943.58      1.1308422e+09  7.2632749e-05  5.1804789e-07  7.2114701e-05  2.858878e+09 
   1389000   1.2250156e-11  3471785.8      100946.19      1.1308432e+09  7.2632765e-05  5.1794821e-07  7.2114816e-05  2.8588814e+09
   1390000   1.2258975e-11  3471798.3      100946.69      1.1308473e+09  7.2632769e-05  5.1769147e-07  7.2115077e-05  2.8588856e+09
   1391000   1.2267795e-11  3471801.1      100950.82      1.1308468e+09  7.2632761e-05  5.176261e-07   7.2115135e-05  2.8588855e+09
   1392000   1.2276614e-11  3471804.1      100950.53      1.1308479e+09  7.2632759e-05  5.1756262e-07  7.2115196e-05  2.8588857e+09
   1393000   1.2285434e-11  3471799.5      100949.72      1.1308466e+09  7.2632759e-05  5.1765778e-07  7.2115101e-05  2.858884e+09 
   1394000   1.2294253e-11  3471803.8      100955.13      1.1308463e+09  7.2632761e-05  5.1756946e-07  7.2115191e-05  2.8588867e+09
   1395000   1.2303072e-11  3471798        100957.29      1.1308436e+09  7.263277e-05   5.1769901e-07  7.2115071e-05  2.8588863e+09
   1396000   1.2311892e-11  3471799        100962.28      1.1308423e+09  7.2632776e-05  5.1768475e-07  7.2115091e-05  2.8588882e+09
   1397000   1.2320711e-11  3471804.2      100967.42      1.1308423e+09  7.2632775e-05  5.1757494e-07  7.21152e-05    2.8588903e+09
   1398000   1.2329531e-11  3471814.3      100970.4       1.1308447e+09  7.2632774e-05  5.1736546e-07  7.2115409e-05  2.8588932e+09
   1399000   1.233835e-11   3471814.8      100970.05      1.130845e+09   7.2632775e-05  5.173551e-07   7.2115419e-05  2.8588927e+09
   1400000   1.2347169e-11  3471815.2      100971.03      1.1308448e+09  7.2632769e-05  5.1734031e-07  7.2115429e-05  2.8588917e+09
   1401000   1.2355989e-11  3471816.1      100971.58      1.1308449e+09  7.2632763e-05  5.1731574e-07  7.2115447e-05  2.8588921e+09
   1402000   1.2364808e-11  3471814.6      100976.69      1.1308427e+09  7.2632772e-05  5.1735606e-07  7.2115416e-05  2.8588929e+09
   1403000   1.2373628e-11  3471821.1      100977.52      1.1308446e+09  7.2632765e-05  5.1721574e-07  7.211555e-05   2.8588943e+09
   1404000   1.2382447e-11  3471823.9      100977.71      1.1308455e+09  7.2632766e-05  5.1715691e-07  7.2115609e-05  2.8588944e+09
   1405000   1.2391266e-11  3471813.3      100971.41      1.130844e+09   7.2632762e-05  5.1737384e-07  7.2115388e-05  2.8588901e+09
   1406000   1.2400086e-11  3471806.2      100971.41      1.1308416e+09  7.2632755e-05  5.1751439e-07  7.211524e-05   2.858888e+09 
   1407000   1.2408905e-11  3471807.9      100971.14      1.1308423e+09  7.2632755e-05  5.1747837e-07  7.2115276e-05  2.8588886e+09
   1408000   1.2417725e-11  3471808.8      100967.56      1.1308438e+09  7.2632756e-05  5.1746162e-07  7.2115294e-05  2.8588884e+09
   1409000   1.2426544e-11  3471808.3      100965.52      1.1308443e+09  7.2632755e-05  5.1747029e-07  7.2115285e-05  2.8588883e+09
   1410000   1.2435364e-11  3471804.7      100964.61      1.1308434e+09  7.2632759e-05  5.1754927e-07  7.2115209e-05  2.8588877e+09
   1411000   1.2444183e-11  3471799        100960.45      1.1308429e+09  7.2632766e-05  5.1767558e-07  7.2115091e-05  2.8588865e+09
   1412000   1.2453002e-11  3471798.2      100958.38      1.1308433e+09  7.263277e-05   5.1769395e-07  7.2115076e-05  2.8588867e+09
   1413000   1.2461822e-11  3471799.8      100960.09      1.1308433e+09  7.2632767e-05  5.1765964e-07  7.2115108e-05  2.8588871e+09
   1414000   1.2470641e-11  3471802.9      100959.82      1.1308444e+09  7.2632753e-05  5.1758053e-07  7.2115172e-05  2.8588876e+09
   1415000   1.2479461e-11  3471803.8      100963.65      1.1308434e+09  7.2632758e-05  5.1756656e-07  7.2115192e-05  2.8588885e+09
   1416000   1.248828e-11   3471803.1      100968.99      1.1308414e+09  7.2632758e-05  5.1758112e-07  7.2115177e-05  2.8588875e+09
   1417000   1.2497099e-11  3471806.9      100963.82      1.1308444e+09  7.2632749e-05  5.1749221e-07  7.2115256e-05  2.8588865e+09
   1418000   1.2505919e-11  3471815.3      100968.12      1.1308458e+09  7.2632749e-05  5.1731883e-07  7.211543e-05   2.8588899e+09
   1419000   1.2514738e-11  3471806.2      100964.27      1.130844e+09   7.2632746e-05  5.1750431e-07  7.2115242e-05  2.8588868e+09
   1420000   1.2523558e-11  3471798.1      100963.97      1.1308414e+09  7.2632748e-05  5.1767526e-07  7.2115073e-05  2.8588842e+09
   1421000   1.2532377e-11  3471803.3      100967.97      1.1308418e+09  7.2632742e-05  5.1756108e-07  7.2115181e-05  2.858886e+09 
   1422000   1.2541196e-11  3471807.9      100969.44      1.1308429e+09  7.2632747e-05  5.1746999e-07  7.2115277e-05  2.8588873e+09
   1423000   1.2550016e-11  3471807.1      100969.4       1.1308426e+09  7.263276e-05   5.175003e-07   7.211526e-05   2.8588879e+09
   1424000   1.2558835e-11  3471804.2      100970.82      1.1308412e+09  7.263276e-05   5.1756113e-07  7.2115199e-05  2.8588873e+09
   1425000   1.2567655e-11  3471818.4      100975.38      1.1308444e+09  7.2632769e-05  5.172734e-07   7.2115495e-05  2.8588935e+09
   1426000   1.2576474e-11  3471816.8      100978.83      1.1308427e+09  7.2632769e-05  5.1730888e-07  7.211546e-05   2.8588926e+09
   1427000   1.2585293e-11  3471823.4      100982.78      1.1308436e+09  7.2632766e-05  5.1716733e-07  7.2115599e-05  2.8588944e+09
   1428000   1.2594113e-11  3471822.1      100982.31      1.1308433e+09  7.2632767e-05  5.1719573e-07  7.2115571e-05  2.858893e+09 
   1429000   1.2602932e-11  3471823.9      100983.57      1.1308435e+09  7.2632756e-05  5.1714855e-07  7.2115608e-05  2.8588927e+09
   1430000   1.2611752e-11  3471829.5      100988.09      1.1308439e+09  7.2632749e-05  5.1702341e-07  7.2115725e-05  2.8588943e+09
   1431000   1.2620571e-11  3471814.3      100991.34      1.1308377e+09  7.2632757e-05  5.1734725e-07  7.2115409e-05  2.8588878e+09
   1432000   1.262939e-11   3471830.8      100989.44      1.1308439e+09  7.2632761e-05  5.1700846e-07  7.2115752e-05  2.8588948e+09
   1433000   1.263821e-11   3471835.2      100995.56      1.1308433e+09  7.2632764e-05  5.1692134e-07  7.2115843e-05  2.8588974e+09
   1434000   1.2647029e-11  3471825.4      100994.21      1.1308405e+09  7.2632769e-05  5.1712857e-07  7.211564e-05   2.8588953e+09
   1435000   1.2655849e-11  3471823        100994.15      1.1308397e+09  7.2632771e-05  5.1718062e-07  7.2115591e-05  2.8588949e+09
   1436000   1.2664668e-11  3471827.1      100991.37      1.130842e+09   7.2632773e-05  5.1709838e-07  7.2115675e-05  2.8588956e+09
   1437000   1.2673488e-11  3471826.4      100989.96      1.1308422e+09  7.2632765e-05  5.1710385e-07  7.2115661e-05  2.8588937e+09
   1438000   1.2682307e-11  3471830.3      100991.5       1.130843e+09   7.2632759e-05  5.1701654e-07  7.2115742e-05  2.8588944e+09
   1439000   1.2691126e-11  3471828.7      100992.22      1.1308422e+09  7.2632754e-05  5.1704593e-07  7.2115708e-05  2.8588934e+09
   1440000   1.2699946e-11  3471832.7      100994.71      1.1308427e+09  7.2632758e-05  5.1696647e-07  7.2115792e-05  2.8588953e+09
   1441000   1.2708765e-11  3471815.3      100990.13      1.1308384e+09  7.2632763e-05  5.1733226e-07  7.2115431e-05  2.8588897e+09
   1442000   1.2717585e-11  3471818.6      100990.23      1.1308395e+09  7.2632757e-05  5.1725759e-07  7.2115499e-05  2.858891e+09 
   1443000   1.2726404e-11  3471825.4      100993.22      1.1308408e+09  7.2632756e-05  5.1711466e-07  7.2115641e-05  2.8588935e+09
   1444000   1.2735223e-11  3471826.1      100993.39      1.130841e+09   7.2632761e-05  5.171067e-07   7.2115654e-05  2.8588938e+09
   1445000   1.2744043e-11  3471828.2      100994.94      1.1308412e+09  7.2632755e-05  5.1705628e-07  7.2115698e-05  2.8588937e+09
   1446000   1.2752862e-11  3471830.4      100994.36      1.1308421e+09  7.2632747e-05  5.1700351e-07  7.2115743e-05  2.8588938e+09
   1447000   1.2761682e-11  3471822.9      100987.87      1.1308417e+09  7.2632745e-05  5.1715692e-07  7.2115588e-05  2.858891e+09 
   1448000   1.2770501e-11  3471819.5      100987.04      1.1308409e+09  7.263275e-05   5.1723315e-07  7.2115517e-05  2.8588906e+09
   1449000   1.277932e-11   3471815.8      100984.22      1.1308406e+09  7.2632749e-05  5.173072e-07   7.2115441e-05  2.8588901e+09
   1450000   1.278814e-11   3471816.8      100988.97      1.1308393e+09  7.2632755e-05  5.172929e-07   7.2115462e-05  2.8588918e+09
   1451000   1.2796959e-11  3471817.7      100988.92      1.1308396e+09  7.2632756e-05  5.1727608e-07  7.211548e-05   2.8588925e+09
   1452000   1.2805779e-11  3471810.7      100984.06      1.1308389e+09  7.2632752e-05  5.1741724e-07  7.2115335e-05  2.8588895e+09
   1453000   1.2814598e-11  3471811.1      100983.98      1.1308391e+09  7.263275e-05   5.1740685e-07  7.2115343e-05  2.8588896e+09
   1454000   1.2823417e-11  3471814.3      100985.75      1.1308396e+09  7.2632753e-05  5.1734462e-07  7.2115409e-05  2.8588908e+09
   1455000   1.2832237e-11  3471824.7      100985.04      1.1308433e+09  7.2632759e-05  5.1713391e-07  7.2115625e-05  2.8588947e+09
   1456000   1.2841056e-11  3471814.6      100983.78      1.1308403e+09  7.2632758e-05  5.173416e-07   7.2115416e-05  2.8588912e+09
   1457000   1.2849876e-11  3471812.2      100983.74      1.1308395e+09  7.2632744e-05  5.1737842e-07  7.2115365e-05  2.8588897e+09
   1458000   1.2858695e-11  3471812.4      100981.57      1.1308403e+09  7.2632739e-05  5.1736867e-07  7.2115371e-05  2.8588888e+09
   1459000   1.2867514e-11  3471819.6      100979.48      1.1308434e+09  7.263275e-05   5.1722999e-07  7.211552e-05   2.8588916e+09
   1460000   1.2876334e-11  3471815.8      100980.65      1.1308418e+09  7.2632755e-05  5.1731527e-07  7.2115439e-05  2.858891e+09 
   1461000   1.2885153e-11  3471804.7      100977.95      1.130839e+09   7.2632749e-05  5.1753851e-07  7.2115211e-05  2.8588877e+09
   1462000   1.2893973e-11  3471800.4      100972.67      1.1308393e+09  7.2632754e-05  5.1763247e-07  7.2115122e-05  2.8588867e+09
   1463000   1.2902792e-11  3471805.3      100966.42      1.130843e+09   7.2632755e-05  5.1753346e-07  7.2115222e-05  2.8588878e+09
   1464000   1.2911611e-11  3471802.3      100968.98      1.1308412e+09  7.2632756e-05  5.175953e-07   7.2115161e-05  2.8588866e+09
   1465000   1.2920431e-11  3471797.3      100969.17      1.1308394e+09  7.2632754e-05  5.1769778e-07  7.2115057e-05  2.8588853e+09
   1466000   1.292925e-11   3471797        100966.77      1.1308401e+09  7.2632757e-05  5.1770653e-07  7.2115051e-05  2.8588854e+09
   1467000   1.293807e-11   3471797.6      100966.59      1.1308404e+09  7.2632753e-05  5.1769056e-07  7.2115062e-05  2.8588851e+09
   1468000   1.2946889e-11  3471800.6      100974.12      1.1308389e+09  7.2632745e-05  5.1761985e-07  7.2115125e-05  2.8588859e+09
   1469000   1.2955709e-11  3471806.3      100980.75      1.1308385e+09  7.2632747e-05  5.1750498e-07  7.2115242e-05  2.8588871e+09
   1470000   1.2964528e-11  3471815.4      100981.29      1.1308414e+09  7.2632756e-05  5.173237e-07   7.2115432e-05  2.85889e+09  
   1471000   1.2973347e-11  3471808.7      100977.96      1.1308403e+09  7.2632748e-05  5.1745465e-07  7.2115293e-05  2.8588864e+09
   1472000   1.2982167e-11  3471805.2      100981.32      1.130838e+09   7.2632738e-05  5.1751718e-07  7.2115221e-05  2.8588849e+09
   1473000   1.2990986e-11  3471802.4      100985.31      1.1308357e+09  7.2632744e-05  5.1758207e-07  7.2115162e-05  2.858885e+09 
   1474000   1.2999806e-11  3471812.1      100990.41      1.1308373e+09  7.2632742e-05  5.1737872e-07  7.2115363e-05  2.8588888e+09
   1475000   1.3008625e-11  3471812.7      100988.49      1.1308381e+09  7.2632746e-05  5.1737066e-07  7.2115375e-05  2.8588895e+09
   1476000   1.3017444e-11  3471815.1      100988.61      1.1308389e+09  7.2632751e-05  5.1732412e-07  7.2115427e-05  2.8588908e+09
   1477000   1.3026264e-11  3471818.4      100989.97      1.1308395e+09  7.2632749e-05  5.1725417e-07  7.2115495e-05  2.8588914e+09
   1478000   1.3035083e-11  3471812        100990.42      1.1308372e+09  7.2632745e-05  5.1738307e-07  7.2115362e-05  2.8588882e+09
   1479000   1.3043903e-11  3471818.9      100990.73      1.1308394e+09  7.2632751e-05  5.1724636e-07  7.2115505e-05  2.8588907e+09
   1480000   1.3052722e-11  3471816.7      100990         1.130839e+09   7.2632755e-05  5.1729539e-07  7.211546e-05   2.8588898e+09
   1481000   1.3061541e-11  3471804.5      100981.91      1.1308375e+09  7.2632755e-05  5.1754952e-07  7.2115205e-05  2.8588846e+09
   1482000   1.3070361e-11  3471800.6      100978.89      1.1308372e+09  7.2632749e-05  5.176253e-07   7.2115124e-05  2.8588827e+09
   1483000   1.307918e-11   3471795.4      100974.18      1.1308371e+09  7.263275e-05   5.1773374e-07  7.2115016e-05  2.8588817e+09
   1484000   1.3088e-11     3471789.3      100970.6       1.1308363e+09  7.2632753e-05  5.1786216e-07  7.2114891e-05  2.85888e+09  
   1485000   1.3096819e-11  3471793.9      100970.56      1.1308378e+09  7.2632762e-05  5.1777696e-07  7.2114985e-05  2.8588822e+09
   1486000   1.3105638e-11  3471788.9      100969.53      1.1308365e+09  7.2632766e-05  5.1788387e-07  7.2114882e-05  2.8588807e+09
   1487000   1.3114458e-11  3471791.7      100972.63      1.1308364e+09  7.2632767e-05  5.1782731e-07  7.211494e-05   2.8588825e+09
   1488000   1.3123277e-11  3471791.4      100974.49      1.1308356e+09  7.2632768e-05  5.1783482e-07  7.2114933e-05  2.8588825e+09
   1489000   1.3132097e-11  3471803.1      100984.18      1.1308363e+09  7.2632761e-05  5.17584e-07    7.2115177e-05  2.8588859e+09
   1490000   1.3140916e-11  3471804.8      100987.33      1.1308359e+09  7.263275e-05   5.1753704e-07  7.2115212e-05  2.8588843e+09
   1491000   1.3149735e-11  3471813.1      100993.25      1.1308366e+09  7.2632754e-05  5.1737036e-07  7.2115384e-05  2.8588872e+09
   1492000   1.3158555e-11  3471816.2      100995.68      1.1308369e+09  7.2632753e-05  5.1730513e-07  7.2115448e-05  2.8588888e+09
   1493000   1.3167374e-11  3471818.3      100994.65      1.1308379e+09  7.263275e-05   5.1725872e-07  7.2115491e-05  2.8588898e+09
   1494000   1.3176194e-11  3471811.6      100995.43      1.1308354e+09  7.2632757e-05  5.1740326e-07  7.2115354e-05  2.8588883e+09
   1495000   1.3185013e-11  3471818.4      101006.5       1.130834e+09   7.2632786e-05  5.1729176e-07  7.2115494e-05  2.8588916e+09
   1496000   1.3193833e-11  3471810.2      101002.42      1.1308326e+09  7.2632787e-05  5.1746324e-07  7.2115324e-05  2.8588884e+09
   1497000   1.3202652e-11  3471818.6      101005.87      1.1308343e+09  7.2632785e-05  5.172879e-07   7.2115498e-05  2.8588913e+09
   1498000   1.3211471e-11  3471825.3      101010.75      1.1308349e+09  7.2632783e-05  5.1714549e-07  7.2115638e-05  2.8588937e+09
   1499000   1.3220291e-11  3471816.8      101011.03      1.1308319e+09  7.2632787e-05  5.1732635e-07  7.2115461e-05  2.8588917e+09
   1500000   1.322911e-11   3471820        101016.2       1.1308313e+09  7.2632796e-05  5.1726842e-07  7.2115527e-05  2.8588943e+09
   1501000   1.323793e-11   3471814.5      101010.38      1.1308314e+09  7.2632794e-05  5.1737956e-07  7.2115414e-05  2.8588914e+09
   1502000   1.3246749e-11  3471825        101011.17      1.1308347e+09  7.2632798e-05  5.1716606e-07  7.2115632e-05  2.8588957e+09
   1503000   1.3255568e-11  3471816.8      101012.43      1.1308315e+09  7.2632789e-05  5.1732829e-07  7.2115461e-05  2.8588924e+09
   1504000   1.3264388e-11  3471814        101006.32      1.1308326e+09  7.2632789e-05  5.1738514e-07  7.2115404e-05  2.8588909e+09
   1505000   1.3273207e-11  3471818.7      101008.15      1.1308335e+09  7.2632786e-05  5.1728575e-07  7.21155e-05    2.8588918e+09
   1506000   1.3282027e-11  3471822.8      101012.52      1.1308335e+09  7.2632787e-05  5.1720104e-07  7.2115586e-05  2.8588932e+09
   1507000   1.3290846e-11  3471827.5      101008.84      1.1308363e+09  7.2632788e-05  5.1710478e-07  7.2115683e-05  2.8588956e+09
   1508000   1.3299665e-11  3471817.7      101004.84      1.1308343e+09  7.263279e-05   5.1731053e-07  7.211548e-05   2.8588928e+09
   1509000   1.3308485e-11  3471807.5      101003.52      1.1308314e+09  7.2632792e-05  5.1752299e-07  7.2115269e-05  2.8588894e+09
   1510000   1.3317304e-11  3471819.1      101005.38      1.1308346e+09  7.2632795e-05  5.1728691e-07  7.2115509e-05  2.8588944e+09
   1511000   1.3326124e-11  3471815.7      101012.08      1.1308312e+09  7.2632801e-05  5.1736258e-07  7.2115439e-05  2.8588943e+09
   1512000   1.3334943e-11  3471820.2      101013.02      1.1308324e+09  7.2632797e-05  5.1726543e-07  7.2115532e-05  2.8588956e+09
   1513000   1.3343762e-11  3471827.3      101014.45      1.1308343e+09  7.2632799e-05  5.1711839e-07  7.211568e-05   2.8588977e+09
   1514000   1.3352582e-11  3471822.9      101013.77      1.1308331e+09  7.2632805e-05  5.172173e-07   7.2115588e-05  2.8588967e+09
   1515000   1.3361401e-11  3471820.2      101011.19      1.130833e+09   7.2632806e-05  5.1727387e-07  7.2115533e-05  2.8588965e+09
   1516000   1.3370221e-11  3471814.2      101013.99      1.1308301e+09  7.2632812e-05  5.1740429e-07  7.2115407e-05  2.8588959e+09
   1517000   1.337904e-11   3471811.5      101011.94      1.1308299e+09  7.2632813e-05  5.1746114e-07  7.2115352e-05  2.858895e+09 
   1518000   1.3387859e-11  3471823.4      101011.5       1.130834e+09   7.2632817e-05  5.172185e-07   7.2115598e-05  2.8588995e+09
   1519000   1.3396679e-11  3471812.2      101004.93      1.1308325e+09  7.2632806e-05  5.1743981e-07  7.2115366e-05  2.8588945e+09
   1520000   1.3405498e-11  3471812.2      101009.64      1.1308309e+09  7.2632811e-05  5.1744626e-07  7.2115365e-05  2.8588953e+09
   1521000   1.3414318e-11  3471810.3      101011.15      1.1308297e+09  7.263281e-05   5.1748317e-07  7.2115327e-05  2.8588944e+09
   1522000   1.3423137e-11  3471830.1      101013.05      1.1308357e+09  7.2632808e-05  5.1706949e-07  7.2115738e-05  2.8589014e+09
   1523000   1.3431956e-11  3471814.6      101008.5       1.1308321e+09  7.2632804e-05  5.1738808e-07  7.2115416e-05  2.8588951e+09
   1524000   1.3440776e-11  3471810.7      101003.54      1.1308324e+09  7.2632801e-05  5.174662e-07   7.2115335e-05  2.8588932e+09
   1525000   1.3449595e-11  3471807.1      100998.69      1.1308328e+09  7.2632805e-05  5.1754497e-07  7.211526e-05   2.8588927e+09
   1526000   1.3458415e-11  3471788.7      100990.87      1.1308292e+09  7.2632801e-05  5.1792465e-07  7.2114877e-05  2.8588864e+09
   1527000   1.3467234e-11  3471787.3      100985.55      1.1308306e+09  7.2632809e-05  5.1795962e-07  7.2114849e-05  2.8588868e+09
   1528000   1.3476054e-11  3471796.1      100987.31      1.1308329e+09  7.263281e-05   5.1777763e-07  7.2115032e-05  2.8588899e+09
   1529000   1.3484873e-11  3471786.8      100983.56      1.1308311e+09  7.2632805e-05  5.1796755e-07  7.2114838e-05  2.8588859e+09
   1530000   1.3493692e-11  3471783.7      100984.43      1.1308297e+09  7.2632798e-05  5.180248e-07   7.2114773e-05  2.8588845e+09
   1531000   1.3502512e-11  3471780.4      100984.4       1.1308286e+09  7.2632793e-05  5.1808767e-07  7.2114706e-05  2.8588829e+09
   1532000   1.3511331e-11  3471791.7      100986.57      1.1308317e+09  7.2632798e-05  5.1785832e-07  7.2114939e-05  2.8588874e+09
   1533000   1.3520151e-11  3471793.8      100987.93      1.130832e+09   7.2632795e-05  5.1781057e-07  7.2114984e-05  2.8588878e+09
   1534000   1.352897e-11   3471789.7      100989.32      1.1308301e+09  7.2632794e-05  5.1789562e-07  7.2114898e-05  2.8588864e+09
   1535000   1.3537789e-11  3471783.3      100989.61      1.1308279e+09  7.2632794e-05  5.1802961e-07  7.2114764e-05  2.8588844e+09
   1536000   1.3546609e-11  3471787        100988.15      1.1308296e+09  7.2632796e-05  5.1795453e-07  7.2114841e-05  2.8588861e+09
   1537000   1.3555428e-11  3471785.5      100992.15      1.1308277e+09  7.2632793e-05  5.1798298e-07  7.211481e-05   2.8588854e+09
   1538000   1.3564248e-11  3471791.8      100994.4       1.1308291e+09  7.263279e-05   5.1784832e-07  7.2114942e-05  2.8588874e+09
   1539000   1.3573067e-11  3471798.5      100996.61      1.1308306e+09  7.2632793e-05  5.1771131e-07  7.2115081e-05  2.8588898e+09
   1540000   1.3581886e-11  3471798.9      100999.51      1.1308298e+09  7.2632784e-05  5.176946e-07   7.2115089e-05  2.8588887e+09
   1541000   1.3590706e-11  3471801.9      100999.22      1.1308309e+09  7.2632789e-05  5.1763614e-07  7.2115153e-05  2.8588897e+09
   1542000   1.3599525e-11  3471800.8      100993.97      1.1308323e+09  7.2632784e-05  5.1765506e-07  7.2115129e-05  2.8588884e+09
   1543000   1.3608345e-11  3471791.6      100995.57      1.1308287e+09  7.2632791e-05  5.1785339e-07  7.2114938e-05  2.858886e+09 
   1544000   1.3617164e-11  3471797.7      100998.93      1.1308296e+09  7.2632797e-05  5.1773152e-07  7.2115065e-05  2.8588896e+09
   1545000   1.3625983e-11  3471799.2      101000.8       1.1308294e+09  7.2632789e-05  5.1769414e-07  7.2115095e-05  2.8588896e+09
   1546000   1.3634803e-11  3471801.7      101002.44      1.1308298e+09  7.2632793e-05  5.1764483e-07  7.2115148e-05  2.8588903e+09
   1547000   1.3643622e-11  3471809.4      101001.46      1.1308327e+09  7.26328e-05    5.1749218e-07  7.2115308e-05  2.8588927e+09
   1548000   1.3652442e-11  3471805.8      101005.27      1.1308302e+09  7.2632795e-05  5.1756182e-07  7.2115233e-05  2.8588914e+09
   1549000   1.3661261e-11  3471795.1      101003.22      1.1308273e+09  7.2632785e-05  5.1777431e-07  7.2115011e-05  2.8588869e+09
   1550000   1.367008e-11   3471796.2      101002.65      1.1308278e+09  7.2632791e-05  5.1775846e-07  7.2115032e-05  2.8588873e+09
   1551000   1.36789e-11    3471804.4      101007.72      1.1308289e+09  7.2632797e-05  5.1759338e-07  7.2115203e-05  2.8588909e+09
   1552000   1.3687719e-11  3471796.8      101005.34      1.1308271e+09  7.2632794e-05  5.177488e-07   7.2115045e-05  2.858888e+09 
   1553000   1.3696539e-11  3471792.1      100999.95      1.1308274e+09  7.2632796e-05  5.1784734e-07  7.2114949e-05  2.8588865e+09
   1554000   1.3705358e-11  3471788.8      100995.76      1.1308276e+09  7.2632789e-05  5.1791081e-07  7.2114879e-05  2.8588842e+09
   1555000   1.3714178e-11  3471788.7      100994.79      1.130828e+09   7.2632785e-05  5.1790645e-07  7.2114878e-05  2.8588834e+09
   1556000   1.3722997e-11  3471793.5      100998.64      1.1308283e+09  7.2632782e-05  5.1780413e-07  7.2114978e-05  2.8588857e+09
   1557000   1.3731816e-11  3471789.9      101002.46      1.1308258e+09  7.263278e-05   5.1787728e-07  7.2114903e-05  2.8588843e+09
   1558000   1.3740636e-11  3471798.6      101006.71      1.1308273e+09  7.2632786e-05  5.1770191e-07  7.2115084e-05  2.8588875e+09
   1559000   1.3749455e-11  3471800.4      101006.78      1.1308279e+09  7.2632791e-05  5.176702e-07   7.211512e-05   2.858888e+09 
   1560000   1.3758275e-11  3471800        101004.05      1.1308286e+09  7.2632788e-05  5.1767711e-07  7.2115111e-05  2.8588877e+09
   1561000   1.3767094e-11  3471793        101002.17      1.1308269e+09  7.2632783e-05  5.1781633e-07  7.2114967e-05  2.8588855e+09
   1562000   1.3775913e-11  3471793.4      101004.62      1.1308262e+09  7.2632781e-05  5.1780628e-07  7.2114975e-05  2.8588858e+09
   1563000   1.3784733e-11  3471796.6      101005.8       1.1308269e+09  7.2632792e-05  5.1775021e-07  7.2115042e-05  2.8588879e+09
   1564000   1.3793552e-11  3471795.7      101005.3       1.1308268e+09  7.2632796e-05  5.1777441e-07  7.2115022e-05  2.8588879e+09
   1565000   1.3802372e-11  3471793.3      101005.49      1.1308259e+09  7.2632796e-05  5.1782327e-07  7.2114972e-05  2.8588861e+09
   1566000   1.3811191e-11  3471802.4      101012.21      1.1308267e+09  7.2632798e-05  5.1763531e-07  7.2115162e-05  2.8588895e+09
   1567000   1.382001e-11   3471804.5      101016.05      1.1308261e+09  7.2632794e-05  5.175888e-07   7.2115206e-05  2.8588903e+09
   1568000   1.382883e-11   3471801.6      101014.99      1.1308255e+09  7.2632801e-05  5.1765559e-07  7.2115145e-05  2.8588903e+09
   1569000   1.3837649e-11  3471798.4      101014.33      1.1308247e+09  7.2632798e-05  5.1771819e-07  7.211508e-05   2.8588893e+09
   1570000   1.3846469e-11  3471800.9      101017.52      1.1308245e+09  7.2632794e-05  5.1766253e-07  7.2115132e-05  2.85889e+09  
   1571000   1.3855288e-11  3471803.5      101018.33      1.1308251e+09  7.2632797e-05  5.1761155e-07  7.2115186e-05  2.8588907e+09
   1572000   1.3864107e-11  3471807.2      101018.13      1.1308264e+09  7.2632788e-05  5.1752575e-07  7.2115262e-05  2.8588908e+09
   1573000   1.3872927e-11  3471809.6      101017.73      1.1308273e+09  7.2632788e-05  5.1747657e-07  7.2115311e-05  2.8588914e+09
   1574000   1.3881746e-11  3471808.3      101019.52      1.1308263e+09  7.2632791e-05  5.1750562e-07  7.2115285e-05  2.8588913e+09
   1575000   1.3890566e-11  3471801.9      101015.06      1.1308256e+09  7.2632792e-05  5.1764074e-07  7.2115151e-05  2.8588889e+09
   1576000   1.3899385e-11  3471800.7      101010.85      1.1308266e+09  7.2632796e-05  5.1767024e-07  7.2115126e-05  2.8588889e+09
   1577000   1.3908204e-11  3471800.7      101011.26      1.1308265e+09  7.2632797e-05  5.1767051e-07  7.2115126e-05  2.8588895e+09
   1578000   1.3917024e-11  3471795.5      101013.02      1.1308241e+09  7.2632796e-05  5.1777811e-07  7.2115018e-05  2.8588874e+09
   1579000   1.3925843e-11  3471801.5      101012.95      1.1308262e+09  7.2632807e-05  5.1766331e-07  7.2115143e-05  2.8588905e+09
   1580000   1.3934663e-11  3471795.2      101010.75      1.1308248e+09  7.2632801e-05  5.177886e-07   7.2115013e-05  2.8588877e+09
   1581000   1.3943482e-11  3471797.6      101007.52      1.1308267e+09  7.2632802e-05  5.1773983e-07  7.2115063e-05  2.8588891e+09
   1582000   1.3952301e-11  3471785.8      101002.75      1.1308243e+09  7.2632802e-05  5.1798425e-07  7.2114818e-05  2.8588845e+09
   1583000   1.3961121e-11  3471791.6      101003.66      1.130826e+09   7.2632801e-05  5.178639e-07   7.2114937e-05  2.8588863e+09
   1584000   1.396994e-11   3471786.7      101004.79      1.1308239e+09  7.2632801e-05  5.1796471e-07  7.2114836e-05  2.8588846e+09
   1585000   1.397876e-11   3471786        101009.13      1.1308223e+09  7.2632801e-05  5.1797925e-07  7.2114822e-05  2.8588844e+09
   1586000   1.3987579e-11  3471795.7      101018.11      1.1308225e+09  7.2632813e-05  5.1778939e-07  7.2115023e-05  2.8588883e+09
   1587000   1.3996399e-11  3471797.2      101023.94      1.130821e+09   7.2632803e-05  5.1774958e-07  7.2115054e-05  2.8588884e+09
   1588000   1.4005218e-11  3471796.9      101026.63      1.1308201e+09  7.2632802e-05  5.1775309e-07  7.2115049e-05  2.8588877e+09
   1589000   1.4014037e-11  3471808.7      101033.8       1.1308216e+09  7.2632804e-05  5.1751127e-07  7.2115293e-05  2.8588923e+09
   1590000   1.4022857e-11  3471809.8      101033.13      1.1308222e+09  7.2632807e-05  5.1748968e-07  7.2115317e-05  2.858893e+09 
   1591000   1.4031676e-11  3471807.1      101031.77      1.1308218e+09  7.2632813e-05  5.1755369e-07  7.211526e-05   2.8588922e+09
   1592000   1.4040496e-11  3471814.3      101029.98      1.1308248e+09  7.2632805e-05  5.1739557e-07  7.211541e-05   2.8588932e+09
   1593000   1.4049315e-11  3471815.4      101032.82      1.1308242e+09  7.2632806e-05  5.1737257e-07  7.2115433e-05  2.8588929e+09
   1594000   1.4058134e-11  3471805.2      101028.52      1.1308222e+09  7.2632807e-05  5.1758809e-07  7.2115219e-05  2.8588888e+09
   1595000   1.4066954e-11  3471802.7      101029.56      1.130821e+09   7.2632801e-05  5.1763334e-07  7.2115168e-05  2.8588882e+09
   1596000   1.4075773e-11  3471806.9      101032.41      1.1308215e+09  7.2632809e-05  5.1755462e-07  7.2115255e-05  2.8588911e+09
   1597000   1.4084593e-11  3471816.5      101037.68      1.1308229e+09  7.2632813e-05  5.1735784e-07  7.2115455e-05  2.8588951e+09
   1598000   1.4093412e-11  3471806.5      101034.41      1.1308207e+09  7.2632816e-05  5.1756778e-07  7.2115248e-05  2.8588912e+09
   1599000   1.4102231e-11  3471809        101031.2       1.1308226e+09  7.2632816e-05  5.1751714e-07  7.2115299e-05  2.8588917e+09
   1600000   1.4111051e-11  3471810        101032.3       1.1308226e+09  7.2632815e-05  5.1749389e-07  7.2115321e-05  2.8588924e+09
   1601000   1.411987e-11   3471799.2      101023.23      1.130822e+09   7.2632815e-05  5.1771836e-07  7.2115096e-05  2.8588888e+09
   1602000   1.412869e-11   3471792.7      101019.8       1.1308209e+09  7.2632817e-05  5.1785621e-07  7.211496e-05   2.858886e+09 
   1603000   1.4137509e-11  3471797.6      101017.62      1.1308233e+09  7.2632827e-05  5.1776447e-07  7.2115063e-05  2.8588877e+09
   1604000   1.4146328e-11  3471799.3      101020.65      1.1308229e+09  7.263283e-05   5.177323e-07   7.2115098e-05  2.8588883e+09
   1605000   1.4155148e-11  3471801.1      101023.58      1.1308225e+09  7.2632819e-05  5.1768515e-07  7.2115134e-05  2.8588888e+09
   1606000   1.4163967e-11  3471799.4      101025.19      1.1308214e+09  7.2632818e-05  5.177181e-07   7.21151e-05    2.858889e+09 
   1607000   1.4172787e-11  3471794.1      101025.41      1.1308195e+09  7.2632819e-05  5.1782859e-07  7.211499e-05   2.858887e+09 
   1608000   1.4181606e-11  3471801.2      101027.85      1.1308211e+09  7.2632815e-05  5.1767882e-07  7.2115136e-05  2.8588888e+09
   1609000   1.4190425e-11  3471812.2      101034.92      1.1308224e+09  7.2632816e-05  5.1745043e-07  7.2115365e-05  2.8588931e+09
   1610000   1.4199245e-11  3471811.3      101036.48      1.1308216e+09  7.2632813e-05  5.1746622e-07  7.2115347e-05  2.8588921e+09
   1611000   1.4208064e-11  3471818.1      101038.59      1.1308232e+09  7.2632823e-05  5.173346e-07   7.2115488e-05  2.8588948e+09
   1612000   1.4216884e-11  3471816.4      101038.67      1.1308226e+09  7.263282e-05   5.17367e-07    7.2115453e-05  2.8588937e+09
   1613000   1.4225703e-11  3471816.6      101038.35      1.1308227e+09  7.2632817e-05  5.1735916e-07  7.2115457e-05  2.8588939e+09
   1614000   1.4234523e-11  3471819.7      101040.1       1.1308232e+09  7.2632816e-05  5.1729529e-07  7.2115521e-05  2.8588954e+09
   1615000   1.4243342e-11  3471808.2      101036.39      1.1308206e+09  7.2632816e-05  5.1753255e-07  7.2115283e-05  2.8588905e+09
   1616000   1.4252161e-11  3471814.4      101038.61      1.1308219e+09  7.2632822e-05  5.1741035e-07  7.2115411e-05  2.858893e+09 
   1617000   1.4260981e-11  3471826.1      101046.29      1.1308233e+09  7.2632827e-05  5.1717393e-07  7.2115654e-05  2.8588977e+09
   1618000   1.42698e-11    3471824.4      101049.28      1.1308217e+09  7.2632828e-05  5.1720946e-07  7.2115619e-05  2.8588971e+09
   1619000   1.427862e-11   3471820.5      101046.81      1.1308212e+09  7.2632825e-05  5.1728673e-07  7.2115538e-05  2.8588954e+09
   1620000   1.4287439e-11  3471818        101043.96      1.1308213e+09  7.2632825e-05  5.1733812e-07  7.2115487e-05  2.8588943e+09
   1621000   1.4296258e-11  3471816.9      101047.32      1.1308199e+09  7.263282e-05   5.1735569e-07  7.2115464e-05  2.8588935e+09
   1622000   1.4305078e-11  3471812.7      101044.67      1.1308193e+09  7.2632819e-05  5.1744313e-07  7.2115376e-05  2.8588921e+09
   1623000   1.4313897e-11  3471817.4      101048.62      1.1308196e+09  7.263281e-05   5.1733672e-07  7.2115473e-05  2.8588931e+09
   1624000   1.4322717e-11  3471821.3      101054.2       1.130819e+09   7.2632812e-05  5.1725693e-07  7.2115555e-05  2.8588945e+09
   1625000   1.4331536e-11  3471823.1      101054.64      1.1308195e+09  7.2632811e-05  5.1721851e-07  7.2115592e-05  2.8588949e+09
   1626000   1.4340355e-11  3471821.9      101048.54      1.1308211e+09  7.2632802e-05  5.1723556e-07  7.2115566e-05  2.858893e+09 
   1627000   1.4349175e-11  3471823.7      101052.43      1.1308204e+09  7.2632798e-05  5.1719431e-07  7.2115604e-05  2.8588931e+09
   1628000   1.4357994e-11  3471820.7      101054.49      1.1308187e+09  7.2632806e-05  5.1726481e-07  7.2115542e-05  2.858892e+09 
   1629000   1.4366814e-11  3471831.5      101061.79      1.1308199e+09  7.2632795e-05  5.1702767e-07  7.2115767e-05  2.8588959e+09
   1630000   1.4375633e-11  3471827.5      101064.17      1.1308178e+09  7.2632806e-05  5.1712222e-07  7.2115683e-05  2.8588959e+09
   1631000   1.4384452e-11  3471833.5      101067.57      1.1308186e+09  7.26328e-05    5.1699203e-07  7.2115808e-05  2.8588982e+09
   1632000   1.4393272e-11  3471834.4      101068.04      1.1308188e+09  7.26328e-05    5.1697409e-07  7.2115826e-05  2.8588984e+09
   1633000   1.4402091e-11  3471832.7      101067.86      1.1308183e+09  7.2632795e-05  5.1700339e-07  7.2115792e-05  2.8588968e+09
   1634000   1.4410911e-11  3471838.5      101063.12      1.1308218e+09  7.263279e-05   5.1687788e-07  7.2115912e-05  2.8588978e+09
   1635000   1.441973e-11   3471830.8      101057.55      1.1308211e+09  7.2632784e-05  5.1703111e-07  7.2115753e-05  2.8588943e+09
   1636000   1.4428549e-11  3471821.6      101050.54      1.1308204e+09  7.263278e-05   5.1721832e-07  7.2115562e-05  2.8588906e+09
   1637000   1.4437369e-11  3471813        101044.85      1.1308194e+09  7.2632786e-05  5.1740339e-07  7.2115383e-05  2.858888e+09 
   1638000   1.4446188e-11  3471802.8      101038.69      1.130818e+09   7.2632791e-05  5.1762083e-07  7.2115171e-05  2.858885e+09 
   1639000   1.4455008e-11  3471798.6      101038.94      1.1308165e+09  7.2632789e-05  5.1770555e-07  7.2115083e-05  2.8588842e+09
   1640000   1.4463827e-11  3471809.1      101047.13      1.1308173e+09  7.2632799e-05  5.1749873e-07  7.21153e-05    2.858889e+09 
   1641000   1.4472646e-11  3471824.4      101049.89      1.1308215e+09  7.2632789e-05  5.1716964e-07  7.211562e-05   2.8588929e+09
   1642000   1.4481466e-11  3471827.2      101051.81      1.1308218e+09  7.2632794e-05  5.1711661e-07  7.2115678e-05  2.8588939e+09
   1643000   1.4490285e-11  3471825.7      101055.88      1.1308199e+09  7.2632794e-05  5.1714719e-07  7.2115647e-05  2.8588934e+09
   1644000   1.4499105e-11  3471828.8      101053.79      1.1308217e+09  7.2632801e-05  5.1708989e-07  7.2115711e-05  2.8588952e+09
   1645000   1.4507924e-11  3471825.6      101055.37      1.1308201e+09  7.2632796e-05  5.1715254e-07  7.2115644e-05  2.8588942e+09
   1646000   1.4516744e-11  3471814.8      101054.25      1.1308168e+09  7.2632801e-05  5.1738275e-07  7.2115419e-05  2.8588912e+09
   1647000   1.4525563e-11  3471815.1      101052.38      1.1308176e+09  7.2632808e-05  5.1738119e-07  7.2115427e-05  2.858892e+09 
   1648000   1.4534382e-11  3471811.2      101047.34      1.1308179e+09  7.2632799e-05  5.1745339e-07  7.2115346e-05  2.8588897e+09
   1649000   1.4543202e-11  3471805.4      101044.27      1.130817e+09   7.2632796e-05  5.1757128e-07  7.2115224e-05  2.858887e+09 
   1650000   1.4552021e-11  3471806.2      101045.08      1.130817e+09   7.2632805e-05  5.1756521e-07  7.211524e-05   2.8588876e+09
   1651000   1.4560841e-11  3471808.7      101041.35      1.1308191e+09  7.2632798e-05  5.1750445e-07  7.2115294e-05  2.8588876e+09
   1652000   1.456966e-11   3471799.9      101038.59      1.1308171e+09  7.2632805e-05  5.1769548e-07  7.211511e-05   2.8588849e+09
   1653000   1.4578479e-11  3471804.6      101040.91      1.1308179e+09  7.263281e-05   5.1760156e-07  7.2115208e-05  2.8588876e+09
   1654000   1.4587299e-11  3471806.9      101043.07      1.1308179e+09  7.2632808e-05  5.1755353e-07  7.2115255e-05  2.8588882e+09
   1655000   1.4596118e-11  3471816.1      101049.19      1.1308189e+09  7.263281e-05   5.1736341e-07  7.2115447e-05  2.8588918e+09
   1656000   1.4604938e-11  3471815.4      101048.91      1.1308188e+09  7.26328e-05    5.1736832e-07  7.2115432e-05  2.8588905e+09
   1657000   1.4613757e-11  3471819.9      101053.15      1.1308189e+09  7.2632807e-05  5.1728272e-07  7.2115525e-05  2.8588928e+09
   1658000   1.4622576e-11  3471811.9      101047.72      1.130818e+09   7.2632808e-05  5.1744955e-07  7.2115359e-05  2.8588901e+09
   1659000   1.4631396e-11  3471808.7      101047.8       1.1308169e+09  7.2632811e-05  5.1751848e-07  7.2115292e-05  2.8588903e+09
   1660000   1.4640215e-11  3471802.9      101045.98      1.1308156e+09  7.2632814e-05  5.1764071e-07  7.2115173e-05  2.858889e+09 
   1661000   1.4649035e-11  3471806.4      101045.47      1.1308169e+09  7.2632821e-05  5.175762e-07   7.2115244e-05  2.8588906e+09
   1662000   1.4657854e-11  3471812.1      101044.68      1.1308191e+09  7.2632824e-05  5.1746037e-07  7.2115364e-05  2.8588927e+09
   1663000   1.4666673e-11  3471809        101046.83      1.1308173e+09  7.2632819e-05  5.1752059e-07  7.2115298e-05  2.8588914e+09
   1664000   1.4675493e-11  3471806.5      101050.52      1.1308153e+09  7.2632821e-05  5.175743e-07   7.2115247e-05  2.8588915e+09
   1665000   1.4684312e-11  3471810.4      101053.36      1.1308156e+09  7.2632834e-05  5.17506e-07    7.2115328e-05  2.8588945e+09
   1666000   1.4693132e-11  3471810.2      101054.66      1.1308151e+09  7.263283e-05   5.1750659e-07  7.2115324e-05  2.858895e+09 
   1667000   1.4701951e-11  3471809.6      101054.8       1.1308149e+09  7.2632829e-05  5.1751729e-07  7.2115312e-05  2.8588952e+09
   1668000   1.471077e-11   3471805.2      101054.84      1.1308134e+09  7.2632819e-05  5.1759978e-07  7.211522e-05   2.858892e+09 
   1669000   1.471959e-11   3471818.2      101059.07      1.1308163e+09  7.2632821e-05  5.1733114e-07  7.211549e-05   2.8588967e+09
   1670000   1.4728409e-11  3471814.5      101057.62      1.1308156e+09  7.263282e-05   5.1740632e-07  7.2115413e-05  2.8588948e+09
   1671000   1.4737229e-11  3471815.5      101058.95      1.1308155e+09  7.2632817e-05  5.1738208e-07  7.2115435e-05  2.8588948e+09
   1672000   1.4746048e-11  3471814.5      101059.91      1.1308148e+09  7.2632814e-05  5.1740018e-07  7.2115414e-05  2.858894e+09 
   1673000   1.4754868e-11  3471825.6      101062.68      1.1308176e+09  7.2632811e-05  5.1716712e-07  7.2115644e-05  2.8588979e+09
   1674000   1.4763687e-11  3471816        101061.96      1.1308147e+09  7.2632815e-05  5.1736927e-07  7.2115446e-05  2.858895e+09 
   1675000   1.4772506e-11  3471818.9      101063.27      1.1308152e+09  7.2632817e-05  5.1731234e-07  7.2115505e-05  2.8588972e+09
   1676000   1.4781326e-11  3471810.1      101058.26      1.1308139e+09  7.2632821e-05  5.1749848e-07  7.2115323e-05  2.8588951e+09
   1677000   1.4790145e-11  3471796.6      101052.4       1.1308113e+09  7.2632817e-05  5.1777452e-07  7.2115042e-05  2.8588897e+09
   1678000   1.4798965e-11  3471807.2      101057.59      1.1308131e+09  7.2632813e-05  5.1755139e-07  7.2115261e-05  2.8588929e+09
   1679000   1.4807784e-11  3471807.9      101056.51      1.1308138e+09  7.2632812e-05  5.1753504e-07  7.2115277e-05  2.8588924e+09
   1680000   1.4816603e-11  3471807.8      101058.65      1.130813e+09   7.263281e-05   5.175347e-07   7.2115275e-05  2.8588923e+09
   1681000   1.4825423e-11  3471812.9      101063.08      1.1308132e+09  7.2632809e-05  5.1742875e-07  7.2115381e-05  2.8588946e+09
   1682000   1.4834242e-11  3471817.4      101069.21      1.1308127e+09  7.2632812e-05  5.1733736e-07  7.2115474e-05  2.8588965e+09
   1683000   1.4843062e-11  3471821.3      101068.36      1.1308143e+09  7.2632819e-05  5.1726416e-07  7.2115555e-05  2.8588979e+09
   1684000   1.4851881e-11  3471826.8      101075.2       1.1308138e+09  7.2632827e-05  5.1715705e-07  7.211567e-05   2.8589012e+09
   1685000   1.48607e-11    3471814.2      101075.3       1.1308096e+09  7.2632832e-05  5.1742499e-07  7.2115407e-05  2.8588979e+09
   1686000   1.486952e-11   3471810.1      101074.94      1.1308083e+09  7.2632832e-05  5.1751041e-07  7.2115322e-05  2.8588965e+09
   1687000   1.4878339e-11  3471813.9      101067.55      1.1308121e+09  7.2632836e-05  5.1743586e-07  7.21154e-05    2.8588969e+09
   1688000   1.4887159e-11  3471821.8      101070.72      1.1308137e+09  7.2632825e-05  5.1725947e-07  7.2115565e-05  2.8588982e+09
   1689000   1.4895978e-11  3471811.2      101064.91      1.130812e+09   7.2632822e-05  5.1747806e-07  7.2115344e-05  2.8588941e+09
   1690000   1.4904797e-11  3471804.1      101059.06      1.1308116e+09  7.2632817e-05  5.1761903e-07  7.2115198e-05  2.8588913e+09
   1691000   1.4913617e-11  3471805        101054.45      1.1308135e+09  7.2632821e-05  5.176054e-07   7.2115216e-05  2.8588915e+09
   1692000   1.4922436e-11  3471793.7      101049.38      1.1308114e+09  7.2632832e-05  5.1785158e-07  7.2114981e-05  2.8588876e+09
   1693000   1.4931256e-11  3471792.5      101040.04      1.1308141e+09  7.2632831e-05  5.1787445e-07  7.2114956e-05  2.858887e+09 
   1694000   1.4940075e-11  3471792.3      101044.52      1.1308125e+09  7.2632838e-05  5.1788607e-07  7.2114952e-05  2.8588879e+09
   1695000   1.4948894e-11  3471788.7      101047.52      1.1308103e+09  7.2632847e-05  5.1796909e-07  7.2114878e-05  2.8588877e+09
   1696000   1.4957714e-11  3471792.8      101046.81      1.1308119e+09  7.2632842e-05  5.1787835e-07  7.2114963e-05  2.8588898e+09
   1697000   1.4966533e-11  3471788.4      101046.73      1.1308105e+09  7.2632847e-05  5.1797583e-07  7.2114871e-05  2.8588886e+09
   1698000   1.4975353e-11  3471790.5      101048         1.1308108e+09  7.2632844e-05  5.1792826e-07  7.2114916e-05  2.8588884e+09
   1699000   1.4984172e-11  3471795.4      101049.47      1.1308119e+09  7.263284e-05   5.1782263e-07  7.2115017e-05  2.8588895e+09
   1700000   1.4992991e-11  3471803.5      101054.21      1.1308131e+09  7.2632838e-05  5.1765239e-07  7.2115186e-05  2.8588925e+09
   1701000   1.5001811e-11  3471795.8      101053.85      1.1308106e+09  7.2632831e-05  5.1780603e-07  7.2115025e-05  2.8588893e+09
   1702000   1.501063e-11   3471788.9      101048.57      1.13081e+09    7.2632829e-05  5.1794708e-07  7.2114882e-05  2.8588868e+09
   1703000   1.501945e-11   3471798.2      101053.44      1.1308115e+09  7.2632836e-05  5.1776108e-07  7.2115075e-05  2.8588907e+09
   1704000   1.5028269e-11  3471804.2      101057.93      1.130812e+09   7.2632838e-05  5.1763797e-07  7.21152e-05    2.8588933e+09
   1705000   1.5037089e-11  3471803.7      101061.54      1.1308107e+09  7.2632834e-05  5.1764465e-07  7.211519e-05   2.8588933e+09
   1706000   1.5045908e-11  3471802.7      101061.54      1.1308103e+09  7.2632837e-05  5.1766735e-07  7.2115169e-05  2.8588929e+09
   1707000   1.5054727e-11  3471815.2      101063.95      1.1308137e+09  7.2632834e-05  5.1740563e-07  7.2115429e-05  2.858897e+09 
   1708000   1.5063547e-11  3471813.6      101067.59      1.1308119e+09  7.2632839e-05  5.1744475e-07  7.2115394e-05  2.8588964e+09
   1709000   1.5072366e-11  3471812.7      101066.05      1.1308122e+09  7.263284e-05   5.1746485e-07  7.2115375e-05  2.8588959e+09
   1710000   1.5081186e-11  3471808        101062.88      1.1308116e+09  7.2632842e-05  5.1756386e-07  7.2115278e-05  2.8588943e+09
   1711000   1.5090005e-11  3471810.1      101063.98      1.130812e+09   7.263284e-05   5.1751815e-07  7.2115321e-05  2.8588946e+09
   1712000   1.5098824e-11  3471813.3      101062.04      1.1308137e+09  7.2632834e-05  5.1744503e-07  7.2115388e-05  2.8588944e+09
   1713000   1.5107644e-11  3471815.1      101061.46      1.1308145e+09  7.263283e-05   5.1740427e-07  7.2115426e-05  2.8588946e+09
   1714000   1.5116463e-11  3471799.8      101060.46      1.1308097e+09  7.2632831e-05  5.1772196e-07  7.2115109e-05  2.8588894e+09
   1715000   1.5125283e-11  3471805.3      101062.41      1.1308109e+09  7.2632826e-05  5.1760444e-07  7.2115222e-05  2.8588916e+09
   1716000   1.5134102e-11  3471804.7      101064.7       1.1308099e+09  7.2632831e-05  5.1762191e-07  7.2115209e-05  2.8588919e+09
   1717000   1.5142921e-11  3471806.7      101066.84      1.1308099e+09  7.2632829e-05  5.175773e-07   7.2115251e-05  2.8588921e+09
   1718000   1.5151741e-11  3471814.8      101068.7       1.130812e+09   7.2632824e-05  5.1740346e-07  7.211542e-05   2.8588951e+09
   1719000   1.516056e-11   3471807.3      101070.23      1.1308089e+09  7.2632825e-05  5.1756219e-07  7.2115263e-05  2.8588932e+09
   1720000   1.516938e-11   3471810.9      101072.38      1.1308094e+09  7.2632837e-05  5.1749902e-07  7.2115338e-05  2.8588955e+09
   1721000   1.5178199e-11  3471812.1      101070.03      1.1308106e+09  7.2632839e-05  5.1747536e-07  7.2115363e-05  2.8588956e+09
   1722000   1.5187018e-11  3471817.3      101077.39      1.1308099e+09  7.2632835e-05  5.1736423e-07  7.2115471e-05  2.8588973e+09
   1723000   1.5195838e-11  3471814.4      101075.76      1.1308095e+09  7.2632824e-05  5.1741311e-07  7.2115411e-05  2.8588954e+09
   1724000   1.5204657e-11  3471805.9      101069.91      1.1308086e+09  7.2632822e-05  5.1758626e-07  7.2115236e-05  2.8588921e+09
   1725000   1.5213477e-11  3471809.3      101067.26      1.1308106e+09  7.2632824e-05  5.1751761e-07  7.2115306e-05  2.8588931e+09
   1726000   1.5222296e-11  3471806.1      101067.05      1.1308096e+09  7.2632821e-05  5.1758287e-07  7.2115239e-05  2.8588912e+09
   1727000   1.5231115e-11  3471814.3      101074.71      1.1308098e+09  7.263282e-05   5.1741101e-07  7.2115409e-05  2.8588945e+09
   1728000   1.5239935e-11  3471807.9      101077.27      1.1308068e+09  7.2632819e-05  5.1754277e-07  7.2115276e-05  2.8588919e+09
   1729000   1.5248754e-11  3471815        101078.98      1.1308086e+09  7.2632823e-05  5.1739858e-07  7.2115425e-05  2.8588954e+09
   1730000   1.5257574e-11  3471807.9      101076.07      1.1308072e+09  7.2632823e-05  5.1754588e-07  7.2115277e-05  2.8588926e+09
   1731000   1.5266393e-11  3471808.4      101076.42      1.1308073e+09  7.2632814e-05  5.1752696e-07  7.2115287e-05  2.858892e+09 
   1732000   1.5275213e-11  3471806.5      101075.41      1.1308069e+09  7.2632814e-05  5.1756713e-07  7.2115247e-05  2.8588906e+09
   1733000   1.5284032e-11  3471812.6      101075.74      1.1308089e+09  7.2632807e-05  5.174329e-07   7.2115374e-05  2.8588918e+09
   1734000   1.5292851e-11  3471816.1      101077.21      1.1308096e+09  7.2632804e-05  5.1735712e-07  7.2115447e-05  2.8588924e+09
   1735000   1.5301671e-11  3471824        101083.73      1.13081e+09    7.2632802e-05  5.1719069e-07  7.2115611e-05  2.8588948e+09
   1736000   1.531049e-11   3471817.6      101081.54      1.1308086e+09  7.26328e-05    5.1732281e-07  7.2115477e-05  2.8588928e+09
   1737000   1.531931e-11   3471812.7      101080.34      1.1308074e+09  7.2632801e-05  5.1742457e-07  7.2115377e-05  2.8588918e+09
   1738000   1.5328129e-11  3471815.5      101077.97      1.1308091e+09  7.2632805e-05  5.1737057e-07  7.2115435e-05  2.8588934e+09
   1739000   1.5336948e-11  3471808.1      101074.01      1.130808e+09   7.2632807e-05  5.1752564e-07  7.2115281e-05  2.8588908e+09
   1740000   1.5345768e-11  3471812.3      101078.34      1.1308079e+09  7.2632806e-05  5.1743969e-07  7.2115367e-05  2.8588924e+09
   1741000   1.5354587e-11  3471803.9      101075.04      1.1308062e+09  7.2632802e-05  5.1760832e-07  7.2115193e-05  2.8588892e+09
   1742000   1.5363407e-11  3471799        101072.02      1.1308056e+09  7.2632815e-05  5.1772462e-07  7.2115091e-05  2.8588879e+09
   1743000   1.5372226e-11  3471805.4      101075.41      1.1308066e+09  7.2632813e-05  5.175887e-07   7.2115225e-05  2.8588902e+09
   1744000   1.5381045e-11  3471812.9      101077.76      1.1308083e+09  7.2632815e-05  5.1743426e-07  7.2115381e-05  2.8588927e+09
   1745000   1.5389865e-11  3471815.2      101077.08      1.1308093e+09  7.2632815e-05  5.1738651e-07  7.2115429e-05  2.8588933e+09
   1746000   1.5398684e-11  3471810.5      101075.19      1.1308084e+09  7.2632819e-05  5.1748771e-07  7.2115331e-05  2.8588916e+09
   1747000   1.5407504e-11  3471816        101079.63      1.1308087e+09  7.2632814e-05  5.1737051e-07  7.2115444e-05  2.8588938e+09
   1748000   1.5416323e-11  3471810        101078.74      1.130807e+09   7.2632817e-05  5.1749778e-07  7.2115319e-05  2.8588925e+09
   1749000   1.5425142e-11  3471801.2      101072.01      1.1308063e+09  7.2632822e-05  5.176841e-07   7.2115138e-05  2.8588899e+09
   1750000   1.5433962e-11  3471803.9      101072.8       1.130807e+09   7.2632825e-05  5.1763106e-07  7.2115194e-05  2.8588915e+09
   1751000   1.5442781e-11  3471800        101067.45      1.1308075e+09  7.2632823e-05  5.1770959e-07  7.2115113e-05  2.8588905e+09
   1752000   1.5451601e-11  3471793.6      101070.13      1.1308044e+09  7.2632824e-05  5.1784439e-07  7.211498e-05   2.858889e+09 
   1753000   1.546042e-11   3471784.3      101066.42      1.1308025e+09  7.263282e-05   5.1803288e-07  7.2114787e-05  2.8588848e+09
   1754000   1.5469239e-11  3471786.8      101060.11      1.1308055e+09  7.2632819e-05  5.1798092e-07  7.2114838e-05  2.8588857e+09
   1755000   1.5478059e-11  3471782.4      101061.28      1.1308036e+09  7.2632816e-05  5.1806964e-07  7.2114746e-05  2.8588842e+09
   1756000   1.5486878e-11  3471791.8      101069.19      1.1308041e+09  7.2632809e-05  5.1786664e-07  7.2114942e-05  2.8588872e+09
   1757000   1.5495698e-11  3471801.5      101071.16      1.1308067e+09  7.2632802e-05  5.1765903e-07  7.2115143e-05  2.8588889e+09
   1758000   1.5504517e-11  3471807.7      101069.69      1.1308093e+09  7.2632806e-05  5.1753306e-07  7.2115273e-05  2.8588907e+09
   1759000   1.5513336e-11  3471794.3      101062.39      1.1308072e+09  7.2632808e-05  5.178144e-07   7.2114993e-05  2.8588853e+09
   1760000   1.5522156e-11  3471797.6      101065.55      1.1308073e+09  7.2632814e-05  5.1775133e-07  7.2115063e-05  2.8588874e+09
   1761000   1.5530975e-11  3471802        101069.68      1.1308074e+09  7.2632815e-05  5.1766088e-07  7.2115154e-05  2.8588897e+09
   1762000   1.5539795e-11  3471799.8      101065.29      1.1308081e+09  7.2632817e-05  5.1770865e-07  7.2115109e-05  2.8588889e+09
   1763000   1.5548614e-11  3471801.6      101065.37      1.1308087e+09  7.2632808e-05  5.1766219e-07  7.2115146e-05  2.8588887e+09
   1764000   1.5557434e-11  3471799.1      101069.32      1.1308065e+09  7.2632807e-05  5.177143e-07   7.2115093e-05  2.8588878e+09
   1765000   1.5566253e-11  3471804.1      101076.36      1.1308058e+09  7.263281e-05   5.1761343e-07  7.2115197e-05  2.8588901e+09
   1766000   1.5575072e-11  3471814.2      101085.47      1.1308062e+09  7.263281e-05   5.1740222e-07  7.2115408e-05  2.8588938e+09
   1767000   1.5583892e-11  3471810.1      101083.43      1.1308055e+09  7.2632806e-05  5.1748388e-07  7.2115322e-05  2.8588915e+09
   1768000   1.5592711e-11  3471821.3      101090.04      1.130807e+09   7.2632809e-05  5.1725384e-07  7.2115556e-05  2.8588959e+09
   1769000   1.5601531e-11  3471815.2      101087.26      1.1308059e+09  7.2632808e-05  5.1737957e-07  7.2115429e-05  2.8588934e+09
   1770000   1.561035e-11   3471808        101084.1       1.1308046e+09  7.2632814e-05  5.1753511e-07  7.2115279e-05  2.8588915e+09
   1771000   1.5619169e-11  3471805.3      101085.11      1.1308033e+09  7.2632809e-05  5.1758781e-07  7.2115221e-05  2.8588897e+09
   1772000   1.5627989e-11  3471806.5      101085.81      1.1308035e+09  7.2632806e-05  5.1755998e-07  7.2115246e-05  2.8588889e+09
   1773000   1.5636808e-11  3471816.1      101086.96      1.1308063e+09  7.2632806e-05  5.1736001e-07  7.2115446e-05  2.8588914e+09
   1774000   1.5645628e-11  3471805.6      101081.88      1.1308045e+09  7.2632798e-05  5.175688e-07   7.2115229e-05  2.8588861e+09
   1775000   1.5654447e-11  3471809.9      101081.34      1.1308061e+09  7.2632799e-05  5.1748142e-07  7.2115318e-05  2.8588878e+09
   1776000   1.5663266e-11  3471800.1      101077.12      1.1308042e+09  7.2632798e-05  5.1768329e-07  7.2115115e-05  2.8588841e+09
   1777000   1.5672086e-11  3471805.3      101081.26      1.1308046e+09  7.2632795e-05  5.1757292e-07  7.2115222e-05  2.858886e+09 
   1778000   1.5680905e-11  3471815.7      101089.18      1.1308054e+09  7.2632792e-05  5.173534e-07   7.2115439e-05  2.8588901e+09
   1779000   1.5689725e-11  3471814.7      101086.9       1.1308059e+09  7.2632802e-05  5.1738364e-07  7.2115419e-05  2.8588896e+09
   1780000   1.5698544e-11  3471810.1      101082.96      1.1308056e+09  7.26328e-05    5.1747829e-07  7.2115322e-05  2.8588869e+09
   1781000   1.5707363e-11  3471805.3      101081.32      1.1308046e+09  7.2632801e-05  5.1757945e-07  7.2115222e-05  2.8588851e+09
   1782000   1.5716183e-11  3471800.7      101079.22      1.1308037e+09  7.2632804e-05  5.1767612e-07  7.2115127e-05  2.8588838e+09
   1783000   1.5725002e-11  3471802.2      101077.14      1.1308049e+09  7.2632798e-05  5.1763936e-07  7.2115158e-05  2.8588843e+09
   1784000   1.5733822e-11  3471798.8      101075.89      1.1308042e+09  7.2632801e-05  5.1771255e-07  7.2115088e-05  2.8588835e+09
   1785000   1.5742641e-11  3471802.7      101076.45      1.1308053e+09  7.2632807e-05  5.1763836e-07  7.2115169e-05  2.8588849e+09
   1786000   1.575146e-11   3471801.1      101076.18      1.1308049e+09  7.2632791e-05  5.1765598e-07  7.2115135e-05  2.8588828e+09
   1787000   1.576028e-11   3471795.4      101075.29      1.1308033e+09  7.263279e-05   5.1777216e-07  7.2115018e-05  2.8588804e+09
   1788000   1.5769099e-11  3471794        101076.29      1.1308025e+09  7.2632788e-05  5.1780137e-07  7.2114987e-05  2.85888e+09  
   1789000   1.5777919e-11  3471801.3      101081.28      1.1308032e+09  7.2632792e-05  5.1765359e-07  7.2115138e-05  2.858883e+09 
   1790000   1.5786738e-11  3471809.3      101088.77      1.1308034e+09  7.2632784e-05  5.174784e-07   7.2115306e-05  2.8588847e+09
   1791000   1.5795558e-11  3471817        101096.82      1.1308033e+09  7.2632793e-05  5.173287e-07   7.2115464e-05  2.8588879e+09
   1792000   1.5804377e-11  3471817.3      101094.9       1.1308041e+09  7.2632782e-05  5.1731059e-07  7.2115471e-05  2.8588867e+09
   1793000   1.5813196e-11  3471824.1      101103.24      1.1308036e+09  7.2632781e-05  5.171681e-07   7.2115613e-05  2.8588894e+09
   1794000   1.5822016e-11  3471826.2      101105.32      1.1308036e+09  7.2632779e-05  5.1712232e-07  7.2115657e-05  2.8588901e+09
   1795000   1.5830835e-11  3471826        101112.4       1.1308011e+09  7.2632781e-05  5.171283e-07   7.2115652e-05  2.8588899e+09
   1796000   1.5839655e-11  3471835        101115.08      1.1308033e+09  7.2632781e-05  5.1694148e-07  7.211584e-05   2.8588929e+09
   1797000   1.5848474e-11  3471837.5      101113.11      1.1308047e+09  7.2632778e-05  5.1688762e-07  7.2115891e-05  2.8588934e+09
   1798000   1.5857293e-11  3471833.2      101115.51      1.1308025e+09  7.2632776e-05  5.1697538e-07  7.2115801e-05  2.8588923e+09
   1799000   1.5866113e-11  3471828.3      101111.54      1.1308022e+09  7.2632773e-05  5.1707302e-07  7.21157e-05    2.8588904e+09
   1800000   1.5874932e-11  3471832        101113.05      1.1308029e+09  7.2632772e-05  5.1699438e-07  7.2115777e-05  2.858891e+09 
   1801000   1.5883752e-11  3471830.9      101111.58      1.130803e+09   7.2632777e-05  5.1702383e-07  7.2115753e-05  2.8588901e+09
   1802000   1.5892571e-11  3471835.6      101109.96      1.1308052e+09  7.2632781e-05  5.1692843e-07  7.2115853e-05  2.8588921e+09
   1803000   1.590139e-11   3471828.5      101111.88      1.1308021e+09  7.263278e-05   5.1707655e-07  7.2115704e-05  2.8588901e+09
   1804000   1.591021e-11   3471827.1      101113.57      1.1308011e+09  7.2632786e-05  5.1711027e-07  7.2115676e-05  2.8588907e+09
   1805000   1.5919029e-11  3471830.4      101113.64      1.1308022e+09  7.2632791e-05  5.1704664e-07  7.2115744e-05  2.8588923e+09
   1806000   1.5927849e-11  3471832.8      101111.61      1.1308037e+09  7.2632794e-05  5.1700167e-07  7.2115793e-05  2.858893e+09 
   1807000   1.5936668e-11  3471830.1      101106.13      1.1308046e+09  7.2632786e-05  5.1704947e-07  7.2115737e-05  2.8588908e+09
   1808000   1.5945487e-11  3471823.4      101102.86      1.1308034e+09  7.2632787e-05  5.1718895e-07  7.2115598e-05  2.8588882e+09
   1809000   1.5954307e-11  3471824.4      101108.22      1.130802e+09   7.2632787e-05  5.1716745e-07  7.211562e-05   2.8588886e+09
   1810000   1.5963126e-11  3471825.6      101105.22      1.1308034e+09  7.2632797e-05  5.1715235e-07  7.2115645e-05  2.8588904e+09
   1811000   1.5971946e-11  3471821.2      101107.21      1.1308012e+09  7.2632795e-05  5.1724257e-07  7.2115552e-05  2.8588892e+09
   1812000   1.5980765e-11  3471824.7      101105.22      1.1308031e+09  7.2632802e-05  5.1717686e-07  7.2115625e-05  2.8588916e+09
   1813000   1.5989584e-11  3471807.4      101093.14      1.1308013e+09  7.2632808e-05  5.175419e-07   7.2115266e-05  2.8588859e+09
   1814000   1.5998404e-11  3471810.8      101095.04      1.1308018e+09  7.2632808e-05  5.174712e-07   7.2115336e-05  2.8588875e+09
   1815000   1.6007223e-11  3471806.5      101097.2       1.1307997e+09  7.2632815e-05  5.1756686e-07  7.2115248e-05  2.8588868e+09
   1816000   1.6016043e-11  3471806.3      101094.62      1.1308005e+09  7.2632813e-05  5.1756858e-07  7.2115244e-05  2.8588862e+09
   1817000   1.6024862e-11  3471809.2      101094.4       1.1308015e+09  7.2632812e-05  5.1750892e-07  7.2115303e-05  2.8588867e+09
   1818000   1.6033681e-11  3471807.3      101094.33      1.1308009e+09  7.2632816e-05  5.1755165e-07  7.2115264e-05  2.858886e+09 
   1819000   1.6042501e-11  3471807.3      101097.34      1.1307999e+09  7.2632809e-05  5.1754581e-07  7.2115263e-05  2.8588855e+09
   1820000   1.605132e-11   3471811.5      101100.4       1.1308003e+09  7.2632809e-05  5.1745781e-07  7.2115351e-05  2.8588875e+09
   1821000   1.606014e-11   3471810.8      101099.51      1.1308003e+09  7.2632813e-05  5.1747654e-07  7.2115336e-05  2.8588875e+09
   1822000   1.6068959e-11  3471815        101100.5       1.1308014e+09  7.2632803e-05  5.173784e-07   7.2115424e-05  2.8588881e+09
   1823000   1.6077779e-11  3471818.2      101103.06      1.1308016e+09  7.2632808e-05  5.1731799e-07  7.211549e-05   2.8588894e+09
   1824000   1.6086598e-11  3471812.9      101100.24      1.1308008e+09  7.2632814e-05  5.1743372e-07  7.211538e-05   2.8588882e+09
   1825000   1.6095417e-11  3471809.2      101101.18      1.1307992e+09  7.2632817e-05  5.1751456e-07  7.2115302e-05  2.8588877e+09
   1826000   1.6104237e-11  3471803.5      101101.33      1.1307973e+09  7.263282e-05   5.1763586e-07  7.2115184e-05  2.8588865e+09
   1827000   1.6113056e-11  3471809        101100.2       1.1307995e+09  7.2632824e-05  5.1752584e-07  7.2115299e-05  2.8588894e+09
   1828000   1.6121876e-11  3471808.4      101103.69      1.1307981e+09  7.2632821e-05  5.1753494e-07  7.2115286e-05  2.8588894e+09
   1829000   1.6130695e-11  3471814.4      101105.81      1.1307994e+09  7.2632823e-05  5.1741107e-07  7.2115412e-05  2.8588913e+09
   1830000   1.6139514e-11  3471821.1      101109.72      1.1308004e+09  7.2632825e-05  5.1727413e-07  7.2115551e-05  2.8588939e+09
   1831000   1.6148334e-11  3471822.4      101108.12      1.1308014e+09  7.2632822e-05  5.1724385e-07  7.2115578e-05  2.8588942e+09
   1832000   1.6157153e-11  3471813.3      101104.66      1.1307995e+09  7.2632817e-05  5.1742782e-07  7.2115389e-05  2.8588909e+09
   1833000   1.6165973e-11  3471803.1      101100.54      1.1307974e+09  7.2632817e-05  5.1764048e-07  7.2115176e-05  2.8588878e+09
   1834000   1.6174792e-11  3471807.8      101101.88      1.1307986e+09  7.2632822e-05  5.1754679e-07  7.2115275e-05  2.8588898e+09
   1835000   1.6183611e-11  3471812        101102.57      1.1307997e+09  7.2632824e-05  5.1746307e-07  7.2115361e-05  2.8588908e+09
   1836000   1.6192431e-11  3471815.8      101101.42      1.1308014e+09  7.2632818e-05  5.1737759e-07  7.211544e-05   2.8588914e+09
   1837000   1.620125e-11   3471817.3      101105.36      1.1308006e+09  7.2632814e-05  5.1734209e-07  7.2115472e-05  2.8588916e+09
   1838000   1.621007e-11   3471816.5      101106.39      1.1307999e+09  7.2632815e-05  5.1736093e-07  7.2115454e-05  2.8588913e+09
   1839000   1.6218889e-11  3471821.8      101107.23      1.1308015e+09  7.2632823e-05  5.17257e-07    7.2115566e-05  2.858894e+09 
   1840000   1.6227708e-11  3471813.4      101103.38      1.1307999e+09  7.2632824e-05  5.1743281e-07  7.2115392e-05  2.8588917e+09
   1841000   1.6236528e-11  3471801        101100.61      1.1307967e+09  7.2632826e-05  5.1769377e-07  7.2115132e-05  2.8588883e+09
   1842000   1.6245347e-11  3471806.3      101105.89      1.1307967e+09  7.2632829e-05  5.1758737e-07  7.2115242e-05  2.8588915e+09
   1843000   1.6254167e-11  3471801.6      101104.04      1.1307957e+09  7.2632821e-05  5.1767655e-07  7.2115145e-05  2.8588886e+09
   1844000   1.6262986e-11  3471812.3      101105.81      1.1307987e+09  7.2632819e-05  5.174516e-07   7.2115367e-05  2.8588916e+09
   1845000   1.6271805e-11  3471819.8      101111.53      1.1307993e+09  7.2632815e-05  5.1729119e-07  7.2115524e-05  2.8588936e+09
   1846000   1.6280625e-11  3471817.6      101110.34      1.130799e+09   7.2632812e-05  5.1733448e-07  7.2115478e-05  2.8588921e+09
   1847000   1.6289444e-11  3471815.9      101106.79      1.1307996e+09  7.2632809e-05  5.1736742e-07  7.2115442e-05  2.8588914e+09
   1848000   1.6298264e-11  3471809.4      101106.57      1.1307975e+09  7.263281e-05   5.1750167e-07  7.2115308e-05  2.8588888e+09
   1849000   1.6307083e-11  3471812.8      101104.06      1.1307995e+09  7.2632807e-05  5.1742933e-07  7.2115378e-05  2.85889e+09  
   1850000   1.6315903e-11  3471813.4      101104.78      1.1307994e+09  7.2632811e-05  5.1742159e-07  7.211539e-05   2.8588903e+09
   1851000   1.6324722e-11  3471816.4      101103.23      1.130801e+09   7.2632813e-05  5.1735929e-07  7.2115454e-05  2.8588914e+09
   1852000   1.6333541e-11  3471816.8      101107.14      1.1307998e+09  7.2632811e-05  5.1734998e-07  7.2115461e-05  2.8588918e+09
   1853000   1.6342361e-11  3471812.3      101104.08      1.1307993e+09  7.2632823e-05  5.1745438e-07  7.2115368e-05  2.8588917e+09
   1854000   1.635118e-11   3471803.2      101097.45      1.1307985e+09  7.2632827e-05  5.1764746e-07  7.2115179e-05  2.8588886e+09
   1855000   1.636e-11      3471893.5      101228.37      1.130785e+09   7.2634867e-05  5.1781371e-07  7.2117054e-05  2.8589647e+09
   1856000   1.6368819e-11  3471906        101229.33      1.1307888e+09  7.263487e-05   5.1755693e-07  7.2117313e-05  2.8589692e+09
   1857000   1.6377638e-11  3471894.4      101227.76      1.1307855e+09  7.2634865e-05  5.1779201e-07  7.2117073e-05  2.8589641e+09
   1858000   1.6386458e-11  3471900.3      101232.42      1.1307859e+09  7.2634869e-05  5.1767352e-07  7.2117195e-05  2.8589669e+09
   1859000   1.6395277e-11  3471898.1      101236.48      1.1307838e+09  7.2634869e-05  5.1771851e-07  7.2117151e-05  2.8589668e+09
   1860000   1.6404097e-11  3471902.4      101240.24      1.130784e+09   7.2634875e-05  5.176356e-07   7.2117239e-05  2.8589694e+09
   1861000   1.6412916e-11  3471913.6      101243.97      1.1307865e+09  7.2634878e-05  5.1740639e-07  7.2117471e-05  2.8589731e+09
   1862000   1.6421735e-11  3471914.5      101242.58      1.1307873e+09  7.2634878e-05  5.1738703e-07  7.2117491e-05  2.8589728e+09
   1863000   1.6430555e-11  3471915.5      101244.51      1.130787e+09   7.2634874e-05  5.1736265e-07  7.2117511e-05  2.8589723e+09
   1864000   1.6439374e-11  3471913.9      101244.5       1.1307864e+09  7.2634877e-05  5.1739802e-07  7.2117479e-05  2.858972e+09 
   1865000   1.6448194e-11  3471907.9      101239.2       1.1307862e+09  7.2634874e-05  5.1752019e-07  7.2117354e-05  2.8589703e+09
   1866000   1.6457013e-11  3471903.1      101237.85      1.130785e+09   7.2634871e-05  5.1761762e-07  7.2117254e-05  2.8589691e+09
   1867000   1.6465832e-11  3471905.7      101241.07      1.1307848e+09  7.2634876e-05  5.1756814e-07  7.2117308e-05  2.8589703e+09
   1868000   1.6474652e-11  3471910.4      101240.77      1.1307865e+09  7.2634876e-05  5.1746993e-07  7.2117406e-05  2.8589708e+09
   1869000   1.6483471e-11  3471904.4      101238.62      1.1307852e+09  7.2634876e-05  5.1759534e-07  7.211728e-05   2.8589678e+09
   1870000   1.6492291e-11  3471909.8      101241.77      1.130786e+09   7.263487e-05   5.1747776e-07  7.2117392e-05  2.8589699e+09
   1871000   1.650111e-11   3471907.2      101244.26      1.1307843e+09  7.263487e-05   5.1753206e-07  7.2117338e-05  2.8589691e+09
   1872000   1.6509929e-11  3471912.1      101246.66      1.1307851e+09  7.2634873e-05  5.1743221e-07  7.2117441e-05  2.8589712e+09
   1873000   1.6518749e-11  3471916.2      101258.6       1.1307825e+09  7.2634851e-05  5.173247e-07   7.2117526e-05  2.8589715e+09
   1874000   1.6527568e-11  3471913.8      101256.42      1.1307824e+09  7.2634849e-05  5.1737242e-07  7.2117477e-05  2.8589703e+09
   1875000   1.6536388e-11  3471907.8      101254.43      1.1307811e+09  7.2634849e-05  5.1749722e-07  7.2117352e-05  2.8589684e+09
   1876000   1.6545207e-11  3471913.9      101257.55      1.1307821e+09  7.2634855e-05  5.1737602e-07  7.2117479e-05  2.8589716e+09
   1877000   1.6554026e-11  3471905.9      101254.86      1.1307803e+09  7.2634855e-05  5.1754354e-07  7.2117311e-05  2.8589687e+09
   1878000   1.6562846e-11  3471911.8      101262.71      1.1307796e+09  7.2634851e-05  5.1741729e-07  7.2117434e-05  2.8589709e+09
   1879000   1.6571665e-11  3471916.6      101267.3       1.1307797e+09  7.2634846e-05  5.1731249e-07  7.2117533e-05  2.8589726e+09
   1880000   1.6580485e-11  3471918.5      101271.84      1.1307788e+09  7.2634842e-05  5.1726834e-07  7.2117574e-05  2.8589728e+09
   1881000   1.6589304e-11  3471918.1      101273.11      1.1307783e+09  7.2634846e-05  5.1728002e-07  7.2117566e-05  2.8589731e+09
   1882000   1.6598124e-11  3471914        101270.72      1.1307777e+09  7.2634849e-05  5.1736932e-07  7.2117479e-05  2.858972e+09 
   1883000   1.6606943e-11  3471906.4      101265.94      1.1307767e+09  7.2634854e-05  5.1753133e-07  7.2117322e-05  2.8589699e+09
   1884000   1.6615762e-11  3471910.6      101268.23      1.1307774e+09  7.2634845e-05  5.1743555e-07  7.211741e-05   2.858971e+09 
   1885000   1.6624582e-11  3471913.6      101266.44      1.130779e+09   7.2634844e-05  5.1737179e-07  7.2117472e-05  2.8589718e+09
   1886000   1.6633401e-11  3471903.7      101266.86      1.1307755e+09  7.2634834e-05  5.1756652e-07  7.2117267e-05  2.8589674e+09
   1887000   1.6642221e-11  3471902.7      101260.83      1.1307772e+09  7.263484e-05   5.1759483e-07  7.2117245e-05  2.8589672e+09
   1888000   1.665104e-11   3471904.4      101261.86      1.1307774e+09  7.2634841e-05  5.1756095e-07  7.211728e-05   2.8589678e+09
   1889000   1.6659859e-11  3471903.5      101257.95      1.1307785e+09  7.2634831e-05  5.1756793e-07  7.2117263e-05  2.8589665e+09
   1890000   1.6668679e-11  3471906.5      101255.86      1.1307801e+09  7.2634836e-05  5.1751229e-07  7.2117324e-05  2.8589682e+09
   1891000   1.6677498e-11  3471897.4      101255.17      1.1307773e+09  7.2634832e-05  5.1769766e-07  7.2117135e-05  2.8589649e+09
   1892000   1.6686318e-11  3471899.8      101254.48      1.1307784e+09  7.263483e-05   5.1764367e-07  7.2117186e-05  2.8589655e+09
   1893000   1.6695137e-11  3471895.2      101254.14      1.1307769e+09  7.263483e-05   5.1774108e-07  7.2117089e-05  2.8589637e+09
   1894000   1.6703956e-11  3471901.6      101253.33      1.1307794e+09  7.2634833e-05  5.1760942e-07  7.2117223e-05  2.8589667e+09
   1895000   1.6712776e-11  3471905.6      101260.01      1.1307785e+09  7.2634835e-05  5.1752923e-07  7.2117305e-05  2.8589686e+09
   1896000   1.6721595e-11  3471908.7      101263.95      1.1307782e+09  7.2634828e-05  5.1745758e-07  7.211737e-05   2.8589696e+09
   1897000   1.6730415e-11  3471911.7      101264.7       1.1307789e+09  7.2634829e-05  5.1739622e-07  7.2117433e-05  2.8589711e+09
   1898000   1.6739234e-11  3471913.4      101267.66      1.1307785e+09  7.2634826e-05  5.1735738e-07  7.2117468e-05  2.8589721e+09
   1899000   1.6748053e-11  3471900.9      101261.08      1.1307765e+09  7.2634824e-05  5.1761585e-07  7.2117208e-05  2.858967e+09 
   1900000   1.6756873e-11  3471904.4      101259.97      1.1307781e+09  7.2634828e-05  5.1754712e-07  7.2117281e-05  2.8589683e+09
   1901000   1.6765692e-11  3471908.5      101264.23      1.130778e+09   7.263483e-05   5.1746407e-07  7.2117366e-05  2.8589705e+09
   1902000   1.6774512e-11  3471912.5      101266.76      1.1307785e+09  7.2634835e-05  5.1738616e-07  7.2117449e-05  2.8589728e+09
   1903000   1.6783331e-11  3471909.4      101269.93      1.1307764e+09  7.2634829e-05  5.174445e-07   7.2117385e-05  2.858971e+09 
   1904000   1.679215e-11   3471912        101269.18      1.1307775e+09  7.2634829e-05  5.1739019e-07  7.2117439e-05  2.8589718e+09
   1905000   1.680097e-11   3471910.3      101269.45      1.1307769e+09  7.2634828e-05  5.1742351e-07  7.2117404e-05  2.8589714e+09
   1906000   1.6809789e-11  3471905.6      101269.74      1.1307752e+09  7.2634832e-05  5.1752708e-07  7.2117305e-05  2.8589706e+09
   1907000   1.6818609e-11  3471903.9      101267.99      1.1307752e+09  7.2634827e-05  5.175564e-07   7.2117271e-05  2.8589696e+09
   1908000   1.6827428e-11  3471901.6      101267.61      1.1307746e+09  7.2634823e-05  5.1760117e-07  7.2117222e-05  2.8589679e+09
   1909000   1.6836248e-11  3471905        101264.97      1.1307766e+09  7.2634839e-05  5.175458e-07   7.2117293e-05  2.8589706e+09
   1910000   1.6845067e-11  3471900.2      101263.06      1.1307756e+09  7.2634839e-05  5.1764528e-07  7.2117194e-05  2.8589697e+09
   1911000   1.6853886e-11  3471899        101263.13      1.1307752e+09  7.2634846e-05  5.1767762e-07  7.2117168e-05  2.8589703e+09
   1912000   1.6862706e-11  3471892.7      101260.11      1.1307741e+09  7.2634853e-05  5.1781419e-07  7.2117038e-05  2.858968e+09 
   1913000   1.6871525e-11  3471896.4      101262.45      1.1307746e+09  7.2634842e-05  5.1772718e-07  7.2117114e-05  2.8589682e+09
   1914000   1.6880345e-11  3471889.8      101259.57      1.1307733e+09  7.2634837e-05  5.1785916e-07  7.2116977e-05  2.858965e+09 
   1915000   1.6889164e-11  3471902        101262.43      1.1307764e+09  7.2634833e-05  5.1760138e-07  7.2117231e-05  2.8589688e+09
   1916000   1.6897983e-11  3471895.9      101262.16      1.1307745e+09  7.2634835e-05  5.1772947e-07  7.2117105e-05  2.8589667e+09
   1917000   1.6906803e-11  3471894.7      101261.36      1.1307744e+09  7.263483e-05   5.1774964e-07  7.211708e-05   2.8589662e+09
   1918000   1.6915622e-11  3471896.8      101261.72      1.1307749e+09  7.2634835e-05  5.1771309e-07  7.2117122e-05  2.8589676e+09
   1919000   1.6924442e-11  3471903.8      101268.87      1.1307749e+09  7.263484e-05   5.1757205e-07  7.2117268e-05  2.8589703e+09
   1920000   1.6933261e-11  3471914.4      101276.13      1.130776e+09   7.2634831e-05  5.1734267e-07  7.2117489e-05  2.8589735e+09
   1921000   1.694208e-11   3471912.4      101276.92      1.1307751e+09  7.2634833e-05  5.1738612e-07  7.2117447e-05  2.8589728e+09
   1922000   1.69509e-11    3471907.6      101276.85      1.1307735e+09  7.2634834e-05  5.1748748e-07  7.2117347e-05  2.8589709e+09
   1923000   1.6959719e-11  3471908.1      101274.32      1.1307745e+09  7.2634839e-05  5.1748118e-07  7.2117358e-05  2.8589714e+09
   1924000   1.6968539e-11  3471911        101272.69      1.130776e+09   7.2634836e-05  5.1741823e-07  7.2117418e-05  2.8589717e+09
   1925000   1.6977358e-11  3471908.8      101275.36      1.1307744e+09  7.2634829e-05  5.174565e-07   7.2117373e-05  2.8589705e+09
   1926000   1.6986177e-11  3471899.3      101272.98      1.130772e+09   7.2634834e-05  5.1765975e-07  7.2117175e-05  2.858968e+09 
   1927000   1.6994997e-11  3471895.1      101268.17      1.1307722e+09  7.263484e-05   5.1775277e-07  7.2117087e-05  2.8589671e+09
   1928000   1.7003816e-11  3471899.6      101269.4       1.1307733e+09  7.263485e-05   5.1766982e-07  7.211718e-05   2.858969e+09 
   1929000   1.7012636e-11  3471899.5      101266.63      1.1307742e+09  7.2634845e-05  5.1766528e-07  7.211718e-05   2.858968e+09 
   1930000   1.7021455e-11  3471900.3      101269.58      1.1307735e+09  7.2634848e-05  5.1765251e-07  7.2117196e-05  2.8589683e+09
   1931000   1.7030274e-11  3471896.9      101266.73      1.1307733e+09  7.2634853e-05  5.1772701e-07  7.2117126e-05  2.8589675e+09
   1932000   1.7039094e-11  3471895.4      101271.26      1.1307713e+09  7.2634855e-05  5.1776081e-07  7.2117094e-05  2.8589672e+09
   1933000   1.7047913e-11  3471898.4      101273.63      1.1307715e+09  7.2634851e-05  5.1769535e-07  7.2117155e-05  2.8589682e+09
   1934000   1.7056733e-11  3471902.8      101279.67      1.1307709e+09  7.2634847e-05  5.1759986e-07  7.2117247e-05  2.8589693e+09
   1935000   1.7065552e-11  3471908.1      101279.24      1.1307729e+09  7.2634856e-05  5.1749924e-07  7.2117357e-05  2.8589718e+09
   1936000   1.7074371e-11  3471904.6      101277.62      1.1307722e+09  7.2634853e-05  5.1756718e-07  7.2117286e-05  2.8589702e+09
   1937000   1.7083191e-11  3471906.1      101280.44      1.1307718e+09  7.2634853e-05  5.1753651e-07  7.2117317e-05  2.8589708e+09
   1938000   1.709201e-11   3471907.2      101282.09      1.1307716e+09  7.2634856e-05  5.1751634e-07  7.211734e-05   2.8589715e+09
   1939000   1.710083e-11   3471909.8      101283.35      1.1307721e+09  7.2634851e-05  5.1745896e-07  7.2117392e-05  2.8589716e+09
   1940000   1.7109649e-11  3471914.2      101281.08      1.1307743e+09  7.2634846e-05  5.1736229e-07  7.2117484e-05  2.8589723e+09
   1941000   1.7118469e-11  3471910.9      101282.06      1.1307729e+09  7.2634848e-05  5.174324e-07   7.2117415e-05  2.8589711e+09
   1942000   1.7127288e-11  3471899.8      101282.01      1.1307692e+09  7.2634857e-05  5.1767184e-07  7.2117185e-05  2.8589682e+09
   1943000   1.7136107e-11  3471905.1      101278.89      1.130772e+09   7.2634859e-05  5.1756341e-07  7.2117296e-05  2.8589705e+09
   1944000   1.7144927e-11  3471906        101279.63      1.130772e+09   7.2634862e-05  5.1754855e-07  7.2117313e-05  2.8589714e+09
   1945000   1.7153746e-11  3471903.4      101282.32      1.1307703e+09  7.2634861e-05  5.1760048e-07  7.211726e-05   2.8589707e+09
   1946000   1.7162566e-11  3471909.4      101286.7       1.1307708e+09  7.2634851e-05  5.1746601e-07  7.2117385e-05  2.8589717e+09
   1947000   1.7171385e-11  3471914.4      101290.48      1.1307712e+09  7.263485e-05   5.1736176e-07  7.2117489e-05  2.8589732e+09
   1948000   1.7180204e-11  3471913.7      101292.99      1.1307702e+09  7.2634847e-05  5.1737215e-07  7.2117475e-05  2.8589733e+09
   1949000   1.7189024e-11  3471913.4      101293.38      1.1307699e+09  7.2634853e-05  5.173847e-07   7.2117468e-05  2.8589741e+09
   1950000   1.7197843e-11  3471909.8      101290.36      1.1307697e+09  7.2634854e-05  5.1745993e-07  7.2117394e-05  2.8589725e+09
   1951000   1.7206663e-11  3471911.8      101289.19      1.1307708e+09  7.2634853e-05  5.174193e-07   7.2117434e-05  2.8589717e+09
   1952000   1.7215482e-11  3471912.5      101291.18      1.1307703e+09  7.2634851e-05  5.1740242e-07  7.2117448e-05  2.8589713e+09
   1953000   1.7224301e-11  3471906        101288.5       1.1307691e+09  7.2634848e-05  5.1753346e-07  7.2117315e-05  2.8589689e+09
   1954000   1.7233121e-11  3471901.1      101284.3       1.1307688e+09  7.2634847e-05  5.1763414e-07  7.2117212e-05  2.8589673e+09
   1955000   1.724194e-11   3471903.6      101282.27      1.1307704e+09  7.2634848e-05  5.1758363e-07  7.2117265e-05  2.8589685e+09
   1956000   1.725076e-11   3471910.8      101284.75      1.1307719e+09  7.2634852e-05  5.1743749e-07  7.2117414e-05  2.8589709e+09
   1957000   1.7259579e-11  3471908        101283.88      1.1307713e+09  7.2634857e-05  5.1750125e-07  7.2117356e-05  2.8589703e+09
   1958000   1.7268398e-11  3471892.7      101279.01      1.1307678e+09  7.2634853e-05  5.1781451e-07  7.2117038e-05  2.8589645e+09
   1959000   1.7277218e-11  3471899.5      101283.33      1.1307686e+09  7.2634852e-05  5.1767359e-07  7.2117179e-05  2.8589675e+09
   1960000   1.7286037e-11  3471894.4      101273.72      1.1307701e+09  7.2634855e-05  5.1778048e-07  7.2117074e-05  2.8589656e+09
   1961000   1.7294857e-11  3471886.1      101273.93      1.1307672e+09  7.2634852e-05  5.1795187e-07  7.21169e-05    2.8589618e+09
   1962000   1.7303676e-11  3471895.6      101276.25      1.1307697e+09  7.2634855e-05  5.1775576e-07  7.2117099e-05  2.8589652e+09
   1963000   1.7312495e-11  3471891.5      101278.47      1.1307676e+09  7.2634856e-05  5.1784179e-07  7.2117014e-05  2.8589641e+09
   1964000   1.7321315e-11  3471895.4      101278.04      1.130769e+09   7.2634867e-05  5.1777318e-07  7.2117094e-05  2.8589672e+09
   1965000   1.7330134e-11  3471897.9      101279.29      1.1307694e+09  7.263486e-05   5.1771373e-07  7.2117146e-05  2.8589675e+09
   1966000   1.7338954e-11  3471896.6      101279.24      1.130769e+09   7.2634864e-05  5.177449e-07   7.2117119e-05  2.8589667e+09
   1967000   1.7347773e-11  3471897.6      101278.63      1.1307695e+09  7.2634855e-05  5.1771556e-07  7.2117139e-05  2.8589657e+09
   1968000   1.7356593e-11  3471905.5      101283.24      1.1307707e+09  7.2634858e-05  5.1755326e-07  7.2117304e-05  2.8589688e+09
   1969000   1.7365412e-11  3471909.5      101291.22      1.1307693e+09  7.2634856e-05  5.1746937e-07  7.2117386e-05  2.8589709e+09
   1970000   1.7374231e-11  3471907.8      101292.54      1.1307683e+09  7.2634853e-05  5.1750238e-07  7.2117351e-05  2.8589706e+09
   1971000   1.7383051e-11  3471910        101296.85      1.1307676e+09  7.2634865e-05  5.174675e-07   7.2117398e-05  2.8589725e+09
   1972000   1.739187e-11   3471908        101289.39      1.1307694e+09  7.263486e-05   5.1750501e-07  7.2117355e-05  2.8589709e+09
   1973000   1.740069e-11   3471906.9      101294.84      1.1307672e+09  7.263486e-05   5.1752811e-07  7.2117332e-05  2.8589708e+09
   1974000   1.7409509e-11  3471915.4      101296.93      1.1307694e+09  7.2634849e-05  5.1734006e-07  7.2117509e-05  2.8589733e+09
   1975000   1.7418328e-11  3471919.7      101300.83      1.1307695e+09  7.2634851e-05  5.1725329e-07  7.2117598e-05  2.8589752e+09
   1976000   1.7427148e-11  3471917.1      101301.33      1.1307685e+09  7.2634838e-05  5.1729379e-07  7.2117545e-05  2.8589729e+09
   1977000   1.7435967e-11  3471916        101302.2       1.1307678e+09  7.2634845e-05  5.1732242e-07  7.2117522e-05  2.8589729e+09
   1978000   1.7444787e-11  3471917.4      101304.62      1.1307675e+09  7.2634837e-05  5.1728672e-07  7.211755e-05   2.8589728e+09
   1979000   1.7453606e-11  3471926.1      101308.03      1.1307693e+09  7.2634834e-05  5.1710215e-07  7.2117732e-05  2.858976e+09 
   1980000   1.7462425e-11  3471925.2      101310.16      1.1307682e+09  7.2634831e-05  5.1711926e-07  7.2117712e-05  2.8589758e+09
   1981000   1.7471245e-11  3471919        101306.91      1.1307673e+09  7.2634829e-05  5.1724448e-07  7.2117584e-05  2.8589733e+09
   1982000   1.7480064e-11  3471919.4      101306.69      1.1307675e+09  7.2634829e-05  5.1723575e-07  7.2117593e-05  2.8589735e+09
   1983000   1.7488884e-11  3471912.4      101305.03      1.1307657e+09  7.2634837e-05  5.1739068e-07  7.2117446e-05  2.8589714e+09
   1984000   1.7497703e-11  3471920.1      101305.59      1.1307681e+09  7.2634835e-05  5.1722826e-07  7.2117606e-05  2.8589743e+09
   1985000   1.7506522e-11  3471917.1      101303.59      1.1307677e+09  7.2634834e-05  5.1728905e-07  7.2117545e-05  2.8589728e+09
   1986000   1.7515342e-11  3471912.4      101301.82      1.1307667e+09  7.2634829e-05  5.173824e-07   7.2117446e-05  2.8589702e+09
   1987000   1.7524161e-11  3471916.9      101301.11      1.1307685e+09  7.2634827e-05  5.1728603e-07  7.2117541e-05  2.8589715e+09
   1988000   1.7532981e-11  3471919.3      101302.51      1.1307689e+09  7.2634825e-05  5.172344e-07   7.2117591e-05  2.8589722e+09
   1989000   1.75418e-11    3471917.6      101300.99      1.1307688e+09  7.2634825e-05  5.1727021e-07  7.2117555e-05  2.8589712e+09
   1990000   1.7550619e-11  3471913.9      101300.4       1.1307677e+09  7.2634821e-05  5.173432e-07   7.2117478e-05  2.8589691e+09
   1991000   1.7559439e-11  3471915.7      101304.17      1.1307671e+09  7.2634827e-05  5.1731261e-07  7.2117515e-05  2.8589697e+09
   1992000   1.7568258e-11  3471910.2      101303.43      1.1307655e+09  7.263483e-05   5.1742787e-07  7.2117402e-05  2.8589675e+09
   1993000   1.7577078e-11  3471913.3      101304.15      1.1307663e+09  7.2634837e-05  5.1737078e-07  7.2117466e-05  2.8589692e+09
   1994000   1.7585897e-11  3471920.1      101308.94      1.130767e+09   7.2634835e-05  5.1722807e-07  7.2117607e-05  2.8589716e+09
   1995000   1.7594716e-11  3471918.5      101310.2       1.130766e+09   7.2634841e-05  5.1726643e-07  7.2117575e-05  2.8589719e+09
   1996000   1.7603536e-11  3471917.2      101312.63      1.1307647e+09  7.2634845e-05  5.1729868e-07  7.2117546e-05  2.8589728e+09
   1997000   1.7612355e-11  3471922.8      101317.92      1.1307649e+09  7.2634852e-05  5.1718924e-07  7.2117663e-05  2.8589762e+09
   1998000   1.7621175e-11  3471927.7      101320.63      1.1307656e+09  7.2634856e-05  5.1709048e-07  7.2117766e-05  2.8589782e+09
   1999000   1.7629994e-11  3471931.7      101320.91      1.1307669e+09  7.263485e-05   5.1700203e-07  7.2117848e-05  2.8589784e+09
   2000000   1.7638814e-11  3471932.4      101322.21      1.1307667e+09  7.2634842e-05  5.1697893e-07  7.2117863e-05  2.8589771e+09
   2001000   1.7647633e-11  3471929.7      101318.96      1.1307668e+09  7.2634829e-05  5.1702158e-07  7.2117807e-05  2.8589741e+09
   2002000   1.7656452e-11  3471931.7      101319.75      1.1307672e+09  7.2634822e-05  5.16974e-07    7.2117848e-05  2.8589731e+09
   2003000   1.7665272e-11  3471933.3      101318.28      1.1307683e+09  7.2634825e-05  5.1694351e-07  7.2117882e-05  2.8589735e+09
   2004000   1.7674091e-11  3471926        101314.08      1.1307672e+09  7.2634827e-05  5.1709688e-07  7.2117731e-05  2.8589719e+09
   2005000   1.7682911e-11  3471917.6      101312.05      1.1307651e+09  7.2634829e-05  5.1727532e-07  7.2117554e-05  2.8589701e+09
   2006000   1.769173e-11   3471908.1      101306.44      1.1307638e+09  7.2634829e-05  5.17472e-07    7.2117357e-05  2.8589671e+09
   2007000   1.7700549e-11  3471907.7      101301.7       1.1307652e+09  7.2634835e-05  5.1748616e-07  7.2117349e-05  2.8589668e+09
   2008000   1.7709369e-11  3471909.6      101303.45      1.1307653e+09  7.2634831e-05  5.1744168e-07  7.2117389e-05  2.8589662e+09
   2009000   1.7718188e-11  3471916.3      101308.99      1.1307657e+09  7.263483e-05   5.1730127e-07  7.2117528e-05  2.8589685e+09
   2010000   1.7727008e-11  3471914.9      101311.87      1.1307642e+09  7.263483e-05   5.1733076e-07  7.21175e-05    2.8589676e+09
   2011000   1.7735827e-11  3471926.3      101312.82      1.1307677e+09  7.2634832e-05  5.1709689e-07  7.2117736e-05  2.8589712e+09
   2012000   1.7744646e-11  3471928.1      101313.87      1.130768e+09   7.2634832e-05  5.1705925e-07  7.2117773e-05  2.8589716e+09
   2013000   1.7753466e-11  3471926.3      101311.8       1.1307681e+09  7.2634827e-05  5.1709156e-07  7.2117736e-05  2.8589705e+09
   2014000   1.7762285e-11  3471925.9      101311.67      1.130768e+09   7.2634836e-05  5.1710939e-07  7.2117726e-05  2.8589713e+09
   2015000   1.7771105e-11  3471922        101309.06      1.1307676e+09  7.2634843e-05  5.171971e-07   7.2117646e-05  2.8589712e+09
   2016000   1.7779924e-11  3471925.2      101313.01      1.1307673e+09  7.2634851e-05  5.1713745e-07  7.2117714e-05  2.8589733e+09
   2017000   1.7788743e-11  3471921.5      101310.09      1.130767e+09   7.2634845e-05  5.1721013e-07  7.2117635e-05  2.8589716e+09
   2018000   1.7797563e-11  3471920.5      101308.57      1.1307672e+09  7.2634845e-05  5.1722912e-07  7.2117616e-05  2.8589715e+09
   2019000   1.7806382e-11  3471916.9      101309.92      1.1307656e+09  7.263485e-05   5.1730829e-07  7.2117541e-05  2.8589709e+09
   2020000   1.7815202e-11  3471916.3      101308.36      1.1307659e+09  7.2634851e-05  5.1732271e-07  7.2117528e-05  2.8589709e+09
   2021000   1.7824021e-11  3471915.8      101309.33      1.1307654e+09  7.2634842e-05  5.1732392e-07  7.2117518e-05  2.85897e+09  
   2022000   1.783284e-11   3471922.7      101307.93      1.1307682e+09  7.2634844e-05  5.1718294e-07  7.2117661e-05  2.8589727e+09
   2023000   1.784166e-11   3471914.3      101304.09      1.1307666e+09  7.2634842e-05  5.1735587e-07  7.2117486e-05  2.8589692e+09
   2024000   1.7850479e-11  3471912        101300.25      1.1307671e+09  7.2634845e-05  5.1740724e-07  7.2117438e-05  2.8589691e+09
   2025000   1.7859299e-11  3471914        101299.97      1.1307679e+09  7.2634849e-05  5.1736837e-07  7.2117481e-05  2.858971e+09 
   2026000   1.7868118e-11  3471912.6      101303.7       1.1307662e+09  7.2634847e-05  5.1739603e-07  7.2117451e-05  2.8589705e+09
   2027000   1.7876938e-11  3471909.2      101300.48      1.1307661e+09  7.2634847e-05  5.1746711e-07  7.211738e-05   2.8589693e+09
   2028000   1.7885757e-11  3471911.4      101302.67      1.1307661e+09  7.2634843e-05  5.1741794e-07  7.2117426e-05  2.8589704e+09
   2029000   1.7894576e-11  3471902.3      101299.21      1.1307643e+09  7.2634836e-05  5.1759813e-07  7.2117238e-05  2.8589672e+09
   2030000   1.7903396e-11  3471904.5      101299.9       1.1307648e+09  7.2634848e-05  5.1756501e-07  7.2117283e-05  2.858969e+09 
   2031000   1.7912215e-11  3471903.5      101295.35      1.1307659e+09  7.2634851e-05  5.1758801e-07  7.2117263e-05  2.858968e+09 
   2032000   1.7921035e-11  3471906.3      101297.59      1.1307661e+09  7.263485e-05   5.1752903e-07  7.2117321e-05  2.8589693e+09
   2033000   1.7929854e-11  3471912.7      101300.83      1.1307672e+09  7.2634852e-05  5.1739769e-07  7.2117454e-05  2.8589726e+09
   2034000   1.7938673e-11  3471906.9      101303.21      1.1307645e+09  7.2634855e-05  5.1752135e-07  7.2117334e-05  2.8589716e+09
   2035000   1.7947493e-11  3471903.5      101304.44      1.1307629e+09  7.2634851e-05  5.1758831e-07  7.2117263e-05  2.8589709e+09
   2036000   1.7956312e-11  3471894        101297.88      1.1307619e+09  7.2634851e-05  5.1778716e-07  7.2117064e-05  2.8589672e+09
   2037000   1.7965132e-11  3471903.7      101301.02      1.1307641e+09  7.2634846e-05  5.1757958e-07  7.2117266e-05  2.8589708e+09
   2038000   1.7973951e-11  3471901.4      101298.66      1.1307641e+09  7.263485e-05   5.1763168e-07  7.2117218e-05  2.8589705e+09
   2039000   1.798277e-11   3471901        101297.82      1.1307643e+09  7.2634852e-05  5.1764116e-07  7.2117211e-05  2.8589711e+09
   2040000   1.799159e-11   3471895.5      101293.52      1.1307639e+09  7.2634849e-05  5.1775243e-07  7.2117097e-05  2.8589692e+09
   2041000   1.8000409e-11  3471894.6      101296.65      1.1307625e+09  7.2634847e-05  5.1776879e-07  7.2117078e-05  2.858969e+09 
   2042000   1.8009229e-11  3471896.4      101293.51      1.1307642e+09  7.2634846e-05  5.1773097e-07  7.2117115e-05  2.8589686e+09
   2043000   1.8018048e-11  3471896.9      101289.85      1.1307656e+09  7.263485e-05   5.1772418e-07  7.2117126e-05  2.8589679e+09
   2044000   1.8026867e-11  3471894        101288.95      1.1307649e+09  7.2634847e-05  5.1778248e-07  7.2117065e-05  2.8589663e+09
   2045000   1.8035687e-11  3471899.7      101292.52      1.1307656e+09  7.2634849e-05  5.1766643e-07  7.2117182e-05  2.858969e+09 
   2046000   1.8044506e-11  3471896.6      101294.45      1.1307639e+09  7.2634851e-05  5.1773134e-07  7.211712e-05   2.8589686e+09
   2047000   1.8053326e-11  3471898.4      101293.54      1.1307648e+09  7.2634859e-05  5.177029e-07   7.2117156e-05  2.8589704e+09
   2048000   1.8062145e-11  3471892.5      101292.47      1.1307632e+09  7.2634853e-05  5.1781975e-07  7.2117033e-05  2.858968e+09 
   2049000   1.8070964e-11  3471900.4      101296.55      1.1307645e+09  7.2634847e-05  5.1765018e-07  7.2117197e-05  2.8589703e+09
   2050000   1.8079784e-11  3471903.6      101298.11      1.1307651e+09  7.2634844e-05  5.175799e-07   7.2117264e-05  2.8589709e+09
   2051000   1.8088603e-11  3471899.5      101295.83      1.1307644e+09  7.2634852e-05  5.1767432e-07  7.2117178e-05  2.8589698e+09
   2052000   1.8097423e-11  3471900        101301.66      1.1307627e+09  7.2634854e-05  5.1766357e-07  7.211719e-05   2.8589707e+09
   2053000   1.8106242e-11  3471903.6      101299.33      1.1307646e+09  7.263485e-05   5.1758582e-07  7.2117264e-05  2.858972e+09 
   2054000   1.8115061e-11  3471895.2      101297.51      1.1307624e+09  7.2634856e-05  5.1776551e-07  7.211709e-05   2.8589689e+09
   2055000   1.8123881e-11  3471900.8      101303.31      1.1307624e+09  7.2634861e-05  5.1765447e-07  7.2117207e-05  2.858971e+09 
   2056000   1.81327e-11    3471909.1      101306.51      1.1307641e+09  7.2634854e-05  5.1747604e-07  7.2117378e-05  2.858974e+09 
   2057000   1.814152e-11   3471879.2      101339.57      1.130743e+09   7.2634447e-05  5.1769005e-07  7.2116757e-05  2.8589541e+09
   2058000   1.8150339e-11  3471881.8      101336.75      1.1307448e+09  7.2634448e-05  5.1763604e-07  7.2116811e-05  2.8589549e+09
   2059000   1.8159159e-11  3471873.8      101334.76      1.1307428e+09  7.2634449e-05  5.1780259e-07  7.2116646e-05  2.8589512e+09
   2060000   1.8167978e-11  3471870.3      101332.12      1.1307425e+09  7.2634446e-05  5.1787312e-07  7.2116573e-05  2.8589502e+09
   2061000   1.8176797e-11  3471874.2      101335.01      1.1307428e+09  7.2634451e-05  5.1779797e-07  7.2116653e-05  2.8589524e+09
   2062000   1.8185617e-11  3471876        101338.95      1.1307421e+09  7.263446e-05   5.177691e-07   7.2116691e-05  2.8589542e+09
   2063000   1.8194436e-11  3471882.1      101342.11      1.1307431e+09  7.2634461e-05  5.1764459e-07  7.2116817e-05  2.8589563e+09
   2064000   1.8203256e-11  3471879.1      101346.84      1.1307405e+09  7.2634453e-05  5.1769793e-07  7.2116755e-05  2.8589548e+09
   2065000   1.8212075e-11  3471882.7      101346.07      1.130742e+09   7.2634452e-05  5.1762264e-07  7.211683e-05   2.8589559e+09
   2066000   1.8220894e-11  3471885.2      101346.4       1.1307427e+09  7.2634445e-05  5.1756258e-07  7.2116882e-05  2.858956e+09 
   2067000   1.8229714e-11  3471883.7      101345.77      1.1307424e+09  7.2634446e-05  5.1759539e-07  7.2116851e-05  2.8589552e+09
   2068000   1.8238533e-11  3471889.6      101348.2       1.1307436e+09  7.2634452e-05  5.1747939e-07  7.2116973e-05  2.8589572e+09
   2069000   1.8247353e-11  3471889.8      101347.6       1.1307439e+09  7.2634451e-05  5.1747227e-07  7.2116978e-05  2.858957e+09 
   2070000   1.8256172e-11  3471878.9      101341.77      1.1307422e+09  7.2634451e-05  5.1769985e-07  7.2116751e-05  2.8589533e+09
   2071000   1.8264991e-11  3471871.4      101346.05      1.1307382e+09  7.2634447e-05  5.1785115e-07  7.2116596e-05  2.8589509e+09
   2072000   1.8273811e-11  3471879.3      101343.75      1.1307416e+09  7.263445e-05   5.1769139e-07  7.2116759e-05  2.8589539e+09
   2073000   1.828263e-11   3471873.3      101344.54      1.1307393e+09  7.2634454e-05  5.1781979e-07  7.2116634e-05  2.8589525e+09
   2074000   1.829145e-11   3471883.1      101352.88      1.1307398e+09  7.2634454e-05  5.1761559e-07  7.2116838e-05  2.8589564e+09
   2075000   1.8300269e-11  3471890.4      101358.39      1.1307405e+09  7.2634456e-05  5.1746502e-07  7.2116991e-05  2.8589588e+09
   2076000   1.8309088e-11  3471901.2      101362.99      1.1307425e+09  7.2634459e-05  5.172448e-07   7.2117214e-05  2.8589624e+09
   2077000   1.8317908e-11  3471896.3      101364.54      1.1307404e+09  7.2634447e-05  5.1733474e-07  7.2117113e-05  2.8589596e+09
   2078000   1.8326727e-11  3471893.8      101366.76      1.1307388e+09  7.2634447e-05  5.1738724e-07  7.211706e-05   2.8589585e+09
   2079000   1.8335547e-11  3471897.1      101363.57      1.130741e+09   7.263445e-05   5.1731995e-07  7.211713e-05   2.8589594e+09
   2080000   1.8344366e-11  3471900.7      101366.34      1.1307413e+09  7.2634449e-05  5.1724524e-07  7.2117204e-05  2.8589602e+09
   2081000   1.8353185e-11  3471894.2      101361.33      1.1307408e+09  7.2634457e-05  5.1738772e-07  7.2117069e-05  2.8589586e+09
   2082000   1.8362005e-11  3471898.2      101362.92      1.1307416e+09  7.2634451e-05  5.1729998e-07  7.2117151e-05  2.8589603e+09
   2083000   1.8370824e-11  3471894.1      101362.93      1.1307402e+09  7.263445e-05   5.1738324e-07  7.2117067e-05  2.858958e+09 
   2084000   1.8379644e-11  3471931        101395.68      1.1307416e+09  7.2635201e-05  5.1736778e-07  7.2117834e-05  2.8589858e+09
   2085000   1.8388463e-11  3471932.8      101395.07      1.1307424e+09  7.2635195e-05  5.173245e-07   7.2117871e-05  2.8589849e+09
   2086000   1.8397282e-11  3471936.9      101393.34      1.1307444e+09  7.2635203e-05  5.1724724e-07  7.2117956e-05  2.8589869e+09
   2087000   1.8406102e-11  3471923.8      101389.21      1.1307413e+09  7.2635199e-05  5.1751592e-07  7.2117683e-05  2.858982e+09 
   2088000   1.8414921e-11  3471922.9      101388.09      1.1307414e+09  7.26352e-05    5.1753541e-07  7.2117664e-05  2.8589825e+09
   2089000   1.8423741e-11  3471919        101385.25      1.1307411e+09  7.2635203e-05  5.1761901e-07  7.2117584e-05  2.8589817e+09
   2090000   1.843256e-11   3471915.8      101386.61      1.1307395e+09  7.2635202e-05  5.1768441e-07  7.2117517e-05  2.8589804e+09
   2091000   1.844138e-11   3471925.2      101387.51      1.1307424e+09  7.2635198e-05  5.1748502e-07  7.2117713e-05  2.8589833e+09
   2092000   1.8450199e-11  3471927.8      101394.99      1.1307408e+09  7.2635202e-05  5.1743416e-07  7.2117768e-05  2.8589849e+09
   2093000   1.8459018e-11  3471923.8      101394.77      1.1307395e+09  7.2635207e-05  5.1752214e-07  7.2117684e-05  2.858984e+09 
   2094000   1.8467838e-11  3471930        101392.5       1.1307423e+09  7.26352e-05    5.1738692e-07  7.2117813e-05  2.8589858e+09
   2095000   1.8476657e-11  3471922.3      101396.99      1.1307382e+09  7.2635201e-05  5.1754862e-07  7.2117652e-05  2.8589835e+09
   2096000   1.8485477e-11  3471927.9      101394.21      1.1307411e+09  7.2635203e-05  5.1743282e-07  7.211777e-05   2.8589858e+09
   2097000   1.8494296e-11  3471929        101391.47      1.1307424e+09  7.2635204e-05  5.1741148e-07  7.2117792e-05  2.8589858e+09
   2098000   1.8503115e-11  3471922.1      101388.8       1.1307409e+09  7.26352e-05    5.1755128e-07  7.2117649e-05  2.8589827e+09
   2099000   1.8511935e-11  3471908.5      101381.79      1.1307387e+09  7.2635193e-05  5.178262e-07   7.2117367e-05  2.8589774e+09
   2100000   1.8520754e-11  3471907.1      101378.3       1.1307394e+09  7.2635192e-05  5.1785462e-07  7.2117338e-05  2.8589764e+09
   2101000   1.8529574e-11  3471920.1      101386.75      1.1307409e+09  7.2635198e-05  5.1759057e-07  7.2117607e-05  2.8589816e+09
   2102000   1.8538393e-11  3471920        101383.65      1.1307419e+09  7.2635192e-05  5.1758757e-07  7.2117605e-05  2.8589806e+09
   2103000   1.8547212e-11  3471925.7      101388.59      1.1307422e+09  7.2635191e-05  5.1746728e-07  7.2117723e-05  2.8589832e+09
   2104000   1.8556032e-11  3471921.3      101390.14      1.1307402e+09  7.2635188e-05  5.1755579e-07  7.2117632e-05  2.8589818e+09
   2105000   1.8564851e-11  3471932.1      101394.13      1.1307425e+09  7.2635193e-05  5.1733766e-07  7.2117856e-05  2.8589868e+09
   2106000   1.8573671e-11  3471921.4      101393.37      1.1307392e+09  7.2635198e-05  5.175639e-07   7.2117634e-05  2.8589828e+09
   2107000   1.858249e-11   3471929.7      101394.34      1.1307416e+09  7.2635201e-05  5.1739475e-07  7.2117806e-05  2.8589857e+09
   2108000   1.8591309e-11  3471923.1      101394.48      1.1307394e+09  7.26352e-05    5.1752998e-07  7.211767e-05   2.8589834e+09
   2109000   1.8600129e-11  3471918.3      101386.16      1.1307405e+09  7.2635192e-05  5.1762236e-07  7.211757e-05   2.8589813e+09
   2110000   1.8608948e-11  3471919.7      101388.74      1.1307401e+09  7.2635201e-05  5.1760291e-07  7.2117598e-05  2.8589825e+09
   2111000   1.8617768e-11  3471918.6      101390.49      1.1307392e+09  7.26352e-05    5.1762499e-07  7.2117575e-05  2.858982e+09 
   2112000   1.8626587e-11  3471920.5      101388.24      1.1307406e+09  7.26352e-05    5.1758424e-07  7.2117615e-05  2.8589832e+09
   2113000   1.8635406e-11  3471915.6      101389.15      1.1307386e+09  7.2635203e-05  5.1768837e-07  7.2117514e-05  2.8589823e+09
   2114000   1.8644226e-11  3471907.3      101385.37      1.1307371e+09  7.2635204e-05  5.1786354e-07  7.2117341e-05  2.8589793e+09
   2115000   1.8653045e-11  3471914.1      101387.77      1.1307386e+09  7.2635208e-05  5.1772544e-07  7.2117482e-05  2.858982e+09 
   2116000   1.8661865e-11  3471925.2      101391.44      1.1307411e+09  7.2635207e-05  5.1749472e-07  7.2117712e-05  2.8589854e+09
   2117000   1.8670684e-11  3471928.6      101393.09      1.1307417e+09  7.2635214e-05  5.1743027e-07  7.2117784e-05  2.858987e+09 
   2118000   1.8679504e-11  3471924.4      101396.68      1.1307391e+09  7.2635214e-05  5.1751799e-07  7.2117696e-05  2.8589856e+09
   2119000   1.8688323e-11  3471926.1      101394.94      1.1307402e+09  7.2635223e-05  5.1749189e-07  7.2117731e-05  2.8589872e+09
   2120000   1.8697142e-11  3471922.3      101393.21      1.1307395e+09  7.2635214e-05  5.17562e-07    7.2117652e-05  2.8589855e+09
   2121000   1.8705962e-11  3471923.8      101394.12      1.1307397e+09  7.2635208e-05  5.1752417e-07  7.2117683e-05  2.8589852e+09
   2122000   1.8714781e-11  3471919.8      101394.08      1.1307384e+09  7.2635208e-05  5.1760791e-07  7.21176e-05    2.858983e+09 
   2123000   1.8723601e-11  3471926.3      101395.09      1.1307402e+09  7.263521e-05   5.1747381e-07  7.2117736e-05  2.8589846e+09
   2124000   1.873242e-11   3471920.6      101392.7       1.1307391e+09  7.2635213e-05  5.1759515e-07  7.2117618e-05  2.8589828e+09
   2125000   1.8741239e-11  3471914.3      101389.52      1.1307381e+09  7.263522e-05   5.1773389e-07  7.2117486e-05  2.8589815e+09
   2126000   1.8750059e-11  3471911.4      101388.93      1.1307373e+09  7.2635218e-05  5.1779262e-07  7.2117426e-05  2.858981e+09 
   2127000   1.8758878e-11  3471909        101391.77      1.1307355e+09  7.2635222e-05  5.1784503e-07  7.2117377e-05  2.8589808e+09
   2128000   1.8767698e-11  3471924.8      101393.02      1.1307404e+09  7.2635234e-05  5.1752922e-07  7.2117705e-05  2.8589873e+09
   2129000   1.8776517e-11  3471919.7      101394.75      1.1307381e+09  7.2635225e-05  5.1762711e-07  7.2117598e-05  2.8589843e+09
   2130000   1.8785336e-11  3471922.5      101400.38      1.1307372e+09  7.2635224e-05  5.1756728e-07  7.2117657e-05  2.8589851e+09
   2131000   1.8794156e-11  3471925.7      101399         1.1307387e+09  7.2635222e-05  5.1749947e-07  7.2117722e-05  2.8589855e+09
   2132000   1.8802975e-11  3471929.3      101406.85      1.1307373e+09  7.2635225e-05  5.1742563e-07  7.2117799e-05  2.8589877e+09
   2133000   1.8811795e-11  3471922.5      101407.1       1.1307349e+09  7.2635218e-05  5.1756208e-07  7.2117656e-05  2.8589853e+09
   2134000   1.8820614e-11  3471934.1      101413.09      1.1307368e+09  7.2635216e-05  5.1731823e-07  7.2117898e-05  2.8589901e+09
   2135000   1.8829433e-11  3471936.2      101412.17      1.1307378e+09  7.2635222e-05  5.1728071e-07  7.2117941e-05  2.8589908e+09
   2136000   1.8838253e-11  3471932.7      101404.37      1.1307393e+09  7.2635224e-05  5.1735433e-07  7.211787e-05   2.8589885e+09
   2137000   1.8847072e-11  3471928.6      101404.69      1.1307378e+09  7.2635224e-05  5.1744084e-07  7.2117783e-05  2.8589868e+09
   2138000   1.8855892e-11  3471926.5      101403.1       1.1307376e+09  7.2635223e-05  5.1748275e-07  7.211774e-05   2.8589866e+09
   2139000   1.8864711e-11  3471914.2      101396.79      1.1307356e+09  7.2635215e-05  5.1773037e-07  7.2117485e-05  2.8589816e+09
   2140000   1.887353e-11   3471916.4      101395.64      1.1307367e+09  7.263522e-05   5.1769024e-07  7.211753e-05   2.8589826e+09
   2141000   1.888235e-11   3471917.2      101402.23      1.1307348e+09  7.2635207e-05  5.1766059e-07  7.2117546e-05  2.8589824e+09
   2142000   1.8891169e-11  3471918.6      101400.53      1.1307358e+09  7.2635212e-05  5.1763714e-07  7.2117575e-05  2.8589835e+09
   2143000   1.8899989e-11  3471915.5      101398         1.1307356e+09  7.2635215e-05  5.1770351e-07  7.2117511e-05  2.8589821e+09
   2144000   1.8908808e-11  3471918.8      101397.81      1.1307368e+09  7.2635215e-05  5.1763578e-07  7.2117579e-05  2.8589826e+09
   2145000   1.8917627e-11  3471929.7      101405.21      1.130738e+09   7.2635211e-05  5.1740447e-07  7.2117806e-05  2.8589864e+09
   2146000   1.8926447e-11  3471932.1      101410.18      1.1307371e+09  7.2635212e-05  5.173556e-07   7.2117856e-05  2.8589873e+09
   2147000   1.8935266e-11  3471928.2      101412.29      1.1307351e+09  7.2635213e-05  5.1743921e-07  7.2117774e-05  2.858987e+09 
   2148000   1.8944086e-11  3471925.7      101410.92      1.1307347e+09  7.2635207e-05  5.174833e-07   7.2117724e-05  2.8589863e+09
   2149000   1.8952905e-11  3471919.2      101404.77      1.1307346e+09  7.2635214e-05  5.1762572e-07  7.2117588e-05  2.8589841e+09
   2150000   1.8961725e-11  3471923.4      101403.83      1.1307363e+09  7.2635227e-05  5.1755235e-07  7.2117675e-05  2.8589857e+09
   2151000   1.8970544e-11  3471930.7      101408.35      1.1307373e+09  7.263522e-05   5.1739356e-07  7.2117826e-05  2.8589875e+09
   2152000   1.8979363e-11  3471924.4      101403.76      1.1307367e+09  7.2635216e-05  5.1752053e-07  7.2117695e-05  2.8589851e+09
   2153000   1.8988183e-11  3471914.2      101397.7       1.1307353e+09  7.2635209e-05  5.1772492e-07  7.2117484e-05  2.858981e+09 
   2154000   1.8997002e-11  3471920.2      101399.46      1.1307367e+09  7.2635203e-05  5.1759407e-07  7.2117609e-05  2.8589831e+09
   2155000   1.9005822e-11  3471926.6      101401.58      1.1307382e+09  7.2635217e-05  5.1747456e-07  7.2117743e-05  2.8589864e+09
   2156000   1.9014641e-11  3471922.9      101397.77      1.1307382e+09  7.2635223e-05  5.1755768e-07  7.2117665e-05  2.8589847e+09
   2157000   1.902346e-11   3471929.5      101400.2       1.1307396e+09  7.2635228e-05  5.1742534e-07  7.2117802e-05  2.8589882e+09
   2158000   1.903228e-11   3471909.3      101395.04      1.1307346e+09  7.263522e-05   5.1783646e-07  7.2117384e-05  2.8589819e+09
   2159000   1.9041099e-11  3471916.1      101397.24      1.1307361e+09  7.2635232e-05  5.1770893e-07  7.2117523e-05  2.8589864e+09
   2160000   1.9049919e-11  3471913.6      101396.07      1.1307356e+09  7.2635236e-05  5.1776438e-07  7.2117471e-05  2.8589858e+09
   2161000   1.9058738e-11  3471916.1      101399.19      1.1307354e+09  7.2635226e-05  5.1770278e-07  7.2117524e-05  2.8589866e+09
   2162000   1.9067557e-11  3471917.7      101399.92      1.1307357e+09  7.2635222e-05  5.1766589e-07  7.2117556e-05  2.8589871e+09
   2163000   1.9076377e-11  3471910.2      101396.92      1.1307342e+09  7.2635227e-05  5.1782643e-07  7.2117401e-05  2.8589846e+09
   2164000   1.9085196e-11  3471918.1      101398.09      1.1307365e+09  7.2635219e-05  5.1765358e-07  7.2117566e-05  2.8589874e+09
   2165000   1.9094016e-11  3471912.4      101396.05      1.1307353e+09  7.2635218e-05  5.1777066e-07  7.2117448e-05  2.858985e+09 
   2166000   1.9102835e-11  3471914.1      101395.94      1.1307359e+09  7.263522e-05   5.1773721e-07  7.2117483e-05  2.8589852e+09
   2167000   1.9111654e-11  3471914.7      101392.01      1.1307374e+09  7.2635224e-05  5.1773046e-07  7.2117494e-05  2.8589853e+09
   2168000   1.9120474e-11  3471907.5      101391.26      1.1307352e+09  7.2635215e-05  5.1786947e-07  7.2117346e-05  2.8589822e+09
   2169000   1.9129293e-11  3471905.2      101392.28      1.1307341e+09  7.2635215e-05  5.1791711e-07  7.2117297e-05  2.8589817e+09
   2170000   1.9138113e-11  3471902.3      101390.24      1.1307338e+09  7.2635218e-05  5.1798104e-07  7.2117237e-05  2.8589803e+09
   2171000   1.9146932e-11  3471897.6      101387.78      1.130733e+09   7.2635214e-05  5.1807566e-07  7.2117139e-05  2.8589776e+09
   2172000   1.9155751e-11  3471897.9      101389.59      1.1307325e+09  7.2635218e-05  5.1807223e-07  7.2117146e-05  2.8589779e+09
   2173000   1.9164571e-11  3471908.5      101394.13      1.1307346e+09  7.2635218e-05  5.1785157e-07  7.2117366e-05  2.8589821e+09
   2174000   1.917339e-11   3471920.2      101398.19      1.1307372e+09  7.2635221e-05  5.1761163e-07  7.211761e-05   2.8589867e+09
   2175000   1.918221e-11   3471919.7      101402.53      1.1307355e+09  7.2635233e-05  5.1763497e-07  7.2117598e-05  2.8589878e+09
   2176000   1.9191029e-11  3471907.8      101397.69      1.1307332e+09  7.2635231e-05  5.1787829e-07  7.2117352e-05  2.8589838e+09
   2177000   1.9199849e-11  3471914.8      101400.58      1.1307345e+09  7.2635229e-05  5.177335e-07   7.2117496e-05  2.8589869e+09
   2178000   1.9208668e-11  3471913.8      101404.06      1.130733e+09   7.2635219e-05  5.1774225e-07  7.2117476e-05  2.8589855e+09
   2179000   1.9217487e-11  3471914.4      101401.84      1.130734e+09   7.263522e-05   5.1773261e-07  7.2117488e-05  2.8589849e+09
   2180000   1.9226307e-11  3471922.1      101406.46      1.130735e+09   7.263522e-05   5.1757165e-07  7.2117648e-05  2.8589872e+09
   2181000   1.9235126e-11  3471928.4      101411.3       1.1307355e+09  7.2635217e-05  5.1743731e-07  7.211778e-05   2.8589896e+09
   2182000   1.9243946e-11  3471933.4      101411.37      1.1307372e+09  7.2635219e-05  5.1733527e-07  7.2117883e-05  2.8589918e+09
   2183000   1.9252765e-11  3471920.4      101406.87      1.1307343e+09  7.2635221e-05  5.176072e-07   7.2117614e-05  2.8589869e+09
   2184000   1.9261584e-11  3471925.2      101410.19      1.1307348e+09  7.2635222e-05  5.1750904e-07  7.2117713e-05  2.8589889e+09
   2185000   1.9270404e-11  3471927.1      101411.77      1.1307349e+09  7.2635229e-05  5.1747687e-07  7.2117752e-05  2.8589904e+09
   2186000   1.9279223e-11  3471926.2      101413.16      1.1307342e+09  7.2635229e-05  5.1749422e-07  7.2117734e-05  2.8589904e+09
   2187000   1.9288043e-11  3471926.5      101414.44      1.1307338e+09  7.2635221e-05  5.1748147e-07  7.2117739e-05  2.8589897e+09
   2188000   1.9296862e-11  3471920.2      101409.65      1.1307333e+09  7.2635221e-05  5.1761111e-07  7.211761e-05   2.8589871e+09
   2189000   1.9305681e-11  3471917.8      101406.18      1.1307337e+09  7.2635215e-05  5.1765506e-07  7.211756e-05   2.858985e+09 
   2190000   1.9314501e-11  3471924.8      101405.51      1.1307362e+09  7.2635213e-05  5.1750836e-07  7.2117705e-05  2.8589872e+09
   2191000   1.932332e-11   3471918.1      101406.44      1.1307337e+09  7.263522e-05   5.1765495e-07  7.2117565e-05  2.8589851e+09
   2192000   1.933214e-11   3471921.3      101410.38      1.1307335e+09  7.2635214e-05  5.1758097e-07  7.2117633e-05  2.8589865e+09
   2193000   1.9340959e-11  3471920.7      101410.84      1.1307331e+09  7.2635211e-05  5.1759119e-07  7.211762e-05   2.8589868e+09
   2194000   1.9349778e-11  3471926.1      101492.15      1.1307077e+09  7.2635457e-05  5.177245e-07   7.2117732e-05  2.8589942e+09
   2195000   1.9358598e-11  3471920.2      101482.09      1.1307091e+09  7.2635451e-05  5.1784147e-07  7.2117609e-05  2.8589908e+09
   2196000   1.9367417e-11  3471914.1      101481.1       1.1307074e+09  7.2635447e-05  5.1796606e-07  7.2117481e-05  2.8589883e+09
   2197000   1.9376237e-11  3471919.3      101483.87      1.1307082e+09  7.263545e-05   5.1785901e-07  7.2117591e-05  2.8589902e+09
   2198000   1.9385056e-11  3471917        101484.37      1.1307073e+09  7.2635445e-05  5.1790262e-07  7.2117543e-05  2.8589887e+09
   2199000   1.9393875e-11  3471922.6      101487.64      1.130708e+09   7.2635445e-05  5.1778662e-07  7.2117658e-05  2.8589904e+09
   2200000   1.9402695e-11  3471928.1      101491.12      1.1307087e+09  7.2635446e-05  5.1767273e-07  7.2117773e-05  2.8589929e+09
   2201000   1.9411514e-11  3471924.4      101490.66      1.1307076e+09  7.2635457e-05  5.1776076e-07  7.2117697e-05  2.8589927e+09
   2202000   1.9420334e-11  3471920.6      101488.61      1.130707e+09   7.2635457e-05  5.1784024e-07  7.2117617e-05  2.858992e+09 
   2203000   1.9429153e-11  3471917.3      101487.94      1.1307061e+09  7.2635452e-05  5.1790451e-07  7.2117548e-05  2.8589906e+09
   2204000   1.9437972e-11  3471908.3      101483.46      1.1307046e+09  7.2635453e-05  5.1809176e-07  7.2117362e-05  2.8589867e+09
   2205000   1.9446792e-11  3471911.3      101485.78      1.1307049e+09  7.2635448e-05  5.1802381e-07  7.2117425e-05  2.8589863e+09
   2206000   1.9455611e-11  3471917.1      101483.43      1.1307076e+09  7.2635455e-05  5.1791154e-07  7.2117544e-05  2.8589885e+09
   2207000   1.9464431e-11  3471922.8      101484.32      1.1307092e+09  7.2635457e-05  5.177941e-07   7.2117663e-05  2.8589909e+09
   2208000   1.947325e-11   3471915.1      101487.45      1.1307056e+09  7.2635458e-05  5.1795389e-07  7.2117504e-05  2.8589885e+09
   2209000   1.948207e-11   3471915.1      101490.07      1.1307047e+09  7.2635458e-05  5.1795376e-07  7.2117504e-05  2.8589899e+09
   2210000   1.9490889e-11  3471914        101486.45      1.1307056e+09  7.2635459e-05  5.1797816e-07  7.2117481e-05  2.8589893e+09
   2211000   1.9499708e-11  3471916.7      101484.62      1.1307071e+09  7.2635461e-05  5.1792372e-07  7.2117537e-05  2.8589895e+09
   2212000   1.9508528e-11  3471922        101485.11      1.1307087e+09  7.2635449e-05  5.1780196e-07  7.2117647e-05  2.8589901e+09
   2213000   1.9517347e-11  3471919.8      101487.85      1.130707e+09   7.2635453e-05  5.1785366e-07  7.21176e-05    2.85899e+09  
   2214000   1.9526167e-11  3471926.9      101490.08      1.1307087e+09  7.2635446e-05  5.1769802e-07  7.2117748e-05  2.8589916e+09
   2215000   1.9534986e-11  3471931.3      101493.84      1.1307089e+09  7.2635452e-05  5.1761345e-07  7.2117839e-05  2.8589932e+09
   2216000   1.9543805e-11  3471929.5      101492.89      1.1307086e+09  7.2635453e-05  5.1765021e-07  7.2117802e-05  2.8589926e+09
   2217000   1.9552625e-11  3471925.7      101494.01      1.1307069e+09  7.263544e-05   5.1771714e-07  7.2117723e-05  2.8589904e+09
   2218000   1.9561444e-11  3471931.7      101496.59      1.1307081e+09  7.2635441e-05  5.1759337e-07  7.2117848e-05  2.8589923e+09
   2219000   1.9570264e-11  3471928.5      101494.71      1.1307077e+09  7.2635437e-05  5.1765592e-07  7.2117782e-05  2.8589902e+09
   2220000   1.9579083e-11  3471931.2      101493.47      1.130709e+09   7.2635431e-05  5.1759432e-07  7.2117837e-05  2.8589907e+09
   2221000   1.9587902e-11  3471929.3      101496.8       1.1307072e+09  7.2635433e-05  5.1763486e-07  7.2117798e-05  2.8589905e+09
   2222000   1.9596722e-11  3471924.3      101497.25      1.1307054e+09  7.2635436e-05  5.1774284e-07  7.2117693e-05  2.8589893e+09
   2223000   1.9605541e-11  3471927.5      101497.71      1.1307063e+09  7.2635431e-05  5.1767181e-07  7.211776e-05   2.8589899e+09
   2224000   1.9614361e-11  3471929.3      101495.98      1.1307075e+09  7.263543e-05   5.1763157e-07  7.2117799e-05  2.8589899e+09
   2225000   1.962318e-11   3471927.8      101500.32      1.1307055e+09  7.2635433e-05  5.1766585e-07  7.2117767e-05  2.8589885e+09
   2226000   1.9631999e-11  3471932.8      101498.29      1.1307079e+09  7.2635435e-05  5.1756312e-07  7.2117872e-05  2.8589901e+09
   2227000   1.9640819e-11  3471941        101503.33      1.130709e+09   7.2635434e-05  5.1739304e-07  7.2118041e-05  2.8589937e+09
   2228000   1.9649638e-11  3471938.3      101505.72      1.1307073e+09  7.2635428e-05  5.1744183e-07  7.2117986e-05  2.8589926e+09
   2229000   1.9658458e-11  3471936.9      101512.13      1.1307046e+09  7.2635437e-05  5.1748188e-07  7.2117955e-05  2.8589934e+09
   2230000   1.9667277e-11  3471934.8      101511.49      1.1307041e+09  7.2635442e-05  5.1752997e-07  7.2117912e-05  2.8589939e+09
   2231000   1.9676096e-11  3471925.6      101507.93      1.1307023e+09  7.2635448e-05  5.1772667e-07  7.2117721e-05  2.8589915e+09
   2232000   1.9684916e-11  3471931.4      101508.18      1.1307041e+09  7.2635442e-05  5.1760094e-07  7.2117841e-05  2.8589926e+09
   2233000   1.9693735e-11  3471933.3      101509.31      1.1307044e+09  7.263545e-05   5.17569e-07    7.2117881e-05  2.8589929e+09
   2234000   1.9702555e-11  3471932.5      101506.3       1.1307051e+09  7.2635449e-05  5.1758474e-07  7.2117865e-05  2.8589924e+09
   2235000   1.9711374e-11  3471929.2      101501.61      1.1307056e+09  7.2635443e-05  5.1764646e-07  7.2117797e-05  2.858991e+09 
   2236000   1.9720194e-11  3471924.6      101503.09      1.1307035e+09  7.2635454e-05  5.1775431e-07  7.21177e-05    2.8589909e+09
   2237000   1.9729013e-11  3471921.5      101505.27      1.1307018e+09  7.2635453e-05  5.1781556e-07  7.2117637e-05  2.8589895e+09
   2238000   1.9737832e-11  3471929.5      101507.19      1.1307038e+09  7.2635456e-05  5.1765386e-07  7.2117802e-05  2.8589924e+09
   2239000   1.9746652e-11  3471925.1      101508.26      1.130702e+09   7.2635454e-05  5.1774355e-07  7.211771e-05   2.8589905e+09
   2240000   1.9755471e-11  3471932.1      101510.14      1.1307037e+09  7.2635453e-05  5.1759689e-07  7.2117857e-05  2.8589941e+09
   2241000   1.9764291e-11  3471928.8      101509.9       1.1307027e+09  7.2635443e-05  5.1765523e-07  7.2117787e-05  2.8589925e+09
   2242000   1.977311e-11   3471943.4      101512.18      1.1307068e+09  7.2635446e-05  5.1735513e-07  7.2118091e-05  2.8589973e+09
   2243000   1.9781929e-11  3471940.8      101513.65      1.1307054e+09  7.2635448e-05  5.1741163e-07  7.2118037e-05  2.8589962e+09
   2244000   1.9790749e-11  3471932        101513.43      1.1307026e+09  7.2635445e-05  5.1759094e-07  7.2117854e-05  2.8589932e+09
   2245000   1.9799568e-11  3471929.8      101507.81      1.1307037e+09  7.2635443e-05  5.1763564e-07  7.2117807e-05  2.8589926e+09
   2246000   1.9808388e-11  3471936        101512.75      1.1307041e+09  7.2635448e-05  5.1751001e-07  7.2117938e-05  2.8589958e+09
   2247000   1.9817207e-11  3471932.1      101514.42      1.1307023e+09  7.2635442e-05  5.175866e-07   7.2117855e-05  2.8589935e+09
   2248000   1.9826026e-11  3471941.8      101512.65      1.1307061e+09  7.2635444e-05  5.1738761e-07  7.2118057e-05  2.8589967e+09
   2249000   1.9834846e-11  3471937.5      101516.91      1.1307032e+09  7.2635433e-05  5.1746556e-07  7.2117968e-05  2.8589938e+09
   2250000   1.9843665e-11  3471938.9      101519.13      1.130703e+09   7.2635427e-05  5.1743032e-07  7.2117997e-05  2.8589934e+09
   2251000   1.9852485e-11  3471939.8      101515.81      1.1307044e+09  7.263543e-05   5.1741424e-07  7.2118016e-05  2.8589936e+09
   2252000   1.9861304e-11  3471947.9      101517.04      1.1307067e+09  7.2635426e-05  5.1724081e-07  7.2118185e-05  2.8589957e+09
   2253000   1.9870123e-11  3471945.2      101518.96      1.1307051e+09  7.2635419e-05  5.1729155e-07  7.2118128e-05  2.8589946e+09
   2254000   1.9878943e-11  3471937.3      101517.96      1.1307028e+09  7.2635422e-05  5.1745792e-07  7.2117964e-05  2.858993e+09 
   2255000   1.9887762e-11  3471938.7      101520.16      1.1307026e+09  7.2635419e-05  5.1742473e-07  7.2117994e-05  2.8589941e+09
   2256000   1.9896582e-11  3471937        101521.22      1.1307016e+09  7.2635431e-05  5.1747372e-07  7.2117957e-05  2.8589947e+09
   2257000   1.9905401e-11  3471941.5      101521.76      1.130703e+09   7.2635429e-05  5.1737797e-07  7.2118051e-05  2.8589961e+09
   2258000   1.991422e-11   3471932.4      101517.05      1.1307015e+09  7.2635432e-05  5.1756984e-07  7.2117862e-05  2.8589928e+09
   2259000   1.992304e-11   3471932.3      101513.47      1.1307026e+09  7.2635426e-05  5.1756561e-07  7.211786e-05   2.8589928e+09
   2260000   1.9931859e-11  3471924.2      101508.48      1.1307016e+09  7.2635436e-05  5.1774381e-07  7.2117692e-05  2.8589904e+09
   2261000   1.9940679e-11  3471927.5      101510.08      1.1307022e+09  7.2635438e-05  5.1767725e-07  7.2117761e-05  2.8589916e+09
   2262000   1.9949498e-11  3471932.1      101510.92      1.1307035e+09  7.263544e-05   5.1758319e-07  7.2117857e-05  2.8589929e+09
   2263000   1.9958317e-11  3471944.7      101514.15      1.1307066e+09  7.2635445e-05  5.1732673e-07  7.2118118e-05  2.8589974e+09
   2264000   1.9967137e-11  3471942.2      101519.9       1.1307038e+09  7.263544e-05   5.1737366e-07  7.2118066e-05  2.8589965e+09
   2265000   1.9975956e-11  3471932.9      101521.51      1.1307001e+09  7.2635445e-05  5.1757307e-07  7.2117872e-05  2.858994e+09 
   2266000   1.9984776e-11  3471942        101520.38      1.1307036e+09  7.2635435e-05  5.17374e-07    7.2118061e-05  2.8589972e+09
   2267000   1.9993595e-11  3471938.1      101515.97      1.1307038e+09  7.2635446e-05  5.1746519e-07  7.211798e-05   2.8589965e+09
   2268000   2.0002415e-11  3471936.9      101522.29      1.1307012e+09  7.2635438e-05  5.1748213e-07  7.2117955e-05  2.8589957e+09
   2269000   2.0011234e-11  3471938.2      101528.46      1.1306996e+09  7.263544e-05   5.174581e-07   7.2117982e-05  2.8589959e+09
   2270000   2.0020053e-11  3471943.1      101525.9       1.1307021e+09  7.2635444e-05  5.1735927e-07  7.2118084e-05  2.8589975e+09
   2271000   2.0028873e-11  3471941.7      101522.76      1.1307027e+09  7.2635441e-05  5.1738656e-07  7.2118055e-05  2.8589963e+09
   2272000   2.0037692e-11  3471943.9      101522.94      1.1307034e+09  7.263544e-05   5.1733948e-07  7.2118101e-05  2.8589968e+09
   2273000   2.0046512e-11  3471939.8      101522.76      1.1307021e+09  7.2635444e-05  5.1742703e-07  7.2118016e-05  2.8589959e+09
   2274000   2.0055331e-11  3471941.1      101525.25      1.1307017e+09  7.2635439e-05  5.1739522e-07  7.2118043e-05  2.8589961e+09
   2275000   2.006415e-11   3471935.2      101521.85      1.1307008e+09  7.2635437e-05  5.1751675e-07  7.211792e-05   2.8589935e+09
   2276000   2.007297e-11   3471927.6      101519.53      1.130699e+09   7.2635437e-05  5.1767545e-07  7.2117762e-05  2.858991e+09 
   2277000   2.0081789e-11  3471935        101517.27      1.1307023e+09  7.2635432e-05  5.1751539e-07  7.2117917e-05  2.8589933e+09
   2278000   2.0090609e-11  3471930        101509.94      1.1307031e+09  7.2635431e-05  5.1761784e-07  7.2117813e-05  2.8589907e+09
   2279000   2.0099428e-11  3471920.5      101508.82      1.1307003e+09  7.2635439e-05  5.1782315e-07  7.2117616e-05  2.858988e+09 
   2280000   2.0108247e-11  3471924.9      101513.47      1.1307002e+09  7.2635447e-05  5.1773988e-07  7.2117707e-05  2.8589909e+09
   2281000   2.0117067e-11  3471923.9      101514.93      1.1306994e+09  7.2635448e-05  5.1776174e-07  7.2117687e-05  2.8589907e+09
   2282000   2.0125886e-11  3471927.4      101513.14      1.1307011e+09  7.2635453e-05  5.1769476e-07  7.2117758e-05  2.8589925e+09
   2283000   2.0134706e-11  3471923.5      101511.46      1.1307004e+09  7.263545e-05   5.1777339e-07  7.2117677e-05  2.8589904e+09
   2284000   2.0143525e-11  3471932.1      101510.16      1.1307037e+09  7.2635449e-05  5.1759381e-07  7.2117855e-05  2.8589927e+09
   2285000   2.0152344e-11  3471927.8      101509.6       1.1307024e+09  7.2635448e-05  5.1768087e-07  7.2117767e-05  2.8589911e+09
   2286000   2.0161164e-11  3471925        101512.5       1.1307005e+09  7.2635447e-05  5.1773812e-07  7.2117709e-05  2.8589907e+09
   2287000   2.0169983e-11  3471920.5      101510.06      1.1306998e+09  7.2635448e-05  5.1783238e-07  7.2117615e-05  2.8589902e+09
   2288000   2.0178803e-11  3471921.3      101509.98      1.1307001e+09  7.2635447e-05  5.1781618e-07  7.2117631e-05  2.85899e+09  
   2289000   2.0187622e-11  3471922.5      101512.32      1.1306997e+09  7.2635442e-05  5.1778569e-07  7.2117656e-05  2.8589888e+09
   2290000   2.0196441e-11  3471927.9      101511.59      1.1307018e+09  7.2635442e-05  5.1767424e-07  7.2117768e-05  2.8589894e+09
   2291000   2.0205261e-11  3471923.8      101512.48      1.1307001e+09  7.2635447e-05  5.1776429e-07  7.2117683e-05  2.858989e+09 
   2292000   2.021408e-11   3471923.8      101513.83      1.1306997e+09  7.2635442e-05  5.1775875e-07  7.2117683e-05  2.8589896e+09
   2293000   2.02229e-11    3471927.6      101516.1       1.1307002e+09  7.2635439e-05  5.1767748e-07  7.2117762e-05  2.8589904e+09
   2294000   2.0231719e-11  3471933.9      101516.04      1.1307023e+09  7.2635447e-05  5.1755379e-07  7.2117893e-05  2.8589915e+09
   2295000   2.0240539e-11  3471930        101513.1       1.130702e+09   7.2635445e-05  5.1763296e-07  7.2117812e-05  2.8589896e+09
   2296000   2.0249358e-11  3471921.9      101510.7       1.1307001e+09  7.2635441e-05  5.1779585e-07  7.2117645e-05  2.8589875e+09
   2297000   2.0258177e-11  3471917.3      101511.92      1.1306981e+09  7.2635445e-05  5.1789689e-07  7.2117548e-05  2.858987e+09 
   2298000   2.0266997e-11  3471920        101514.02      1.1306984e+09  7.2635447e-05  5.1784069e-07  7.2117606e-05  2.8589885e+09
   2299000   2.0275816e-11  3471921.7      101513.6       1.130699e+09   7.2635446e-05  5.1780622e-07  7.211764e-05   2.8589887e+09
   2300000   2.0284636e-11  3471921.8      101512.69      1.1306994e+09  7.2635452e-05  5.1780935e-07  7.2117642e-05  2.8589886e+09
   2301000   2.0293455e-11  3471921.2      101511.13      1.1306997e+09  7.2635449e-05  5.1781921e-07  7.2117629e-05  2.8589876e+09
   2302000   2.0302274e-11  3471924.6      101516.05      1.1306992e+09  7.2635444e-05  5.1774446e-07  7.21177e-05    2.8589888e+09
   2303000   2.0311094e-11  3471929.5      101521.26      1.1306991e+09  7.2635447e-05  5.176446e-07   7.2117802e-05  2.8589906e+09
   2304000   2.0319913e-11  3471932        101527.29      1.1306979e+09  7.2635446e-05  5.1759223e-07  7.2117854e-05  2.8589913e+09
   2305000   2.0328733e-11  3471939.4      101528.66      1.1306999e+09  7.2635452e-05  5.1744496e-07  7.2118007e-05  2.8589939e+09
   2306000   2.0337552e-11  3471943.4      101532.74      1.1306999e+09  7.2635446e-05  5.1735511e-07  7.2118091e-05  2.858995e+09 
   2307000   2.0346371e-11  3471944.1      101532.67      1.1307002e+09  7.2635447e-05  5.1734237e-07  7.2118105e-05  2.8589954e+09
   2308000   2.0355191e-11  3471932.2      101528.2       1.1306977e+09  7.263544e-05   5.1758075e-07  7.2117859e-05  2.8589903e+09
   2309000   2.036401e-11   3471936.9      101528.19      1.1306993e+09  7.2635443e-05  5.174875e-07   7.2117955e-05  2.8589917e+09
   2310000   2.037283e-11   3471938.3      101530.29      1.130699e+09   7.2635453e-05  5.1746707e-07  7.2117986e-05  2.8589927e+09
   2311000   2.0381649e-11  3471942.5      101530.9       1.1307003e+09  7.2635456e-05  5.1738311e-07  7.2118073e-05  2.8589946e+09
   2312000   2.0390468e-11  3471934.8      101527.2       1.1306989e+09  7.2635458e-05  5.175452e-07   7.2117913e-05  2.8589924e+09
   2313000   2.0399288e-11  3471937.4      101534.59      1.1306973e+09  7.2635456e-05  5.1748901e-07  7.2117967e-05  2.8589942e+09
   2314000   2.0408107e-11  3471942        101540.18      1.130697e+09   7.2635456e-05  5.1739309e-07  7.2118063e-05  2.8589957e+09
   2315000   2.0416927e-11  3471957        101544.93      1.1307004e+09  7.2635457e-05  5.1708353e-07  7.2118373e-05  2.8590007e+09
   2316000   2.0425746e-11  3471951.2      101550.66      1.1306966e+09  7.263545e-05   5.1719711e-07  7.2118253e-05  2.8589977e+09
   2317000   2.0434565e-11  3471948.3      101548.25      1.1306964e+09  7.2635455e-05  5.172621e-07   7.2118193e-05  2.8589973e+09
   2318000   2.0443385e-11  3471949.2      101549.07      1.1306964e+09  7.2635463e-05  5.1725229e-07  7.2118211e-05  2.8589987e+09
   2319000   2.0452204e-11  3471946        101544.71      1.1306968e+09  7.2635466e-05  5.1732187e-07  7.2118144e-05  2.8589978e+09
   2320000   2.0461024e-11  3471947.8      101550.03      1.1306956e+09  7.2635459e-05  5.1727529e-07  7.2118183e-05  2.8589976e+09
   2321000   2.0469843e-11  3471953.5      101551.12      1.1306972e+09  7.2635458e-05  5.1715745e-07  7.21183e-05    2.8589994e+09
   2322000   2.0478662e-11  3471954.4      101548.36      1.1306984e+09  7.2635463e-05  5.1714302e-07  7.211832e-05   2.8590002e+09
   2323000   2.0487482e-11  3471948.8      101546.03      1.1306973e+09  7.2635467e-05  5.1726445e-07  7.2118203e-05  2.8589992e+09
   2324000   2.0496301e-11  3471935.9      101539.51      1.1306951e+09  7.2635466e-05  5.1753188e-07  7.2117934e-05  2.858995e+09 
   2325000   2.0505121e-11  3471930.5      101534.29      1.1306951e+09  7.2635471e-05  5.1764877e-07  7.2117823e-05  2.8589936e+09
   2326000   2.051394e-11   3471934.6      101536.61      1.1306957e+09  7.2635463e-05  5.1755394e-07  7.2117909e-05  2.8589944e+09
   2327000   2.052276e-11   3471937.6      101535.53      1.1306971e+09  7.2635459e-05  5.1748811e-07  7.2117971e-05  2.858995e+09 
   2328000   2.0531579e-11  3471938.3      101536.59      1.1306969e+09  7.2635463e-05  5.1747726e-07  7.2117985e-05  2.8589955e+09
   2329000   2.0540398e-11  3471940.1      101540.24      1.1306963e+09  7.2635461e-05  5.1743873e-07  7.2118022e-05  2.8589958e+09
   2330000   2.0549218e-11  3471937.8      101535.07      1.1306973e+09  7.2635458e-05  5.1748449e-07  7.2117974e-05  2.8589948e+09
   2331000   2.0558037e-11  3471931.1      101532.93      1.1306957e+09  7.263546e-05   5.1762566e-07  7.2117835e-05  2.8589934e+09
   2332000   2.0566857e-11  3471934.1      101534.91      1.1306961e+09  7.2635468e-05  5.1756905e-07  7.2117899e-05  2.858996e+09 
   2333000   2.0575676e-11  3471932.3      101536.42      1.130695e+09   7.2635467e-05  5.1760701e-07  7.211786e-05   2.8589953e+09
   2334000   2.0584495e-11  3471926.3      101534.32      1.1306937e+09  7.2635469e-05  5.177325e-07   7.2117736e-05  2.8589929e+09
   2335000   2.0593315e-11  3471935.9      101535.64      1.1306964e+09  7.2635465e-05  5.1753101e-07  7.2117934e-05  2.8589965e+09
   2336000   2.0602134e-11  3471928.5      101533.93      1.1306945e+09  7.2635464e-05  5.1768187e-07  7.2117782e-05  2.8589938e+09
   2337000   2.0610954e-11  3471932.4      101534.83      1.1306955e+09  7.2635461e-05  5.1759932e-07  7.2117862e-05  2.8589952e+09
   2338000   2.0619773e-11  3471935.1      101536.63      1.1306959e+09  7.2635461e-05  5.1754181e-07  7.2117919e-05  2.858996e+09 
   2339000   2.0628592e-11  3471928.7      101531.9       1.1306953e+09  7.2635467e-05  5.1768094e-07  7.2117786e-05  2.8589937e+09
   2340000   2.0637412e-11  3471931.4      101534.37      1.1306954e+09  7.2635464e-05  5.176219e-07   7.2117842e-05  2.8589943e+09
   2341000   2.0646231e-11  3471933.8      101535.58      1.1306958e+09  7.2635465e-05  5.1757311e-07  7.2117892e-05  2.8589948e+09
   2342000   2.0655051e-11  3471934.9      101535.7       1.1306961e+09  7.263546e-05   5.1754499e-07  7.2117915e-05  2.858995e+09 
   2343000   2.066387e-11   3471939.5      101535.78      1.1306976e+09  7.2635458e-05  5.1744784e-07  7.211801e-05   2.8589963e+09
   2344000   2.0672689e-11  3471931.8      101535.75      1.130695e+09   7.2635466e-05  5.1761642e-07  7.2117849e-05  2.8589928e+09
   2345000   2.0681509e-11  3471946.7      101543.84      1.1306973e+09  7.2635468e-05  5.1730941e-07  7.2118159e-05  2.858999e+09 
   2346000   2.0690328e-11  3471947.1      101549.72      1.1306955e+09  7.2635468e-05  5.1729919e-07  7.2118168e-05  2.8590005e+09
   2347000   2.0699148e-11  3471942.5      101549.01      1.1306942e+09  7.2635468e-05  5.1739471e-07  7.2118073e-05  2.8590001e+09
   2348000   2.0707967e-11  3471941.5      101547.89      1.1306942e+09  7.2635474e-05  5.1742264e-07  7.2118052e-05  2.8590008e+09
   2349000   2.0716786e-11  3471943        101551.44      1.1306936e+09  7.2635488e-05  5.1740483e-07  7.2118084e-05  2.8590025e+09
   2350000   2.0725606e-11  3471940.7      101547.47      1.1306941e+09  7.2635487e-05  5.1745221e-07  7.2118035e-05  2.8590017e+09
   2351000   2.0734425e-11  3471936.1      101549.02      1.130692e+09   7.2635483e-05  5.1754352e-07  7.211794e-05   2.8589996e+09
   2352000   2.0743245e-11  3471945.8      101545.41      1.1306965e+09  7.2635481e-05  5.1733993e-07  7.2118141e-05  2.8590021e+09
   2353000   2.0752064e-11  3471942.3      101541.8       1.1306965e+09  7.2635485e-05  5.1741629e-07  7.2118069e-05  2.8590004e+09
   2354000   2.0760884e-11  3471936.7      101538.26      1.1306958e+09  7.2635472e-05  5.1751995e-07  7.2117952e-05  2.8589972e+09
   2355000   2.0769703e-11  3471932        101533.62      1.1306958e+09  7.2635468e-05  5.1761348e-07  7.2117854e-05  2.8589953e+09
   2356000   2.0778522e-11  3471924.5      101530.62      1.1306943e+09  7.2635462e-05  5.1776481e-07  7.2117697e-05  2.858992e+09 
   2357000   2.0787342e-11  3471923.2      101529.59      1.1306942e+09  7.2635469e-05  5.177973e-07   7.2117672e-05  2.8589919e+09
   2358000   2.0796161e-11  3471921.8      101527.77      1.1306943e+09  7.2635457e-05  5.1781593e-07  7.2117641e-05  2.85899e+09  
   2359000   2.0804981e-11  3471920.7      101529.3       1.1306935e+09  7.2635465e-05  5.178464e-07   7.2117619e-05  2.8589902e+09
   2360000   2.08138e-11    3471926.9      101535.14      1.1306936e+09  7.2635464e-05  5.1771502e-07  7.2117749e-05  2.8589932e+09
   2361000   2.0822619e-11  3471926.2      101536.6       1.1306929e+09  7.2635461e-05  5.177285e-07   7.2117733e-05  2.8589933e+09
   2362000   2.0831439e-11  3471935.3      101539.85      1.1306948e+09  7.2635468e-05  5.1754615e-07  7.2117922e-05  2.8589974e+09
   2363000   2.0840258e-11  3471933.6      101535.33      1.1306958e+09  7.263547e-05   5.1758278e-07  7.2117888e-05  2.8589966e+09
   2364000   2.0849078e-11  3471927.3      101534.48      1.130694e+09   7.263547e-05   5.1771342e-07  7.2117757e-05  2.8589939e+09
   2365000   2.0857897e-11  3471928.4      101530.8       1.1306955e+09  7.2635472e-05  5.1769216e-07  7.211778e-05   2.8589947e+09
   2366000   2.0866716e-11  3471918.6      101525.25      1.1306941e+09  7.2635485e-05  5.1791039e-07  7.2117575e-05  2.8589924e+09
   2367000   2.0875536e-11  3471921.2      101526.46      1.1306946e+09  7.2635484e-05  5.1785474e-07  7.211763e-05   2.8589938e+09
   2368000   2.0884355e-11  3471920        101526.31      1.1306942e+09  7.2635484e-05  5.1787868e-07  7.2117605e-05  2.8589939e+09
   2369000   2.0893175e-11  3471908.1      101524.11      1.130691e+09   7.2635489e-05  5.181314e-07   7.2117358e-05  2.8589901e+09
   2370000   2.0901994e-11  3471921.5      101527.97      1.1306942e+09  7.2635479e-05  5.178419e-07   7.2117637e-05  2.8589943e+09
   2371000   2.0910813e-11  3471920.4      101529.49      1.1306933e+09  7.2635464e-05  5.178504e-07   7.2117614e-05  2.8589922e+09
   2372000   2.0919633e-11  3471923.1      101526.3       1.1306953e+09  7.2635464e-05  5.1779447e-07  7.211767e-05   2.8589925e+09
   2373000   2.0928452e-11  3471929.6      101528.36      1.1306968e+09  7.2635461e-05  5.1765659e-07  7.2117804e-05  2.8589946e+09
   2374000   2.0937272e-11  3471920.7      101529.13      1.1306935e+09  7.2635464e-05  5.1784352e-07  7.211762e-05   2.8589921e+09
   2375000   2.0946091e-11  3471927.2      101530.28      1.1306953e+09  7.2635458e-05  5.1770433e-07  7.2117754e-05  2.8589942e+09
   2376000   2.095491e-11   3471927.1      101530.38      1.1306952e+09  7.2635458e-05  5.1770588e-07  7.2117752e-05  2.8589939e+09
   2377000   2.096373e-11   3471922.9      101526.51      1.1306951e+09  7.2635453e-05  5.1778783e-07  7.2117665e-05  2.8589919e+09
   2378000   2.0972549e-11  3471924.1      101526.4       1.1306956e+09  7.2635452e-05  5.1776063e-07  7.2117691e-05  2.858992e+09 
   2379000   2.0981369e-11  3471926.6      101529.6       1.1306953e+09  7.2635451e-05  5.1770867e-07  7.2117742e-05  2.8589927e+09
   2380000   2.0990188e-11  3471923        101534.6       1.1306925e+09  7.2635453e-05  5.1778516e-07  7.2117668e-05  2.8589927e+09
   2381000   2.0999007e-11  3471917.5      101532.42      1.1306913e+09  7.2635453e-05  5.1790069e-07  7.2117553e-05  2.8589912e+09
   2382000   2.1007827e-11  3471928        101534.93      1.130694e+09   7.2635461e-05  5.1768988e-07  7.2117771e-05  2.8589958e+09
   2383000   2.1016646e-11  3471930.3      101538.55      1.1306936e+09  7.2635457e-05  5.1763926e-07  7.2117818e-05  2.8589962e+09
   2384000   2.1025466e-11  3471925.6      101535.79      1.1306929e+09  7.2635465e-05  5.1774487e-07  7.2117721e-05  2.8589949e+09
   2385000   2.1034285e-11  3471926.3      101536.67      1.1306929e+09  7.2635468e-05  5.1773112e-07  7.2117737e-05  2.8589952e+09
   2386000   2.1043105e-11  3471932.4      101537.51      1.1306947e+09  7.2635469e-05  5.1760607e-07  7.2117863e-05  2.8589982e+09
   2387000   2.1051924e-11  3471929.1      101536.19      1.130694e+09   7.2635465e-05  5.1767175e-07  7.2117794e-05  2.8589971e+09
   2388000   2.1060743e-11  3471930.6      101538.99      1.1306935e+09  7.263546e-05   5.1763572e-07  7.2117824e-05  2.8589969e+09
   2389000   2.1069563e-11  3471934.2      101543.41      1.1306933e+09  7.2635458e-05  5.1755756e-07  7.2117901e-05  2.8589973e+09
   2390000   2.1078382e-11  3471940.6      101540.77      1.1306963e+09  7.2635454e-05  5.1742086e-07  7.2118033e-05  2.8589985e+09
   2391000   2.1087202e-11  3471937.1      101541.99      1.1306947e+09  7.2635463e-05  5.1750301e-07  7.211796e-05   2.858998e+09 
   2392000   2.1096021e-11  3471936        101540         1.130695e+09   7.2635471e-05  5.1753332e-07  7.2117938e-05  2.8589989e+09
   2393000   2.110484e-11   3471933.3      101544.67      1.1306926e+09  7.2635476e-05  5.1759445e-07  7.2117882e-05  2.8589994e+09
   2394000   2.111366e-11   3471927.6      101543.09      1.1306912e+09  7.2635472e-05  5.1770968e-07  7.2117763e-05  2.8589965e+09
   2395000   2.1122479e-11  3471936.8      101541.08      1.1306949e+09  7.2635477e-05  5.1752264e-07  7.2117954e-05  2.8589989e+09
   2396000   2.1131299e-11  3471938.3      101542         1.1306951e+09  7.2635473e-05  5.1748867e-07  7.2117985e-05  2.8589985e+09
   2397000   2.1140118e-11  3471943.3      101549.27      1.1306944e+09  7.263547e-05   5.1738241e-07  7.2118088e-05  2.8590003e+09
   2398000   2.1148937e-11  3471939.8      101548.53      1.1306934e+09  7.2635473e-05  5.1745714e-07  7.2118016e-05  2.8589995e+09
   2399000   2.1157757e-11  3471929.7      101546.9       1.1306906e+09  7.2635471e-05  5.176644e-07   7.2117807e-05  2.8589954e+09
   2400000   2.1166576e-11  3471935.9      101546.99      1.1306927e+09  7.2635473e-05  5.1753745e-07  7.2117936e-05  2.8589987e+09
   2401000   2.1175396e-11  3471933.8      101546.53      1.1306921e+09  7.263547e-05   5.1757782e-07  7.2117892e-05  2.8589979e+09
   2402000   2.1184215e-11  3471929.8      101544.01      1.1306916e+09  7.2635479e-05  5.1767082e-07  7.2117808e-05  2.8589964e+09
   2403000   2.1193034e-11  3471925.8      101535.8       1.130693e+09   7.2635477e-05  5.1775273e-07  7.2117724e-05  2.8589937e+09
   2404000   2.1201854e-11  3471925.8      101538.5       1.1306921e+09  7.2635477e-05  5.1775197e-07  7.2117725e-05  2.8589935e+09
   2405000   2.1210673e-11  3471927.2      101540.97      1.1306917e+09  7.2635479e-05  5.1772541e-07  7.2117754e-05  2.8589944e+09
   2406000   2.1219493e-11  3471924.2      101540.76      1.1306908e+09  7.2635473e-05  5.1777979e-07  7.2117693e-05  2.8589933e+09
   2407000   2.1228312e-11  3471921        101542.59      1.1306891e+09  7.2635469e-05  5.1784449e-07  7.2117625e-05  2.8589921e+09
   2408000   2.1237131e-11  3471927.9      101545.82      1.1306904e+09  7.2635465e-05  5.1769549e-07  7.2117769e-05  2.8589941e+09
   2409000   2.1245951e-11  3471935.4      101549.96      1.1306915e+09  7.2635472e-05  5.1754699e-07  7.2117925e-05  2.8589972e+09
   2410000   2.125477e-11   3471932.4      101553.15      1.1306894e+09  7.2635469e-05  5.1760663e-07  7.2117862e-05  2.8589963e+09
   2411000   2.126359e-11   3471938.4      101554.09      1.1306911e+09  7.2635472e-05  5.1748573e-07  7.2117986e-05  2.8589989e+09
   2412000   2.1272409e-11  3471941        101555.67      1.1306914e+09  7.2635479e-05  5.1743821e-07  7.2118041e-05  2.8590002e+09
   2413000   2.1281229e-11  3471937.3      101559.57      1.1306889e+09  7.2635477e-05  5.1751293e-07  7.2117964e-05  2.8589982e+09
   2414000   2.1290048e-11  3471945.1      101561.64      1.1306908e+09  7.2635466e-05  5.1733865e-07  7.2118127e-05  2.8590007e+09
   2415000   2.1298867e-11  3471944.1      101563.57      1.1306899e+09  7.2635466e-05  5.1735945e-07  7.2118106e-05  2.8590005e+09
   2416000   2.1307687e-11  3471947.7      101566.34      1.1306901e+09  7.2635472e-05  5.1729199e-07  7.211818e-05   2.8590022e+09
   2417000   2.1316506e-11  3471951.6      101565.21      1.1306918e+09  7.2635469e-05  5.1720858e-07  7.211826e-05   2.8590027e+09
   2418000   2.1325326e-11  3471947.4      101562.15      1.1306914e+09  7.2635471e-05  5.1729622e-07  7.2118174e-05  2.8590012e+09
   2419000   2.1334145e-11  3471946.1      101558.62      1.1306922e+09  7.2635471e-05  5.1732358e-07  7.2118148e-05  2.8590006e+09
   2420000   2.1342964e-11  3471939.1      101554.04      1.1306914e+09  7.2635465e-05  5.1746306e-07  7.2118002e-05  2.8589973e+09
   2421000   2.1351784e-11  3471932.7      101551.23      1.1306902e+09  7.2635463e-05  5.1759466e-07  7.2117868e-05  2.8589953e+09
   2422000   2.1360603e-11  3471923.8      101548.57      1.130688e+09   7.2635458e-05  5.1777473e-07  7.2117683e-05  2.8589917e+09
   2423000   2.1369423e-11  3471937        101553.04      1.130691e+09   7.2635455e-05  5.1749707e-07  7.2117958e-05  2.8589965e+09
   2424000   2.1378242e-11  3471938        101554.2       1.1306909e+09  7.2635461e-05  5.1748228e-07  7.2117979e-05  2.8589973e+09
   2425000   2.1387061e-11  3471932.4      101553.57      1.1306893e+09  7.2635464e-05  5.1760232e-07  7.2117862e-05  2.8589952e+09
   2426000   2.1395881e-11  3471936.1      101554.2       1.1306903e+09  7.2635472e-05  5.1753283e-07  7.2117939e-05  2.8589973e+09
   2427000   2.14047e-11    3471933.7      101555.62      1.130689e+09   7.2635474e-05  5.1758519e-07  7.2117889e-05  2.8589971e+09
   2428000   2.141352e-11   3471930        101554.72      1.1306881e+09  7.2635474e-05  5.1766089e-07  7.2117814e-05  2.8589958e+09
   2429000   2.1422339e-11  3471933.6      101554.44      1.1306894e+09  7.2635476e-05  5.1758891e-07  7.2117887e-05  2.8589971e+09
   2430000   2.1431158e-11  3471939.4      101558.56      1.13069e+09    7.263547e-05   5.1746106e-07  7.2118009e-05  2.8589986e+09
   2431000   2.1439978e-11  3471933.8      101561.2       1.1306872e+09  7.2635468e-05  5.1757601e-07  7.2117892e-05  2.8589963e+09
   2432000   2.1448797e-11  3471947.4      101565.2       1.1306904e+09  7.2635466e-05  5.1729298e-07  7.2118173e-05  2.8590013e+09
   2433000   2.1457617e-11  3471940.5      101564.53      1.1306883e+09  7.263547e-05   5.1744028e-07  7.211803e-05   2.8589989e+09
   2434000   2.1466436e-11  3471939.7      101562.23      1.1306888e+09  7.2635463e-05  5.1744991e-07  7.2118014e-05  2.858998e+09 
   2435000   2.1475255e-11  3471931.6      101562.26      1.1306861e+09  7.2635454e-05  5.1760762e-07  7.2117846e-05  2.8589936e+09
   2436000   2.1484075e-11  3471936.1      101558.78      1.1306888e+09  7.2635461e-05  5.1752127e-07  7.2117939e-05  2.8589949e+09
   2437000   2.1492894e-11  3471932.9      101557.9       1.130688e+09   7.2635464e-05  5.1759237e-07  7.2117872e-05  2.8589946e+09
   2438000   2.1501714e-11  3471916.9      101549.48      1.1306855e+09  7.2635467e-05  5.1792643e-07  7.2117541e-05  2.8589902e+09
   2439000   2.1510533e-11  3471917.1      101552.98      1.1306843e+09  7.2635468e-05  5.1792362e-07  7.2117544e-05  2.8589911e+09
   2440000   2.1519352e-11  3471924.7      101555.64      1.130686e+09   7.2635472e-05  5.1776836e-07  7.2117703e-05  2.8589934e+09
   2441000   2.1528172e-11  3471926.8      101553.94      1.1306873e+09  7.2635463e-05  5.1771739e-07  7.2117746e-05  2.858992e+09 
   2442000   2.1536991e-11  3471923.2      101552.26      1.1306866e+09  7.2635459e-05  5.1778876e-07  7.2117671e-05  2.8589901e+09
   2443000   2.1545811e-11  3471927.7      101555.68      1.130687e+09   7.2635446e-05  5.1768118e-07  7.2117765e-05  2.8589911e+09
   2444000   2.155463e-11   3471923.5      101557.46      1.130685e+09   7.2635454e-05  5.1777734e-07  7.2117677e-05  2.8589907e+09
   2445000   2.156345e-11   3471929.9      101565.55      1.1306844e+09  7.263545e-05   5.1763829e-07  7.2117811e-05  2.8589935e+09
   2446000   2.1572269e-11  3471935.6      101570.13      1.1306848e+09  7.2635452e-05  5.175223e-07   7.2117929e-05  2.8589959e+09
   2447000   2.1581088e-11  3471927.6      101565.18      1.1306838e+09  7.2635453e-05  5.1769024e-07  7.2117763e-05  2.8589924e+09
   2448000   2.1589908e-11  3471938.5      101571.2       1.1306854e+09  7.2635445e-05  5.1745579e-07  7.211799e-05   2.8589961e+09
   2449000   2.1598727e-11  3471930.9      101570.02      1.1306833e+09  7.2635448e-05  5.1761645e-07  7.2117832e-05  2.8589937e+09
   2450000   2.1607547e-11  3471934.7      101567.63      1.1306853e+09  7.2635444e-05  5.1753428e-07  7.211791e-05   2.8589946e+09
   2451000   2.1616366e-11  3471935.5      101569.05      1.1306851e+09  7.2635449e-05  5.1752174e-07  7.2117927e-05  2.8589945e+09
   2452000   2.1625185e-11  3471939.3      101572.76      1.1306852e+09  7.2635448e-05  5.1744226e-07  7.2118005e-05  2.8589959e+09
   2453000   2.1634005e-11  3471930        101567.56      1.1306838e+09  7.2635441e-05  5.1762779e-07  7.2117813e-05  2.858992e+09 
   2454000   2.1642824e-11  3471928.4      101565.12      1.1306841e+09  7.2635434e-05  5.1765421e-07  7.2117779e-05  2.8589908e+09
   2455000   2.1651644e-11  3471929.5      101567.17      1.1306838e+09  7.2635443e-05  5.1763998e-07  7.2117803e-05  2.8589913e+09
   2456000   2.1660463e-11  3471935.7      101566.31      1.1306861e+09  7.2635442e-05  5.1751097e-07  7.2117931e-05  2.8589927e+09
   2457000   2.1669282e-11  3471940.2      101566.42      1.1306876e+09  7.263545e-05   5.1742469e-07  7.2118025e-05  2.8589944e+09
   2458000   2.1678102e-11  3471932.3      101567.05      1.1306847e+09  7.2635463e-05  5.1760265e-07  7.211786e-05   2.8589932e+09
   2459000   2.1686921e-11  3471935.2      101567.72      1.1306855e+09  7.263546e-05   5.1753883e-07  7.2117921e-05  2.858995e+09 
   2460000   2.1695741e-11  3471930.1      101571.86      1.1306824e+09  7.2635458e-05  5.1764353e-07  7.2117814e-05  2.8589938e+09
   2461000   2.170456e-11   3471931.7      101570.17      1.1306835e+09  7.2635467e-05  5.176195e-07   7.2117847e-05  2.8589951e+09
   2462000   2.1713379e-11  3471939        101572.39      1.1306852e+09  7.2635468e-05  5.1746861e-07  7.2117999e-05  2.8589972e+09
   2463000   2.1722199e-11  3471931.7      101576.17      1.1306815e+09  7.2635463e-05  5.1761446e-07  7.2117849e-05  2.8589936e+09
   2464000   2.1731018e-11  3471937.5      101575.84      1.1306835e+09  7.2635467e-05  5.1749813e-07  7.2117969e-05  2.8589959e+09
   2465000   2.1739838e-11  3471942.5      101577.72      1.1306846e+09  7.2635462e-05  5.1738892e-07  7.2118073e-05  2.8589972e+09
   2466000   2.1748657e-11  3471933.7      101574.81      1.1306826e+09  7.263546e-05   5.175708e-07   7.211789e-05   2.8589938e+09
   2467000   2.1757476e-11  3471940        101575.81      1.1306844e+09  7.263547e-05   5.1745055e-07  7.211802e-05   2.8589971e+09
   2468000   2.1766296e-11  3471940.1      101575.62      1.1306845e+09  7.2635469e-05  5.1744652e-07  7.2118023e-05  2.858997e+09 
   2469000   2.1775115e-11  3471926.5      101571.54      1.1306813e+09  7.2635467e-05  5.1772743e-07  7.2117739e-05  2.8589916e+09
   2470000   2.1783935e-11  3471934.4      101572.38      1.1306837e+09  7.2635462e-05  5.175572e-07   7.2117905e-05  2.8589945e+09
   2471000   2.1792754e-11  3471937.3      101572.03      1.1306847e+09  7.2635459e-05  5.1749451e-07  7.2117965e-05  2.8589954e+09
   2472000   2.1801574e-11  3471933.7      101572.92      1.1306832e+09  7.2635461e-05  5.1757268e-07  7.2117889e-05  2.8589943e+09
   2473000   2.1810393e-11  3471927.4      101571.64      1.1306815e+09  7.2635465e-05  5.177076e-07   7.2117758e-05  2.8589923e+09
   2474000   2.1819212e-11  3471932.2      101576.11      1.1306817e+09  7.2635523e-05  5.1766531e-07  7.2117857e-05  2.8589958e+09
   2475000   2.1828032e-11  3471936.6      101579.1       1.1306821e+09  7.2635522e-05  5.1757259e-07  7.2117949e-05  2.8589979e+09
   2476000   2.1836851e-11  3471935        101579.63      1.1306814e+09  7.2635524e-05  5.1760792e-07  7.2117916e-05  2.8589975e+09
   2477000   2.1845671e-11  3471930.6      101579.02      1.1306802e+09  7.2635518e-05  5.1769227e-07  7.2117825e-05  2.8589953e+09
   2478000   2.185449e-11   3471934.7      101585.6       1.1306793e+09  7.2635519e-05  5.1760797e-07  7.2117911e-05  2.8589972e+09
   2479000   2.1863309e-11  3471943.2      101587.43      1.1306816e+09  7.2635515e-05  5.1742787e-07  7.2118087e-05  2.8589995e+09
   2480000   2.1872129e-11  3471944.3      101588.32      1.1306816e+09  7.2635514e-05  5.1740475e-07  7.2118109e-05  2.8589994e+09
   2481000   2.1880948e-11  3471935        101584.53      1.1306798e+09  7.263552e-05   5.1760298e-07  7.2117917e-05  2.8589965e+09
   2482000   2.1889768e-11  3471932.9      101583.59      1.1306794e+09  7.2635523e-05  5.1765035e-07  7.2117872e-05  2.8589969e+09
   2483000   2.1898587e-11  3471933.9      101585.82      1.130679e+09   7.2635524e-05  5.1763027e-07  7.2117894e-05  2.8589982e+09
   2484000   2.1907406e-11  3471935        101583.21      1.1306802e+09  7.263553e-05   5.1761267e-07  7.2117917e-05  2.8589996e+09
   2485000   2.1916226e-11  3471936.5      101580.2       1.1306817e+09  7.263553e-05   5.1758388e-07  7.2117947e-05  2.8589998e+09
   2486000   2.1925045e-11  3471929.5      101579.9       1.1306795e+09  7.2635527e-05  5.1772411e-07  7.2117802e-05  2.8589967e+09
   2487000   2.1933865e-11  3471926        101578.65      1.1306787e+09  7.2635534e-05  5.1780479e-07  7.2117729e-05  2.8589963e+09
   2488000   2.1942684e-11  3471927.5      101575.94      1.1306802e+09  7.2635536e-05  5.1777521e-07  7.2117761e-05  2.8589977e+09
   2489000   2.1951503e-11  3471926        101576.18      1.1306796e+09  7.2635537e-05  5.1780733e-07  7.211773e-05   2.8589976e+09
   2490000   2.1960323e-11  3471918.3      101570.92      1.1306787e+09  7.2635535e-05  5.1796629e-07  7.2117569e-05  2.8589945e+09
   2491000   2.1969142e-11  3471919.4      101566.12      1.1306807e+09  7.2635539e-05  5.1794552e-07  7.2117593e-05  2.8589946e+09
   2492000   2.1977962e-11  3471916.7      101566.41      1.1306797e+09  7.263554e-05   5.180037e-07   7.2117537e-05  2.8589938e+09
   2493000   2.1986781e-11  3471915.7      101565.52      1.1306797e+09  7.2635532e-05  5.1801576e-07  7.2117516e-05  2.8589934e+09
   2494000   2.19956e-11    3471915.9      101563.45      1.1306804e+09  7.2635531e-05  5.1801165e-07  7.211752e-05   2.8589934e+09
   2495000   2.200442e-11   3471915.3      101562.22      1.1306807e+09  7.2635537e-05  5.1802966e-07  7.2117508e-05  2.8589932e+09
   2496000   2.2013239e-11  3471915.4      101561.34      1.130681e+09   7.2635545e-05  5.1803502e-07  7.211751e-05   2.8589939e+09
   2497000   2.2022059e-11  3471922.2      101567.45      1.1306812e+09  7.2635541e-05  5.1789034e-07  7.2117651e-05  2.858997e+09 
   2498000   2.2030878e-11  3471921.4      101568.87      1.1306805e+09  7.2635535e-05  5.1790112e-07  7.2117634e-05  2.858997e+09 
   2499000   2.2039697e-11  3471922.2      101574.34      1.1306789e+09  7.2635537e-05  5.1788648e-07  7.2117651e-05  2.8589977e+09
   2500000   2.2048517e-11  3471931.5      101579.32      1.1306804e+09  7.263554e-05   5.1769613e-07  7.2117844e-05  2.8590011e+09
   2501000   2.2057336e-11  3471929.4      101578.23      1.13068e+09    7.2635532e-05  5.1773208e-07  7.21178e-05    2.8589992e+09
   2502000   2.2066156e-11  3471924.7      101576.47      1.130679e+09   7.2635533e-05  5.1783146e-07  7.2117702e-05  2.8589976e+09
   2503000   2.2074975e-11  3471930.9      101580.07      1.1306799e+09  7.2635537e-05  5.1770604e-07  7.2117831e-05  2.8590007e+09
   2504000   2.2083795e-11  3471925.5      101583.39      1.130677e+09   7.2635535e-05  5.1781565e-07  7.211772e-05   2.8589991e+09
   2505000   2.2092614e-11  3471926.3      101588.08      1.1306757e+09  7.2635534e-05  5.1779752e-07  7.2117736e-05  2.8589996e+09
   2506000   2.2101433e-11  3471932.3      101588.32      1.1306776e+09  7.2635524e-05  5.1766278e-07  7.2117861e-05  2.8590005e+09
   2507000   2.2110253e-11  3471928.3      101580.02      1.130679e+09   7.2635522e-05  5.1774517e-07  7.2117777e-05  2.8589974e+09
   2508000   2.2119072e-11  3471928        101581.61      1.1306784e+09  7.2635518e-05  5.1774691e-07  7.2117771e-05  2.8589962e+09
   2509000   2.2127892e-11  3471929.7      101579.44      1.1306797e+09  7.263552e-05   5.1771408e-07  7.2117806e-05  2.8589968e+09
   2510000   2.2136711e-11  3471935.1      101581.97      1.1306807e+09  7.2635514e-05  5.1759597e-07  7.2117918e-05  2.8589982e+09
   2511000   2.214553e-11   3471924.3      101576.96      1.1306787e+09  7.2635509e-05  5.1781414e-07  7.2117695e-05  2.8589938e+09
   2512000   2.215435e-11   3471918.7      101574.6       1.1306776e+09  7.2635513e-05  5.1793517e-07  7.2117578e-05  2.8589917e+09
   2513000   2.2163169e-11  3471923        101577.57      1.1306781e+09  7.2635512e-05  5.1784502e-07  7.2117667e-05  2.8589929e+09
   2514000   2.2171989e-11  3471922.3      101578.58      1.1306775e+09  7.2635513e-05  5.178601e-07   7.2117653e-05  2.8589927e+09
   2515000   2.2180808e-11  3471930.5      101584.26      1.1306784e+09  7.263552e-05   5.1769664e-07  7.2117823e-05  2.8589963e+09
   2516000   2.2189627e-11  3471940.5      101594.15      1.1306784e+09  7.2635521e-05  5.17489e-07    7.2118032e-05  2.8590004e+09
   2517000   2.2198447e-11  3471935.3      101593.58      1.1306769e+09  7.2635519e-05  5.1759526e-07  7.2117923e-05  2.8589985e+09
   2518000   2.2207266e-11  3471936.5      101591.99      1.1306778e+09  7.2635522e-05  5.1757428e-07  7.2117948e-05  2.8589988e+09
   2519000   2.2216086e-11  3471940.2      101593.19      1.1306786e+09  7.2635522e-05  5.1749774e-07  7.2118025e-05  2.858999e+09 
   2520000   2.2224905e-11  3471941.6      101592.57      1.1306793e+09  7.2635528e-05  5.1747507e-07  7.2118053e-05  2.8589988e+09
   2521000   2.2233724e-11  3471941.9      101596.22      1.1306782e+09  7.2635536e-05  5.1747591e-07  7.211806e-05   2.8590002e+09
   2522000   2.2242544e-11  3471937.8      101598.94      1.1306759e+09  7.2635536e-05  5.175608e-07   7.2117975e-05  2.8589994e+09
   2523000   2.2251363e-11  3471937.7      101601.15      1.1306751e+09  7.2635529e-05  5.1755666e-07  7.2117972e-05  2.8589989e+09
   2524000   2.2260183e-11  3471937.9      101597.1       1.1306766e+09  7.2635527e-05  5.1754992e-07  7.2117977e-05  2.8589976e+09
   2525000   2.2269002e-11  3471949.2      101598.73      1.1306798e+09  7.2635523e-05  5.1731119e-07  7.2118212e-05  2.8589998e+09
   2526000   2.2277821e-11  3471948.2      101600.62      1.1306788e+09  7.2635522e-05  5.173315e-07   7.2118191e-05  2.8589988e+09
   2527000   2.2286641e-11  3471945.7      101604.77      1.1306766e+09  7.2635512e-05  5.1737332e-07  7.2118139e-05  2.8589977e+09
   2528000   2.229546e-11   3471943.4      101604.06      1.1306761e+09  7.2635517e-05  5.1742673e-07  7.211809e-05   2.8589973e+09
   2529000   2.230428e-11   3471949.7      101604.55      1.130678e+09   7.2635503e-05  5.172819e-07   7.2118221e-05  2.8589983e+09
   2530000   2.2313099e-11  3471946.5      101602.24      1.1306777e+09  7.2635517e-05  5.1736205e-07  7.2118155e-05  2.8589977e+09
   2531000   2.2321919e-11  3471945.7      101601.68      1.1306776e+09  7.2635516e-05  5.1737713e-07  7.2118139e-05  2.8589973e+09
   2532000   2.2330738e-11  3471945.8      101606.97      1.1306759e+09  7.2635512e-05  5.1737214e-07  7.211814e-05   2.8589977e+09
   2533000   2.2339557e-11  3471951.3      101608.44      1.1306773e+09  7.2635507e-05  5.1725118e-07  7.2118256e-05  2.8589993e+09
   2534000   2.2348377e-11  3471949.6      101611.35      1.1306757e+09  7.2635506e-05  5.1728542e-07  7.211822e-05   2.858998e+09 
   2535000   2.2357196e-11  3471957.5      101614.06      1.1306775e+09  7.2635495e-05  5.1711054e-07  7.2118384e-05  2.8589995e+09
   2536000   2.2366016e-11  3471962.5      101619.85      1.1306772e+09  7.2635499e-05  5.1701088e-07  7.2118488e-05  2.8590014e+09
   2537000   2.2374835e-11  3471948.1      101611.93      1.130675e+09   7.2635506e-05  5.1731697e-07  7.2118189e-05  2.8589966e+09
   2538000   2.2383654e-11  3471946.4      101611.06      1.1306747e+09  7.2635501e-05  5.1734819e-07  7.2118153e-05  2.858996e+09 
   2539000   2.2392474e-11  3471943.9      101610.82      1.130674e+09   7.2635496e-05  5.1739421e-07  7.2118102e-05  2.8589952e+09
   2540000   2.2401293e-11  3471942.9      101614.51      1.1306724e+09  7.2635503e-05  5.1742169e-07  7.2118081e-05  2.8589955e+09
   2541000   2.2410113e-11  3471948.3      101615.69      1.1306738e+09  7.2635504e-05  5.1731064e-07  7.2118193e-05  2.8589975e+09
   2542000   2.2418932e-11  3471948.2      101615.14      1.130674e+09   7.2635501e-05  5.1731078e-07  7.211819e-05   2.8589968e+09
   2543000   2.2427751e-11  3471948.6      101613.23      1.1306747e+09  7.2635502e-05  5.1730368e-07  7.2118199e-05  2.8589968e+09
   2544000   2.2436571e-11  3471951.8      101615.2       1.1306752e+09  7.26355e-05    5.1723475e-07  7.2118266e-05  2.8589976e+09
   2545000   2.244539e-11   3471951.9      101618.01      1.1306742e+09  7.2635499e-05  5.1723274e-07  7.2118267e-05  2.8589976e+09
   2546000   2.245421e-11   3471948.3      101614.97      1.1306741e+09  7.2635493e-05  5.1730095e-07  7.2118192e-05  2.8589959e+09
   2547000   2.2463029e-11  3471943.9      101609.94      1.1306743e+09  7.2635491e-05  5.1738975e-07  7.2118102e-05  2.8589944e+09
   2548000   2.2471848e-11  3471944.7      101610.77      1.1306743e+09  7.2635485e-05  5.1736651e-07  7.2118118e-05  2.8589937e+09
   2549000   2.2480668e-11  3471942.4      101608.8       1.1306742e+09  7.2635489e-05  5.1741923e-07  7.211807e-05   2.8589928e+09
   2550000   2.2489487e-11  3471945.3      101610.7       1.1306745e+09  7.2635489e-05  5.173574e-07   7.2118131e-05  2.8589935e+09
   2551000   2.2498307e-11  3471947.6      101609.68      1.1306756e+09  7.2635482e-05  5.1730433e-07  7.2118177e-05  2.8589941e+09
   2552000   2.2507126e-11  3471943.7      101612.48      1.1306734e+09  7.2635477e-05  5.1738021e-07  7.2118097e-05  2.8589926e+09
   2553000   2.2515945e-11  3471943.7      101612.71      1.1306733e+09  7.2635475e-05  5.1737838e-07  7.2118096e-05  2.8589927e+09
   2554000   2.2524765e-11  3471941.1      101617.01      1.130671e+09   7.2635475e-05  5.1743146e-07  7.2118044e-05  2.8589921e+09
   2555000   2.2533584e-11  3471939.3      101615.6       1.1306708e+09  7.263548e-05   5.1747468e-07  7.2118006e-05  2.8589918e+09
   2556000   2.2542404e-11  3471947.3      101615.18      1.1306737e+09  7.2635484e-05  5.1731142e-07  7.2118173e-05  2.8589951e+09
   2557000   2.2551223e-11  3471951        101615.25      1.1306749e+09  7.2635488e-05  5.1723921e-07  7.2118249e-05  2.8589964e+09
   2558000   2.2560042e-11  3471948.3      101617.82      1.1306731e+09  7.2635485e-05  5.1729183e-07  7.2118193e-05  2.8589952e+09
   2559000   2.2568862e-11  3471949.9      101624.07      1.1306716e+09  7.2635488e-05  5.1726197e-07  7.2118226e-05  2.8589963e+09
   2560000   2.2577681e-11  3471953.7      101626.05      1.1306722e+09  7.2635486e-05  5.171818e-07   7.2118304e-05  2.8589981e+09
   2561000   2.2586501e-11  3471950.1      101623.74      1.1306717e+09  7.2635484e-05  5.1725427e-07  7.211823e-05   2.8589965e+09
   2562000   2.259532e-11   3471952.6      101624.63      1.1306723e+09  7.2635483e-05  5.1720112e-07  7.2118281e-05  2.8589969e+09
   2563000   2.260414e-11   3471949.2      101625.25      1.1306709e+09  7.2635484e-05  5.1727219e-07  7.2118212e-05  2.8589956e+09
   2564000   2.2612959e-11  3471944.9      101624.37      1.1306698e+09  7.2635485e-05  5.1736195e-07  7.2118123e-05  2.8589945e+09
   2565000   2.2621778e-11  3471951.2      101625.33      1.1306716e+09  7.2635491e-05  5.1723665e-07  7.2118254e-05  2.8589969e+09
   2566000   2.2630598e-11  3471942.8      101623.52      1.1306694e+09  7.2635497e-05  5.1741878e-07  7.2118078e-05  2.8589942e+09
   2567000   2.2639417e-11  3471947.3      101622.07      1.1306714e+09  7.2635486e-05  5.1731364e-07  7.2118172e-05  2.8589946e+09
   2568000   2.2648237e-11  3471949.2      101620.72      1.1306725e+09  7.2635481e-05  5.1726939e-07  7.2118212e-05  2.8589945e+09
   2569000   2.2657056e-11  3471939.8      101615.36      1.1306711e+09  7.263549e-05   5.1747438e-07  7.2118015e-05  2.8589913e+09
   2570000   2.2665875e-11  3471940.3      101616.65      1.1306708e+09  7.2635482e-05  5.1745404e-07  7.2118027e-05  2.8589909e+09
   2571000   2.2674695e-11  3471938.6      101614.84      1.1306709e+09  7.2635489e-05  5.1749726e-07  7.2117992e-05  2.8589908e+09
   2572000   2.2683514e-11  3471941.5      101616.34      1.1306713e+09  7.2635487e-05  5.1743524e-07  7.2118052e-05  2.8589919e+09
   2573000   2.2692334e-11  3471947.2      101622.16      1.1306713e+09  7.26355e-05    5.1733124e-07  7.2118169e-05  2.8589952e+09
   2574000   2.2701153e-11  3471948.7      101625.13      1.1306708e+09  7.2635506e-05  5.1730446e-07  7.2118202e-05  2.8589967e+09
   2575000   2.2709972e-11  3471946.2      101626.05      1.1306697e+09  7.263551e-05   5.1736099e-07  7.2118149e-05  2.8589967e+09
   2576000   2.2718792e-11  3471939.1      101624.62      1.1306678e+09  7.2635508e-05  5.1750684e-07  7.2118002e-05  2.8589943e+09
   2577000   2.2727611e-11  3471938.8      101620.41      1.1306691e+09  7.2635503e-05  5.1750723e-07  7.2117996e-05  2.8589938e+09
   2578000   2.2736431e-11  3471936        101624.24      1.1306668e+09  7.2635506e-05  5.1756879e-07  7.2117937e-05  2.8589936e+09
   2579000   2.274525e-11   3471935.7      101624.92      1.1306665e+09  7.2635503e-05  5.1757288e-07  7.211793e-05   2.8589936e+09
   2580000   2.2754069e-11  3471942.1      101622.53      1.1306695e+09  7.26355e-05    5.1743534e-07  7.2118065e-05  2.8589954e+09
   2581000   2.2762889e-11  3471932        101612.92      1.1306693e+09  7.2635506e-05  5.1765278e-07  7.2117853e-05  2.8589916e+09
   2582000   2.2771708e-11  3471937.6      101618.74      1.1306692e+09  7.2635506e-05  5.1753605e-07  7.211797e-05   2.8589945e+09
   2583000   2.2780528e-11  3471935.8      101620.75      1.1306679e+09  7.2635494e-05  5.1756214e-07  7.2117932e-05  2.8589931e+09
   2584000   2.2789347e-11  3471934.7      101618.48      1.1306683e+09  7.2635497e-05  5.1758634e-07  7.211791e-05   2.8589929e+09
   2585000   2.2798166e-11  3471936.5      101619.98      1.1306684e+09  7.2635494e-05  5.1754615e-07  7.2117947e-05  2.8589931e+09
   2586000   2.2806986e-11  3471931.2      101625.52      1.1306648e+09  7.2635505e-05  5.1766723e-07  7.2117838e-05  2.8589922e+09
   2587000   2.2815805e-11  3471937        101625.08      1.1306669e+09  7.2635515e-05  5.1755726e-07  7.2117958e-05  2.8589958e+09
   2588000   2.2824625e-11  3471939.7      101628.33      1.1306667e+09  7.2635513e-05  5.1749902e-07  7.2118014e-05  2.8589965e+09
   2589000   2.2833444e-11  3471942.4      101630.06      1.130667e+09   7.2635502e-05  5.1743197e-07  7.211807e-05   2.8589966e+09
   2590000   2.2842264e-11  3471943.4      101634.07      1.130666e+09   7.2635507e-05  5.1741583e-07  7.2118091e-05  2.8589974e+09
   2591000   2.2851083e-11  3471944.8      101634.11      1.1306665e+09  7.2635506e-05  5.1738631e-07  7.211812e-05   2.8589976e+09
   2592000   2.2859902e-11  3471948.1      101634.58      1.1306674e+09  7.2635508e-05  5.173193e-07   7.2118188e-05  2.858999e+09 
   2593000   2.2868722e-11  3471946.7      101636.8       1.1306662e+09  7.2635512e-05  5.1735345e-07  7.2118158e-05  2.8589988e+09
   2594000   2.2877541e-11  3471947        101636.58      1.1306664e+09  7.2635516e-05  5.1735051e-07  7.2118165e-05  2.8589992e+09
   2595000   2.2886361e-11  3471946.5      101634.21      1.130667e+09   7.2635522e-05  5.1736602e-07  7.2118156e-05  2.8589993e+09
   2596000   2.289518e-11   3471942.9      101635.13      1.1306655e+09  7.2635525e-05  5.1744388e-07  7.2118081e-05  2.8589982e+09
   2597000   2.2903999e-11  3471943.8      101636.46      1.1306654e+09  7.2635523e-05  5.1742396e-07  7.2118099e-05  2.8589989e+09
   2598000   2.2912819e-11  3471948        101640.51      1.1306654e+09  7.2635515e-05  5.1732929e-07  7.2118186e-05  2.8589998e+09
   2599000   2.2921638e-11  3471953.9      101641.33      1.1306671e+09  7.2635517e-05  5.1720751e-07  7.211831e-05   2.8590021e+09
   2600000   2.2930458e-11  3471955.8      101648.54      1.1306654e+09  7.2635517e-05  5.1716724e-07  7.211835e-05   2.8590029e+09
   2601000   2.2939277e-11  3471958.6      101648.02      1.1306665e+09  7.2635511e-05  5.1710499e-07  7.2118406e-05  2.8590035e+09
   2602000   2.2948096e-11  3471955        101646.79      1.1306657e+09  7.2635507e-05  5.1717497e-07  7.2118332e-05  2.8590013e+09
   2603000   2.2956916e-11  3471953        101646.88      1.130665e+09   7.2635513e-05  5.1722252e-07  7.211829e-05   2.8590004e+09
   2604000   2.2965735e-11  3471959        101647.66      1.1306667e+09  7.2635513e-05  5.1709858e-07  7.2118414e-05  2.8590027e+09
   2605000   2.2974555e-11  3471955.1      101648.76      1.130665e+09   7.2635512e-05  5.1717863e-07  7.2118333e-05  2.8590018e+09
   2606000   2.2983374e-11  3471951.3      101649.91      1.1306634e+09  7.2635508e-05  5.1725276e-07  7.2118256e-05  2.8590007e+09
   2607000   2.2992193e-11  3471956.8      101651.82      1.1306646e+09  7.2635514e-05  5.1714527e-07  7.2118369e-05  2.8590027e+09
   2608000   2.3001013e-11  3471955.2      101648.24      1.1306653e+09  7.2635517e-05  5.1718016e-07  7.2118336e-05  2.8590022e+09
   2609000   2.3009832e-11  3471950        101641.87      1.1306657e+09  7.2635525e-05  5.1729644e-07  7.2118228e-05  2.8590003e+09
   2610000   2.3018652e-11  3471949.1      101640.57      1.1306658e+09  7.2635522e-05  5.1731394e-07  7.2118209e-05  2.8589996e+09
   2611000   2.3027471e-11  3471948.1      101641.73      1.1306651e+09  7.263552e-05   5.1733115e-07  7.2118189e-05  2.859e+09    
   2612000   2.303629e-11   3471945.6      101638.37      1.1306653e+09  7.2635507e-05  5.1737074e-07  7.2118137e-05  2.8589988e+09
   2613000   2.304511e-11   3471941.2      101635.45      1.1306648e+09  7.2635508e-05  5.1746204e-07  7.2118046e-05  2.8589965e+09
   2614000   2.3053929e-11  3471950.2      101636.35      1.1306676e+09  7.2635499e-05  5.1726638e-07  7.2118232e-05  2.8589982e+09
   2615000   2.3062749e-11  3471956.2      101640.28      1.1306683e+09  7.2635495e-05  5.1713791e-07  7.2118357e-05  2.8590007e+09
   2616000   2.3071568e-11  3471946.6      101638.41      1.1306657e+09  7.2635495e-05  5.1733686e-07  7.2118158e-05  2.8589983e+09
   2617000   2.3080387e-11  3471945        101640.67      1.1306644e+09  7.2635499e-05  5.1737431e-07  7.2118125e-05  2.8589986e+09
   2618000   2.3089207e-11  3471935.5      101659.81      1.1306548e+09  7.263535e-05   5.1742437e-07  7.2117926e-05  2.8589921e+09
   2619000   2.3098026e-11  3471932.5      101657.96      1.1306544e+09  7.2635342e-05  5.1747741e-07  7.2117865e-05  2.8589909e+09
   2620000   2.3106846e-11  3471926.7      101654.07      1.1306537e+09  7.2635343e-05  5.1759927e-07  7.2117744e-05  2.8589895e+09
   2621000   2.3115665e-11  3471913.4      101648.51      1.1306512e+09  7.2635344e-05  5.1787594e-07  7.2117468e-05  2.858985e+09 
   2622000   2.3124485e-11  3471920.3      101646.2       1.1306542e+09  7.2635343e-05  5.1773292e-07  7.2117611e-05  2.8589869e+09
   2623000   2.3133304e-11  3471925.9      101645.38      1.1306564e+09  7.2635345e-05  5.1761763e-07  7.2117728e-05  2.8589884e+09
   2624000   2.3142123e-11  3471922.7      101646.14      1.1306551e+09  7.2635341e-05  5.1767957e-07  7.2117661e-05  2.8589869e+09
   2625000   2.3150943e-11  3471921.9      101646.99      1.1306545e+09  7.2635342e-05  5.1769682e-07  7.2117645e-05  2.858987e+09 
   2626000   2.3159762e-11  3471920.4      101643.18      1.1306553e+09  7.2635346e-05  5.1773364e-07  7.2117613e-05  2.8589863e+09
   2627000   2.3168582e-11  3471909.4      101636.99      1.1306537e+09  7.2635353e-05  5.1796866e-07  7.2117385e-05  2.8589829e+09
   2628000   2.3177401e-11  3471903.5      101636.12      1.130652e+09   7.2635358e-05  5.1809574e-07  7.2117262e-05  2.8589821e+09
   2629000   2.318622e-11   3471906.6      101638.7       1.1306521e+09  7.2635359e-05  5.1803314e-07  7.2117326e-05  2.8589841e+09
   2630000   2.319504e-11   3471906.8      101632.61      1.1306542e+09  7.2635354e-05  5.1802317e-07  7.2117331e-05  2.8589831e+09
   2631000   2.3203859e-11  3471916.2      101637.67      1.1306557e+09  7.2635356e-05  5.1782955e-07  7.2117527e-05  2.8589856e+09
   2632000   2.3212679e-11  3471915.9      101638.22      1.1306554e+09  7.2635354e-05  5.1783385e-07  7.211752e-05   2.8589847e+09
   2633000   2.3221498e-11  3471913.3      101642.71      1.130653e+09   7.2635347e-05  5.1788253e-07  7.2117465e-05  2.8589834e+09
   2634000   2.3230317e-11  3471920.1      101646.07      1.1306542e+09  7.2635345e-05  5.1773906e-07  7.2117606e-05  2.8589862e+09
   2635000   2.3239137e-11  3471912.8      101639.52      1.1306539e+09  7.2635344e-05  5.1788946e-07  7.2117455e-05  2.8589833e+09
   2636000   2.3247956e-11  3471915        101638.94      1.1306549e+09  7.2635351e-05  5.1785045e-07  7.21175e-05    2.8589844e+09
   2637000   2.3256776e-11  3471918.3      101640.62      1.1306554e+09  7.2635347e-05  5.1777776e-07  7.2117569e-05  2.8589855e+09
   2638000   2.3265595e-11  3471909.4      101634.36      1.1306545e+09  7.2635352e-05  5.1796786e-07  7.2117384e-05  2.8589826e+09
   2639000   2.3274414e-11  3471904        101634.08      1.1306528e+09  7.2635358e-05  5.1808501e-07  7.2117273e-05  2.8589812e+09
   2640000   2.3283234e-11  3471910        101644.05      1.1306515e+09  7.2635347e-05  5.1795016e-07  7.2117397e-05  2.8589826e+09
   2641000   2.3292053e-11  3471928.1      101651.36      1.1306551e+09  7.2635343e-05  5.1757011e-07  7.2117773e-05  2.858989e+09 
   2642000   2.3300873e-11  3471925.5      101652.88      1.1306538e+09  7.2635344e-05  5.1762422e-07  7.211772e-05   2.8589881e+09
   2643000   2.3309692e-11  3471925.9      101651.12      1.1306545e+09  7.2635348e-05  5.1762131e-07  7.2117727e-05  2.8589888e+09
   2644000   2.3318511e-11  3471919.3      101649.61      1.1306528e+09  7.2635352e-05  5.1776228e-07  7.211759e-05   2.8589867e+09
   2645000   2.3327331e-11  3471924.9      101650.7       1.1306543e+09  7.2635348e-05  5.1764012e-07  7.2117707e-05  2.8589882e+09
   2646000   2.333615e-11   3471925.9      101651.29      1.1306544e+09  7.2635353e-05  5.1762601e-07  7.2117727e-05  2.8589887e+09
   2647000   2.334497e-11   3471919.9      101649.32      1.1306531e+09  7.2635348e-05  5.1774491e-07  7.2117603e-05  2.8589866e+09
   2648000   2.3353789e-11  3471920.9      101650.75      1.1306529e+09  7.2635353e-05  5.1772876e-07  7.2117624e-05  2.8589883e+09
   2649000   2.3362609e-11  3471913.4      101646.63      1.1306518e+09  7.2635355e-05  5.1788764e-07  7.2117467e-05  2.8589859e+09
   2650000   2.3371428e-11  3471920        101648.26      1.1306534e+09  7.2635358e-05  5.1775417e-07  7.2117604e-05  2.8589887e+09
   2651000   2.3380247e-11  3471918.3      101646.49      1.1306535e+09  7.2635363e-05  5.1779241e-07  7.211757e-05   2.8589883e+09
   2652000   2.3389067e-11  3471915.7      101646.53      1.1306526e+09  7.2635348e-05  5.1783129e-07  7.2117516e-05  2.8589862e+09
   2653000   2.3397886e-11  3471922.5      101651.55      1.1306532e+09  7.2635348e-05  5.1769111e-07  7.2117657e-05  2.8589885e+09
   2654000   2.3406706e-11  3471922.5      101650.65      1.1306535e+09  7.2635345e-05  5.1768884e-07  7.2117657e-05  2.8589877e+09
   2655000   2.3415525e-11  3471919.4      101648.56      1.1306532e+09  7.2635341e-05  5.1774804e-07  7.2117593e-05  2.8589866e+09
   2656000   2.3424344e-11  3471912.9      101646.02      1.1306518e+09  7.2635343e-05  5.178844e-07   7.2117458e-05  2.8589844e+09
   2657000   2.3433164e-11  3471922.9      101651.58      1.1306533e+09  7.2635338e-05  5.176734e-07   7.2117665e-05  2.858988e+09 
   2658000   2.3441983e-11  3471914.9      101650.47      1.130651e+09   7.2635336e-05  5.1783616e-07  7.2117499e-05  2.8589849e+09
   2659000   2.3450803e-11  3471916.8      101645.74      1.1306532e+09  7.2635333e-05  5.1779508e-07  7.2117538e-05  2.8589859e+09
   2660000   2.3459622e-11  3471911.2      101642.44      1.1306524e+09  7.2635348e-05  5.1792608e-07  7.2117422e-05  2.8589849e+09
   2661000   2.3468441e-11  3471919.3      101642.35      1.1306552e+09  7.2635358e-05  5.1776789e-07  7.211759e-05   2.8589886e+09
   2662000   2.3477261e-11  3471911.6      101637.39      1.1306543e+09  7.2635345e-05  5.1791369e-07  7.2117431e-05  2.8589846e+09
   2663000   2.348608e-11   3471906.2      101635.42      1.1306531e+09  7.2635352e-05  5.1803406e-07  7.2117318e-05  2.8589835e+09
   2664000   2.34949e-11    3471906.3      101632.59      1.1306541e+09  7.263535e-05   5.1803093e-07  7.211732e-05   2.8589833e+09
   2665000   2.3503719e-11  3471901.3      101630.72      1.130653e+09   7.2635354e-05  5.1813802e-07  7.2117216e-05  2.8589814e+09
   2666000   2.3512538e-11  3471902.7      101630.65      1.1306535e+09  7.2635355e-05  5.1811011e-07  7.2117245e-05  2.8589817e+09
   2667000   2.3521358e-11  3471905        101629.76      1.1306546e+09  7.2635358e-05  5.1806357e-07  7.2117294e-05  2.8589826e+09
   2668000   2.3530177e-11  3471908        101636.65      1.1306533e+09  7.2635358e-05  5.180033e-07   7.2117355e-05  2.8589839e+09
   2669000   2.3538997e-11  3471915        101644.64      1.130653e+09   7.2635353e-05  5.1785139e-07  7.2117501e-05  2.8589862e+09
   2670000   2.3547816e-11  3471912        101648.06      1.1306508e+09  7.2635355e-05  5.1791685e-07  7.2117438e-05  2.8589852e+09
   2671000   2.3556635e-11  3471917        101653.67      1.1306506e+09  7.2635363e-05  5.1782087e-07  7.2117542e-05  2.8589875e+09
   2672000   2.3565455e-11  3471923.9      101655.26      1.1306524e+09  7.263536e-05   5.1767402e-07  7.2117686e-05  2.8589894e+09
   2673000   2.3574274e-11  3471931.7      101658.53      1.1306539e+09  7.2635351e-05  5.1750287e-07  7.2117848e-05  2.8589914e+09
   2674000   2.3583094e-11  3471927.9      101661.14      1.1306518e+09  7.2635352e-05  5.1758259e-07  7.2117769e-05  2.8589896e+09
   2675000   2.3591913e-11  3471930.1      101660.65      1.1306527e+09  7.263536e-05   5.175461e-07   7.2117814e-05  2.8589913e+09
   2676000   2.3600732e-11  3471921.3      101658.87      1.1306503e+09  7.2635369e-05  5.1773674e-07  7.2117633e-05  2.858989e+09 
   2677000   2.3609552e-11  3471924.5      101659.36      1.1306513e+09  7.2635372e-05  5.176726e-07   7.2117699e-05  2.8589902e+09
   2678000   2.3618371e-11  3471921.3      101659.46      1.1306501e+09  7.2635371e-05  5.1773847e-07  7.2117632e-05  2.8589885e+09
   2679000   2.3627191e-11  3471922.4      101656.19      1.1306516e+09  7.2635372e-05  5.1771719e-07  7.2117655e-05  2.8589888e+09
   2680000   2.363601e-11   3471917.8      101653.29      1.130651e+09   7.2635373e-05  5.1781334e-07  7.211756e-05   2.858987e+09 
   2681000   2.364483e-11   3471921.1      101655.59      1.1306514e+09  7.2635376e-05  5.177477e-07   7.2117629e-05  2.8589883e+09
   2682000   2.3653649e-11  3471929.2      101663.38      1.1306515e+09  7.2635369e-05  5.1757193e-07  7.2117797e-05  2.8589909e+09
   2683000   2.3662468e-11  3471932.3      101668.23      1.1306509e+09  7.2635364e-05  5.1750481e-07  7.211786e-05   2.8589918e+09
   2684000   2.3671288e-11  3471927.9      101666.67      1.1306499e+09  7.2635363e-05  5.1759433e-07  7.2117769e-05  2.8589897e+09
   2685000   2.3680107e-11  3471932.6      101667.29      1.1306513e+09  7.2635354e-05  5.1748738e-07  7.2117866e-05  2.8589904e+09
   2686000   2.3688927e-11  3471929.3      101664.35      1.1306512e+09  7.2635349e-05  5.175505e-07   7.2117798e-05  2.8589887e+09
   2687000   2.3697746e-11  3471927.9      101663.65      1.1306509e+09  7.2635357e-05  5.1758805e-07  7.2117768e-05  2.8589891e+09
   2688000   2.3706565e-11  3471922.7      101659.93      1.1306505e+09  7.2635358e-05  5.1769663e-07  7.2117661e-05  2.8589878e+09
   2689000   2.3715385e-11  3471927.9      101661.54      1.1306516e+09  7.2635362e-05  5.1759356e-07  7.2117768e-05  2.85899e+09  
   2690000   2.3724204e-11  3471921.7      101656.01      1.1306514e+09  7.2635373e-05  5.1773299e-07  7.211764e-05   2.8589874e+09
   2691000   2.3733024e-11  3471929.3      101654.22      1.1306546e+09  7.2635364e-05  5.1756631e-07  7.2117798e-05  2.8589894e+09
   2692000   2.3741843e-11  3471918.1      101654.05      1.1306509e+09  7.2635358e-05  5.1779312e-07  7.2117565e-05  2.8589851e+09
   2693000   2.3750662e-11  3471923.3      101654.93      1.1306523e+09  7.2635361e-05  5.1768787e-07  7.2117673e-05  2.8589878e+09
   2694000   2.3759482e-11  3471923        101656.26      1.1306518e+09  7.2635367e-05  5.1770053e-07  7.2117667e-05  2.8589883e+09
   2695000   2.3768301e-11  3471916.4      101654.58      1.1306501e+09  7.2635373e-05  5.1784352e-07  7.211753e-05   2.8589865e+09
   2696000   2.3777121e-11  3471915        101653.06      1.1306502e+09  7.2635376e-05  5.1787426e-07  7.2117501e-05  2.8589864e+09
   2697000   2.378594e-11   3471918.1      101655.14      1.1306505e+09  7.2635373e-05  5.1780685e-07  7.2117566e-05  2.8589871e+09
   2698000   2.3794759e-11  3471926.8      101659.79      1.1306519e+09  7.2635372e-05  5.1762531e-07  7.2117747e-05  2.8589902e+09
   2699000   2.3803579e-11  3471931.1      101663.88      1.130652e+09   7.2635365e-05  5.1752955e-07  7.2117836e-05  2.8589913e+09
   2700000   2.3812398e-11  3471935.1      101666.47      1.1306524e+09  7.2635356e-05  5.174378e-07   7.2117918e-05  2.8589924e+09
   2701000   2.3821218e-11  3471929.7      101666.07      1.1306507e+09  7.2635357e-05  5.1755144e-07  7.2117806e-05  2.8589908e+09
   2702000   2.3830037e-11  3471924.4      101668.61      1.1306481e+09  7.2635356e-05  5.1765971e-07  7.2117697e-05  2.8589889e+09
   2703000   2.3838856e-11  3471930        101670.57      1.1306493e+09  7.2635355e-05  5.1754172e-07  7.2117813e-05  2.8589913e+09
   2704000   2.3847676e-11  3471934.4      101667.75      1.1306518e+09  7.2635356e-05  5.1745111e-07  7.2117905e-05  2.8589926e+09
   2705000   2.3856495e-11  3471932.5      101664.48      1.1306522e+09  7.2635355e-05  5.1749018e-07  7.2117864e-05  2.8589909e+09
   2706000   2.3865315e-11  3471933.6      101662.28      1.1306533e+09  7.2635355e-05  5.1746882e-07  7.2117886e-05  2.8589905e+09
   2707000   2.3874134e-11  3471932.2      101661.42      1.1306531e+09  7.2635356e-05  5.1749726e-07  7.2117859e-05  2.8589904e+09
   2708000   2.3882954e-11  3471929.5      101662.51      1.1306519e+09  7.2635352e-05  5.1754922e-07  7.2117802e-05  2.8589897e+09
   2709000   2.3891773e-11  3471922        101659.85      1.1306502e+09  7.263535e-05   5.1770378e-07  7.2117646e-05  2.8589872e+09
   2710000   2.3900592e-11  3471930.2      101663.69      1.1306517e+09  7.2635365e-05  5.1754803e-07  7.2117817e-05  2.8589915e+09
   2711000   2.3909412e-11  3471929.3      101661.28      1.1306522e+09  7.2635373e-05  5.1757486e-07  7.2117798e-05  2.8589916e+09
   2712000   2.3918231e-11  3471923.7      101659.43      1.130651e+09   7.2635366e-05  5.1768373e-07  7.2117682e-05  2.8589892e+09
   2713000   2.3927051e-11  3471921.3      101658.14      1.1306506e+09  7.2635365e-05  5.1773415e-07  7.2117631e-05  2.8589888e+09
   2714000   2.393587e-11   3471927.5      101659.67      1.1306521e+09  7.2635365e-05  5.1760445e-07  7.211776e-05   2.8589915e+09
   2715000   2.3944689e-11  3471921.8      101659.01      1.1306505e+09  7.2635371e-05  5.177291e-07   7.2117642e-05  2.8589899e+09
   2716000   2.3953509e-11  3471915.1      101655.28      1.1306495e+09  7.2635371e-05  5.1786774e-07  7.2117503e-05  2.8589878e+09
   2717000   2.3962328e-11  3471915.8      101655.64      1.1306496e+09  7.2635374e-05  5.1785513e-07  7.2117518e-05  2.8589882e+09
   2718000   2.3971148e-11  3471922.9      101658.57      1.130651e+09   7.2635376e-05  5.1771065e-07  7.2117666e-05  2.8589902e+09
   2719000   2.3979967e-11  3471924        101660.12      1.1306508e+09  7.263537e-05   5.1768289e-07  7.2117687e-05  2.8589894e+09
   2720000   2.3988786e-11  3471927        101658.38      1.1306524e+09  7.2635364e-05  5.1761223e-07  7.2117751e-05  2.8589895e+09
   2721000   2.3997606e-11  3471925.9      101661.27      1.1306511e+09  7.2635366e-05  5.1763738e-07  7.2117728e-05  2.8589893e+09
   2722000   2.4006425e-11  3471928.1      101662.3       1.1306515e+09  7.2635363e-05  5.1758878e-07  7.2117774e-05  2.85899e+09  
   2723000   2.4015245e-11  3471929.9      101667.25      1.1306504e+09  7.2635367e-05  5.1755598e-07  7.2117811e-05  2.8589911e+09
   2724000   2.4024064e-11  3471930        101671.21      1.1306491e+09  7.2635363e-05  5.1755118e-07  7.2117812e-05  2.8589911e+09
   2725000   2.4032883e-11  3471926.9      101671.28      1.130648e+09   7.2635359e-05  5.1761212e-07  7.2117747e-05  2.8589898e+09
   2726000   2.4041703e-11  3471929.3      101670.43      1.1306492e+09  7.2635358e-05  5.1755923e-07  7.2117799e-05  2.8589903e+09
   2727000   2.4050522e-11  3471924.7      101669.83      1.1306478e+09  7.2635354e-05  5.1765157e-07  7.2117703e-05  2.8589878e+09
   2728000   2.4059342e-11  3471919.9      101661.42      1.130649e+09   7.2635348e-05  5.1774467e-07  7.2117603e-05  2.858985e+09 
   2729000   2.4068161e-11  3471918.6      101657.43      1.1306499e+09  7.2635349e-05  5.1777191e-07  7.2117577e-05  2.8589843e+09
   2730000   2.407698e-11   3471923.7      101661.72      1.1306502e+09  7.2635344e-05  5.1766143e-07  7.2117682e-05  2.8589858e+09
   2731000   2.40858e-11    3471921.6      101663.35      1.1306489e+09  7.2635345e-05  5.1770678e-07  7.2117639e-05  2.8589859e+09
   2732000   2.4094619e-11  3471917.9      101661.72      1.1306482e+09  7.2635341e-05  5.1778064e-07  7.2117561e-05  2.858985e+09 
   2733000   2.4103439e-11  3471917.1      101656.64      1.1306497e+09  7.2635348e-05  5.1780345e-07  7.2117545e-05  2.8589851e+09
   2734000   2.4112258e-11  3471924.5      101659.74      1.1306511e+09  7.2635344e-05  5.1764545e-07  7.2117699e-05  2.8589871e+09
   2735000   2.4121077e-11  3471919.6      101656.18      1.1306507e+09  7.2635344e-05  5.1774712e-07  7.2117597e-05  2.8589847e+09
   2736000   2.4129897e-11  3471916.4      101653.88      1.1306503e+09  7.2635346e-05  5.1781686e-07  7.2117529e-05  2.8589835e+09
   2737000   2.4138716e-11  3471919.8      101654.44      1.1306513e+09  7.2635349e-05  5.1774972e-07  7.21176e-05    2.8589853e+09
   2738000   2.4147536e-11  3471911.7      101652.76      1.1306492e+09  7.2635355e-05  5.1792168e-07  7.2117433e-05  2.858983e+09 
   2739000   2.4156355e-11  3471916.4      101658.1       1.130649e+09   7.2635353e-05  5.178221e-07   7.2117531e-05  2.8589851e+09
   2740000   2.4165175e-11  3471919.6      101663.25      1.1306483e+09  7.2635359e-05  5.1776213e-07  7.2117597e-05  2.8589874e+09
   2741000   2.4173994e-11  3471916.9      101663.27      1.1306474e+09  7.2635354e-05  5.1781217e-07  7.2117541e-05  2.8589861e+09
   2742000   2.4182813e-11  3471904.1      101663.7       1.130643e+09   7.2635342e-05  5.180672e-07   7.2117275e-05  2.8589803e+09
   2743000   2.4191633e-11  3471918.5      101660.9       1.1306487e+09  7.2635342e-05  5.1776895e-07  7.2117573e-05  2.858985e+09 
   2744000   2.4200452e-11  3471915.7      101661.86      1.1306474e+09  7.2635344e-05  5.1782959e-07  7.2117515e-05  2.8589843e+09
   2745000   2.4209272e-11  3471911.5      101660.75      1.1306464e+09  7.2635356e-05  5.1792672e-07  7.2117429e-05  2.8589847e+09
   2746000   2.4218091e-11  3471908.3      101667.2       1.1306432e+09  7.2635353e-05  5.1799203e-07  7.2117361e-05  2.858984e+09 
   2747000   2.422691e-11   3471902.7      101663.47      1.1306426e+09  7.2635359e-05  5.1811353e-07  7.2117246e-05  2.8589823e+09
   2748000   2.423573e-11   3471912.4      101667.6       1.1306444e+09  7.2635346e-05  5.1789867e-07  7.2117447e-05  2.8589849e+09
   2749000   2.4244549e-11  3471926.2      101673.55      1.1306471e+09  7.2635351e-05  5.1761799e-07  7.2117733e-05  2.85899e+09  
   2750000   2.4253369e-11  3471911        101665.67      1.1306446e+09  7.2635342e-05  5.1792454e-07  7.2117418e-05  2.8589834e+09
   2751000   2.4262188e-11  3471911.1      101665.22      1.1306448e+09  7.263534e-05   5.1791889e-07  7.2117421e-05  2.8589836e+09
   2752000   2.4271007e-11  3471912.6      101663.44      1.1306459e+09  7.2635342e-05  5.1789142e-07  7.2117451e-05  2.8589841e+09
   2753000   2.4279827e-11  3471913.9      101667.15      1.1306451e+09  7.2635345e-05  5.1786782e-07  7.2117478e-05  2.8589846e+09
   2754000   2.4288646e-11  3471920.2      101670.92      1.1306459e+09  7.2635342e-05  5.1773261e-07  7.2117609e-05  2.8589859e+09
   2755000   2.4297466e-11  3471921.5      101670.84      1.1306464e+09  7.2635339e-05  5.1770385e-07  7.2117635e-05  2.8589857e+09
   2756000   2.4306285e-11  3471925.9      101674.7       1.1306466e+09  7.2635325e-05  5.1759824e-07  7.2117726e-05  2.8589859e+09
   2757000   2.4315104e-11  3471926.7      101672.93      1.1306474e+09  7.2635324e-05  5.1757988e-07  7.2117744e-05  2.8589858e+09
   2758000   2.4323924e-11  3471926.8      101678.2       1.1306457e+09  7.2635326e-05  5.1757945e-07  7.2117747e-05  2.8589865e+09
   2759000   2.4332743e-11  3471929.8      101681.11      1.1306457e+09  7.2635318e-05  5.175109e-07   7.2117808e-05  2.8589872e+09
   2760000   2.4341563e-11  3471930.4      101678.11      1.1306469e+09  7.2635324e-05  5.1750442e-07  7.211782e-05   2.8589876e+09
   2761000   2.4350382e-11  3471931.2      101676.22      1.1306479e+09  7.2635325e-05  5.1748664e-07  7.2117838e-05  2.8589873e+09
   2762000   2.4359201e-11  3471928.9      101677.29      1.1306467e+09  7.263533e-05   5.1754134e-07  7.2117789e-05  2.8589866e+09
   2763000   2.4368021e-11  3471927.1      101679.99      1.1306452e+09  7.2635333e-05  5.1758159e-07  7.2117751e-05  2.8589863e+09
   2764000   2.437684e-11   3471926.4      101679.54      1.1306451e+09  7.2635335e-05  5.1759802e-07  7.2117737e-05  2.8589865e+09
   2765000   2.438566e-11   3471925.1      101676.41      1.1306457e+09  7.263534e-05   5.1762896e-07  7.2117711e-05  2.8589864e+09
   2766000   2.4394479e-11  3471925.1      101676.91      1.1306456e+09  7.2635346e-05  5.1763643e-07  7.211771e-05   2.8589873e+09
   2767000   2.4403299e-11  3471920.1      101674.98      1.1306446e+09  7.2635348e-05  5.1774047e-07  7.2117608e-05  2.8589856e+09
   2768000   2.4412118e-11  3471925.3      101673.46      1.1306468e+09  7.263536e-05   5.1764415e-07  7.2117715e-05  2.8589877e+09
   2769000   2.4420937e-11  3471926.1      101676.02      1.1306462e+09  7.263535e-05   5.1761804e-07  7.2117732e-05  2.8589868e+09
   2770000   2.4429757e-11  3471930.4      101678.06      1.130647e+09   7.2635359e-05  5.1753791e-07  7.2117821e-05  2.8589888e+09
   2771000   2.4438576e-11  3471936        101685.9       1.1306462e+09  7.2635355e-05  5.1741919e-07  7.2117936e-05  2.858991e+09 
   2772000   2.4447396e-11  3471935.3      101688.25      1.1306452e+09  7.2635363e-05  5.1743925e-07  7.2117924e-05  2.8589916e+09
   2773000   2.4456215e-11  3471932.1      101688.35      1.1306441e+09  7.2635357e-05  5.1749979e-07  7.2117857e-05  2.8589905e+09
   2774000   2.4465034e-11  3471937.4      101691.57      1.1306448e+09  7.2635353e-05  5.1738595e-07  7.2117967e-05  2.8589927e+09
   2775000   2.4473854e-11  3471933.6      101689.52      1.1306442e+09  7.2635358e-05  5.1747034e-07  7.2117887e-05  2.8589915e+09
   2776000   2.4482673e-11  3471940        101692.39      1.1306454e+09  7.2635352e-05  5.1733226e-07  7.211802e-05   2.8589932e+09
   2777000   2.4491493e-11  3471934.9      101694.03      1.1306431e+09  7.2635353e-05  5.1743901e-07  7.2117914e-05  2.8589911e+09
   2778000   2.4500312e-11  3471934.2      101693.95      1.1306429e+09  7.2635353e-05  5.1745279e-07  7.21179e-05    2.8589903e+09
   2779000   2.4509131e-11  3471946        101698.66      1.1306453e+09  7.2635349e-05  5.1720391e-07  7.2118145e-05  2.8589942e+09
   2780000   2.4517951e-11  3471949.7      101700.32      1.130646e+09   7.2635347e-05  5.1712543e-07  7.2118222e-05  2.8589954e+09
   2781000   2.452677e-11   3471952.3      101703.58      1.1306458e+09  7.2635349e-05  5.1707254e-07  7.2118276e-05  2.8589961e+09
   2782000   2.453559e-11   3471950.6      101704.99      1.1306447e+09  7.2635351e-05  5.1711071e-07  7.211824e-05   2.8589956e+09
   2783000   2.4544409e-11  3471950.7      101706.61      1.1306442e+09  7.2635342e-05  5.1709965e-07  7.2118242e-05  2.8589949e+09
   2784000   2.4553228e-11  3471951.4      101707.84      1.130644e+09   7.263534e-05   5.1708389e-07  7.2118257e-05  2.8589955e+09
   2785000   2.4562048e-11  3471959.5      101712.85      1.1306451e+09  7.2635347e-05  5.1692127e-07  7.2118426e-05  2.8589992e+09
   2786000   2.4570867e-11  3471953.1      101710.8       1.1306436e+09  7.2635345e-05  5.1705196e-07  7.2118293e-05  2.8589967e+09
   2787000   2.4579687e-11  3471950.7      101706.79      1.1306442e+09  7.2635349e-05  5.1710672e-07  7.2118242e-05  2.8589962e+09
   2788000   2.4588506e-11  3471955.2      101704.81      1.1306463e+09  7.2635343e-05  5.1700681e-07  7.2118337e-05  2.8589973e+09
   2789000   2.4597325e-11  3471941.2      101699.29      1.1306435e+09  7.2635357e-05  5.1731153e-07  7.2118046e-05  2.8589931e+09
   2790000   2.4606145e-11  3471937.2      101695.82      1.1306433e+09  7.2635352e-05  5.1738985e-07  7.2117963e-05  2.8589915e+09
   2791000   2.4614964e-11  3471941.1      101696.07      1.1306445e+09  7.2635348e-05  5.1730456e-07  7.2118043e-05  2.8589927e+09
   2792000   2.4623784e-11  3471938.8      101694.83      1.1306442e+09  7.2635357e-05  5.1736109e-07  7.2117996e-05  2.8589922e+09
   2793000   2.4632603e-11  3471938.4      101696.64      1.1306434e+09  7.2635349e-05  5.1736166e-07  7.2117987e-05  2.8589915e+09
   2794000   2.4641422e-11  3471934.4      101695.12      1.1306426e+09  7.2635341e-05  5.1743687e-07  7.2117904e-05  2.8589899e+09
   2795000   2.4650242e-11  3471923.7      101696.38      1.1306386e+09  7.2635339e-05  5.176581e-07   7.2117681e-05  2.8589866e+09
   2796000   2.4659061e-11  3471926.4      101694.32      1.1306402e+09  7.2635342e-05  5.1760484e-07  7.2117737e-05  2.8589877e+09
   2797000   2.4667881e-11  3471933.3      101692.27      1.1306432e+09  7.2635338e-05  5.1745586e-07  7.2117882e-05  2.8589895e+09
   2798000   2.46767e-11    3471933.5      101690.71      1.1306438e+09  7.2635337e-05  5.1745123e-07  7.2117885e-05  2.8589887e+09
   2799000   2.468552e-11   3471933.8      101693.77      1.1306429e+09  7.263533e-05   5.1743825e-07  7.2117892e-05  2.858988e+09 
   2800000   2.4694339e-11  3471935.8      101695.41      1.130643e+09   7.2635323e-05  5.173908e-07   7.2117932e-05  2.8589881e+09
   2801000   2.4703158e-11  3471944        101699.48      1.1306444e+09  7.2635329e-05  5.1722658e-07  7.2118103e-05  2.8589913e+09
   2802000   2.4711978e-11  3471942.9      101700.36      1.1306437e+09  7.2635345e-05  5.1726347e-07  7.2118082e-05  2.858992e+09 
   2803000   2.4720797e-11  3471935        101696         1.1306425e+09  7.2635339e-05  5.1742146e-07  7.2117917e-05  2.8589887e+09
   2804000   2.4729617e-11  3471944.6      101701.61      1.1306438e+09  7.263534e-05   5.1722443e-07  7.2118115e-05  2.8589929e+09
   2805000   2.4738436e-11  3471946.8      101704.16      1.1306437e+09  7.2635344e-05  5.171825e-07   7.2118161e-05  2.8589942e+09
   2806000   2.4747255e-11  3471951.9      101711.46      1.130643e+09   7.263535e-05   5.1708192e-07  7.2118268e-05  2.8589965e+09
   2807000   2.4756075e-11  3471955.6      101710.75      1.1306445e+09  7.2635343e-05  5.1699898e-07  7.2118344e-05  2.8589967e+09
   2808000   2.4764894e-11  3471952.2      101706.75      1.1306447e+09  7.2635344e-05  5.1707057e-07  7.2118274e-05  2.8589948e+09
   2809000   2.4773714e-11  3471953.6      101705.32      1.1306456e+09  7.263534e-05   5.1703797e-07  7.2118302e-05  2.858995e+09 
   2810000   2.4782533e-11  3471942.6      101702.12      1.130643e+09   7.2635345e-05  5.1727115e-07  7.2118074e-05  2.8589914e+09
   2811000   2.4791352e-11  3471943.9      101700.27      1.1306441e+09  7.2635334e-05  5.1723313e-07  7.2118101e-05  2.8589907e+09
   2812000   2.4800172e-11  3471938.4      101694.32      1.1306442e+09  7.2635338e-05  5.1735153e-07  7.2117986e-05  2.8589879e+09
   2813000   2.4808991e-11  3471946.2      101701.27      1.1306445e+09  7.2635336e-05  5.171872e-07   7.2118149e-05  2.8589904e+09
   2814000   2.4817811e-11  3471942.9      101701.09      1.1306435e+09  7.2635341e-05  5.1725964e-07  7.2118081e-05  2.8589895e+09
   2815000   2.482663e-11   3471939.8      101700.05      1.1306428e+09  7.2635332e-05  5.1731508e-07  7.2118017e-05  2.858988e+09 
   2816000   2.4835449e-11  3471937.7      101700.37      1.130642e+09   7.2635338e-05  5.1736508e-07  7.2117973e-05  2.8589882e+09
   2817000   2.4844269e-11  3471939.3      101704.55      1.1306411e+09  7.263534e-05   5.1733458e-07  7.2118006e-05  2.8589897e+09
   2818000   2.4853088e-11  3471940.9      101710.81      1.1306395e+09  7.2635334e-05  5.172958e-07   7.2118038e-05  2.8589902e+09
   2819000   2.4861908e-11  3471955.3      101712.58      1.1306438e+09  7.2635332e-05  5.1699316e-07  7.2118339e-05  2.8589953e+09
   2820000   2.4870727e-11  3471957.6      101717.91      1.1306428e+09  7.2635329e-05  5.1694308e-07  7.2118386e-05  2.858996e+09 
   2821000   2.4879546e-11  3471953.9      101715.37      1.1306424e+09  7.2635332e-05  5.1702359e-07  7.2118309e-05  2.8589955e+09
   2822000   2.4888366e-11  3471952.6      101716.17      1.1306417e+09  7.2635339e-05  5.1705747e-07  7.2118282e-05  2.8589961e+09
   2823000   2.4897185e-11  3471943.3      101711.85      1.13064e+09    7.2635348e-05  5.1725863e-07  7.2118089e-05  2.8589929e+09
   2824000   2.4906005e-11  3471944.3      101706.14      1.1306422e+09  7.2635349e-05  5.1723924e-07  7.211811e-05   2.8589922e+09
   2825000   2.4914824e-11  3471947.1      101704.75      1.1306436e+09  7.2635335e-05  5.1716763e-07  7.2118167e-05  2.8589913e+09
   2826000   2.4923644e-11  3471946.1      101705.85      1.1306429e+09  7.2635344e-05  5.1719747e-07  7.2118146e-05  2.8589912e+09
   2827000   2.4932463e-11  3471951.1      101705.33      1.1306448e+09  7.2635336e-05  5.1708417e-07  7.2118252e-05  2.8589924e+09
   2828000   2.4941282e-11  3471950.6      101709.21      1.1306433e+09  7.2635345e-05  5.1710411e-07  7.211824e-05   2.8589937e+09
   2829000   2.4950102e-11  3471938.7      101710.76      1.1306388e+09  7.2635336e-05  5.1734333e-07  7.2117993e-05  2.8589895e+09
   2830000   2.4958921e-11  3471940.1      101707.34      1.1306404e+09  7.2635332e-05  5.1730952e-07  7.2118022e-05  2.8589899e+09
   2831000   2.4967741e-11  3471936.9      101704.78      1.1306402e+09  7.2635341e-05  5.17386e-07    7.2117955e-05  2.8589893e+09
   2832000   2.497656e-11   3471937        101709.43      1.1306387e+09  7.2635336e-05  5.1737849e-07  7.2117957e-05  2.8589895e+09
   2833000   2.4985379e-11  3471943        101711.71      1.1306399e+09  7.2635339e-05  5.1725564e-07  7.2118083e-05  2.858992e+09 
   2834000   2.4994199e-11  3471930.4      101701.04      1.1306393e+09  7.263534e-05   5.1751936e-07  7.211782e-05   2.858987e+09 
   2835000   2.5003018e-11  3471921.7      101697.41      1.1306376e+09  7.2635338e-05  5.176971e-07   7.2117641e-05  2.8589832e+09
   2836000   2.5011838e-11  3471932.7      101697.68      1.1306412e+09  7.2635332e-05  5.174644e-07   7.2117868e-05  2.8589865e+09
   2837000   2.5020657e-11  3471931.5      101695.76      1.1306414e+09  7.2635339e-05  5.1749425e-07  7.2117844e-05  2.8589868e+09
   2838000   2.5029476e-11  3471918.6      101691.42      1.1306385e+09  7.2635332e-05  5.1775684e-07  7.2117576e-05  2.8589817e+09
   2839000   2.5038296e-11  3471915.3      101684.4       1.1306398e+09  7.263533e-05   5.1782365e-07  7.2117507e-05  2.8589803e+09
   2840000   2.5047115e-11  3471910.7      101679.43      1.1306399e+09  7.2635331e-05  5.1791833e-07  7.2117412e-05  2.8589785e+09
   2841000   2.5055935e-11  3471911        101683.54      1.1306386e+09  7.2635337e-05  5.1791916e-07  7.2117418e-05  2.8589793e+09
   2842000   2.5064754e-11  3471921.2      101688.45      1.1306404e+09  7.2635343e-05  5.1771316e-07  7.211763e-05   2.8589841e+09
   2843000   2.5073573e-11  3471917.5      101690.59      1.1306385e+09  7.2635346e-05  5.1779255e-07  7.2117553e-05  2.8589837e+09
   2844000   2.5082393e-11  3471915.6      101690.59      1.1306378e+09  7.2635354e-05  5.178402e-07   7.2117514e-05  2.858984e+09 
   2845000   2.5091212e-11  3471916.8      101693.91      1.1306371e+09  7.2635357e-05  5.1781779e-07  7.2117539e-05  2.8589842e+09
   2846000   2.5100032e-11  3471926.7      101697.42      1.1306392e+09  7.2635352e-05  5.1760874e-07  7.2117744e-05  2.8589873e+09
   2847000   2.5108851e-11  3471925.4      101697.41      1.1306388e+09  7.2635354e-05  5.1763648e-07  7.2117717e-05  2.8589872e+09
   2848000   2.511767e-11   3471924        101698.97      1.1306378e+09  7.2635354e-05  5.1766656e-07  7.2117687e-05  2.858987e+09 
   2849000   2.512649e-11   3471923.4      101698.32      1.1306379e+09  7.2635349e-05  5.1767281e-07  7.2117676e-05  2.858987e+09 
   2850000   2.5135309e-11  3471925.4      101702.52      1.1306371e+09  7.263535e-05   5.176334e-07   7.2117717e-05  2.858988e+09 
   2851000   2.5144129e-11  3471927.3      101704.23      1.1306372e+09  7.2635351e-05  5.1759409e-07  7.2117757e-05  2.8589886e+09
   2852000   2.5152948e-11  3471930.9      101702.51      1.1306389e+09  7.2635356e-05  5.175256e-07   7.2117831e-05  2.8589893e+09
   2853000   2.5161767e-11  3471936.4      101706.23      1.1306395e+09  7.263535e-05   5.1740476e-07  7.2117945e-05  2.8589908e+09
   2854000   2.5170587e-11  3471931.4      101708.31      1.1306372e+09  7.2635347e-05  5.1750586e-07  7.2117841e-05  2.8589893e+09
   2855000   2.5179406e-11  3471933.4      101709.18      1.1306376e+09  7.2635353e-05  5.1746926e-07  7.2117884e-05  2.8589912e+09
   2856000   2.5188226e-11  3471929.3      101706.74      1.130637e+09   7.2635349e-05  5.1755028e-07  7.2117798e-05  2.8589894e+09
   2857000   2.5197045e-11  3471930.6      101701.67      1.1306391e+09  7.2635347e-05  5.1752117e-07  7.2117826e-05  2.8589892e+09
   2858000   2.5205865e-11  3471935.2      101709.09      1.1306382e+09  7.2635347e-05  5.1742517e-07  7.2117922e-05  2.8589911e+09
   2859000   2.5214684e-11  3471936        101714.45      1.1306367e+09  7.2635346e-05  5.1740798e-07  7.2117938e-05  2.8589915e+09
   2860000   2.5223503e-11  3471945.2      101719.76      1.130638e+09   7.2635343e-05  5.172139e-07   7.2118129e-05  2.8589949e+09
   2861000   2.5232323e-11  3471937.2      101716.8       1.1306363e+09  7.2635337e-05  5.1737447e-07  7.2117963e-05  2.8589907e+09
   2862000   2.5241142e-11  3471942.2      101718.45      1.1306374e+09  7.2635341e-05  5.1727414e-07  7.2118067e-05  2.8589923e+09
   2863000   2.5249962e-11  3471948.7      101720.95      1.1306388e+09  7.263534e-05   5.1713775e-07  7.2118202e-05  2.8589943e+09
   2864000   2.5258781e-11  3471943.2      101717.92      1.1306379e+09  7.2635345e-05  5.172571e-07   7.2118088e-05  2.8589924e+09
   2865000   2.52676e-11    3471943.4      101720.77      1.130637e+09   7.2635346e-05  5.1725451e-07  7.2118091e-05  2.858993e+09 
   2866000   2.527642e-11   3471939.4      101723.04      1.130635e+09   7.2635344e-05  5.1733551e-07  7.2118009e-05  2.8589923e+09
   2867000   2.5285239e-11  3471945.5      101725.06      1.1306363e+09  7.2635353e-05  5.1721831e-07  7.2118135e-05  2.8589955e+09
   2868000   2.5294059e-11  3471948.9      101725.28      1.1306374e+09  7.2635351e-05  5.1714535e-07  7.2118205e-05  2.8589963e+09
   2869000   2.5302878e-11  3471946.4      101722.4       1.1306375e+09  7.2635349e-05  5.1719587e-07  7.2118153e-05  2.8589945e+09
   2870000   2.5311697e-11  3471938.4      101719.2       1.1306359e+09  7.2635349e-05  5.1736124e-07  7.2117988e-05  2.8589913e+09
   2871000   2.5320517e-11  3471934.8      101715.69      1.1306359e+09  7.2635341e-05  5.1742942e-07  7.2117912e-05  2.8589886e+09
   2872000   2.5329336e-11  3471939.5      101713.01      1.1306383e+09  7.263534e-05   5.1732962e-07  7.211801e-05   2.8589895e+09
   2873000   2.5338156e-11  3471936.8      101712.74      1.1306375e+09  7.2635337e-05  5.1738191e-07  7.2117955e-05  2.8589875e+09
   2874000   2.5346975e-11  3471938.8      101709.44      1.1306393e+09  7.2635339e-05  5.1734297e-07  7.2117996e-05  2.8589881e+09
   2875000   2.5355794e-11  3471947.1      101715.33      1.1306401e+09  7.2635347e-05  5.1717847e-07  7.2118168e-05  2.8589932e+09
   2876000   2.5364614e-11  3471934.2      101713.11      1.1306365e+09  7.2635353e-05  5.1745368e-07  7.2117899e-05  2.8589904e+09
   2877000   2.5373433e-11  3471934.9      101720.61      1.1306342e+09  7.2635346e-05  5.1743261e-07  7.2117914e-05  2.8589907e+09
   2878000   2.5382253e-11  3471937.3      101718.16      1.1306359e+09  7.2635349e-05  5.173857e-07   7.2117963e-05  2.8589907e+09
   2879000   2.5391072e-11  3471941.4      101723         1.1306356e+09  7.263535e-05   5.1730097e-07  7.2118049e-05  2.8589911e+09
   2880000   2.5399891e-11  3471934.2      101723.28      1.1306331e+09  7.2635347e-05  5.1744673e-07  7.21179e-05    2.8589878e+09
   2881000   2.5408711e-11  3471936.4      101724.99      1.1306333e+09  7.2635338e-05  5.17392e-07    7.2117946e-05  2.8589884e+09
   2882000   2.541753e-11   3471937.4      101726.36      1.1306332e+09  7.2635336e-05  5.1736906e-07  7.2117967e-05  2.858989e+09 
   2883000   2.542635e-11   3471932.7      101727.82      1.1306311e+09  7.2635343e-05  5.1747311e-07  7.211787e-05   2.8589882e+09
   2884000   2.5435169e-11  3471933.7      101728.64      1.1306312e+09  7.2635344e-05  5.1745531e-07  7.2117889e-05  2.858989e+09 
   2885000   2.5443988e-11  3471939.2      101731.36      1.1306321e+09  7.2635342e-05  5.1733887e-07  7.2118003e-05  2.8589913e+09
   2886000   2.5452808e-11  3471936.4      101731.02      1.1306313e+09  7.2635349e-05  5.1740402e-07  7.2117945e-05  2.8589905e+09
   2887000   2.5461627e-11  3471935.1      101726.72      1.1306323e+09  7.2635346e-05  5.1742699e-07  7.2117919e-05  2.8589891e+09
   2888000   2.5470447e-11  3471937.2      101726.77      1.130633e+09   7.263534e-05   5.1737828e-07  7.2117962e-05  2.8589893e+09
   2889000   2.5479266e-11  3471936        101728.44      1.130632e+09   7.2635334e-05  5.1739643e-07  7.2117938e-05  2.8589885e+09
   2890000   2.5488086e-11  3471938.6      101729.17      1.1306326e+09  7.2635334e-05  5.1734206e-07  7.2117992e-05  2.8589889e+09
   2891000   2.5496905e-11  3471950.6      101731.36      1.1306359e+09  7.2635332e-05  5.1709112e-07  7.2118241e-05  2.8589926e+09
   2892000   2.5505724e-11  3471945.4      101735.09      1.1306329e+09  7.2635335e-05  5.1720191e-07  7.2118133e-05  2.8589909e+09
   2893000   2.5514544e-11  3471949.5      101736.88      1.1306337e+09  7.2635335e-05  5.1711785e-07  7.2118217e-05  2.8589934e+09
   2894000   2.5523363e-11  3471947.5      101737.52      1.1306328e+09  7.2635336e-05  5.1715999e-07  7.2118176e-05  2.8589935e+09
   2895000   2.5532183e-11  3471940.2      101738.45      1.1306301e+09  7.2635344e-05  5.1731996e-07  7.2118024e-05  2.8589919e+09
   2896000   2.5541002e-11  3471940.1      101735.78      1.1306309e+09  7.2635344e-05  5.1732177e-07  7.2118022e-05  2.8589918e+09
   2897000   2.5549821e-11  3471945.1      101736.66      1.1306323e+09  7.2635342e-05  5.1721646e-07  7.2118126e-05  2.8589936e+09
   2898000   2.5558641e-11  3471943        101736.28      1.1306317e+09  7.2635346e-05  5.1726475e-07  7.2118082e-05  2.8589932e+09
   2899000   2.556746e-11   3471945.2      101733.13      1.1306335e+09  7.2635354e-05  5.1722548e-07  7.2118129e-05  2.858994e+09 
   2900000   2.557628e-11   3471937.2      101727.98      1.1306326e+09  7.263536e-05   5.1739804e-07  7.2117962e-05  2.8589904e+09
   2901000   2.5585099e-11  3471941        101723.27      1.1306354e+09  7.2635358e-05  5.1731606e-07  7.2118042e-05  2.8589918e+09
   2902000   2.5593918e-11  3471933.6      101724.92      1.1306324e+09  7.2635349e-05  5.1746099e-07  7.2117888e-05  2.8589891e+09
   2903000   2.5602738e-11  3471933.6      101726.31      1.1306319e+09  7.2635348e-05  5.17461e-07    7.2117887e-05  2.85899e+09  
   2904000   2.5611557e-11  3471928.6      101724.77      1.1306307e+09  7.2635367e-05  5.1758296e-07  7.2117784e-05  2.8589902e+09
   2905000   2.5620377e-11  3471930.2      101722.92      1.1306319e+09  7.2635369e-05  5.1755225e-07  7.2117816e-05  2.8589913e+09
   2906000   2.5629196e-11  3471923.4      101720.16      1.1306305e+09  7.263537e-05   5.1769496e-07  7.2117675e-05  2.858988e+09 
   2907000   2.5638015e-11  3471930.8      101716.79      1.1306341e+09  7.2635369e-05  5.1754026e-07  7.2117829e-05  2.8589899e+09
   2908000   2.5646835e-11  3471922.1      101718.39      1.1306307e+09  7.2635367e-05  5.1771859e-07  7.2117649e-05  2.8589869e+09
   2909000   2.5655654e-11  3471920        101717.62      1.1306302e+09  7.2635354e-05  5.1774941e-07  7.2117604e-05  2.8589857e+09
   2910000   2.5664474e-11  3471918.5      101714.68      1.1306307e+09  7.263536e-05   5.1778501e-07  7.2117575e-05  2.8589854e+09
   2911000   2.5673293e-11  3471921        101712.59      1.1306323e+09  7.263536e-05   5.1773461e-07  7.2117625e-05  2.858986e+09 
   2912000   2.5682112e-11  3471920.3      101715.02      1.1306312e+09  7.2635366e-05  5.1775441e-07  7.2117612e-05  2.8589866e+09
   2913000   2.5690932e-11  3471922.2      101714.8       1.1306319e+09  7.263537e-05   5.1771943e-07  7.211765e-05   2.8589887e+09
   2914000   2.5699751e-11  3471909.6      101714.9       1.1306277e+09  7.2635374e-05  5.1798414e-07  7.211739e-05   2.8589856e+09
   2915000   2.5708571e-11  3471919.2      101720.16      1.1306291e+09  7.2635371e-05  5.1778366e-07  7.2117587e-05  2.858989e+09 
   2916000   2.571739e-11   3471931.3      101723.25      1.1306321e+09  7.2635365e-05  5.1752662e-07  7.2117839e-05  2.858992e+09 
   2917000   2.572621e-11   3471930        101728.99      1.1306298e+09  7.2635367e-05  5.1755402e-07  7.2117813e-05  2.8589907e+09
   2918000   2.5735029e-11  3471933.1      101726.13      1.1306318e+09  7.2635369e-05  5.1749155e-07  7.2117878e-05  2.8589916e+09
   2919000   2.5743848e-11  3471927.3      101723.25      1.1306308e+09  7.2635372e-05  5.1761578e-07  7.2117756e-05  2.8589901e+09
   2920000   2.5752668e-11  3471920.7      101720.83      1.1306294e+09  7.2635361e-05  5.177418e-07   7.2117619e-05  2.8589874e+09
   2921000   2.5761487e-11  3471928.6      101724.09      1.130631e+09   7.2635362e-05  5.1757883e-07  7.2117783e-05  2.8589902e+09
   2922000   2.5770307e-11  3471931.5      101726.66      1.1306311e+09  7.2635364e-05  5.1752086e-07  7.2117844e-05  2.858991e+09 
   2923000   2.5779126e-11  3471935.2      101725         1.1306329e+09  7.2635364e-05  5.1744357e-07  7.2117921e-05  2.8589925e+09
   2924000   2.5787945e-11  3471923.7      101722.9       1.1306297e+09  7.2635364e-05  5.1768272e-07  7.2117682e-05  2.8589887e+09
   2925000   2.5796765e-11  3471921.2      101723.72      1.1306286e+09  7.263536e-05   5.1772963e-07  7.2117631e-05  2.8589874e+09
   2926000   2.5805584e-11  3471931.9      101727.12      1.1306311e+09  7.2635366e-05  5.1751429e-07  7.2117852e-05  2.8589913e+09
   2927000   2.5814404e-11  3471929        101729.63      1.1306293e+09  7.2635364e-05  5.1757196e-07  7.2117792e-05  2.8589907e+09
   2928000   2.5823223e-11  3471922.7      101729.66      1.1306271e+09  7.2635364e-05  5.1770359e-07  7.211766e-05   2.8589897e+09
   2929000   2.5832042e-11  3471922.4      101727.21      1.1306278e+09  7.2635375e-05  5.1771996e-07  7.2117655e-05  2.8589911e+09
   2930000   2.5840862e-11  3471924.8      101726.87      1.1306288e+09  7.2635379e-05  5.1767366e-07  7.2117705e-05  2.8589915e+09
   2931000   2.5849681e-11  3471929.6      101729.71      1.1306294e+09  7.2635376e-05  5.1757184e-07  7.2117804e-05  2.8589921e+09
   2932000   2.5858501e-11  3471927.5      101729.06      1.1306289e+09  7.2635366e-05  5.1760465e-07  7.2117761e-05  2.8589902e+09
   2933000   2.586732e-11   3471930.2      101731.98      1.1306289e+09  7.263536e-05   5.1754355e-07  7.2117817e-05  2.8589906e+09
   2934000   2.5876139e-11  3471943.7      101740         1.1306307e+09  7.2635364e-05  5.1726714e-07  7.2118097e-05  2.8589956e+09
   2935000   2.5884959e-11  3471947.7      101742.99      1.1306311e+09  7.263537e-05   5.1718882e-07  7.2118181e-05  2.8589974e+09
   2936000   2.5893778e-11  3471940.6      101742.09      1.130629e+09   7.2635368e-05  5.173346e-07   7.2118034e-05  2.8589953e+09
   2937000   2.5902598e-11  3471936.2      101737.88      1.1306289e+09  7.2635367e-05  5.174255e-07   7.2117942e-05  2.8589945e+09
   2938000   2.5911417e-11  3471935.4      101739.15      1.1306282e+09  7.2635372e-05  5.174467e-07   7.2117925e-05  2.8589952e+09
   2939000   2.5920236e-11  3471931.9      101739.27      1.130627e+09   7.2635368e-05  5.1751482e-07  7.2117853e-05  2.8589934e+09
   2940000   2.5929056e-11  3471931.3      101735.47      1.1306281e+09  7.2635361e-05  5.1752058e-07  7.2117841e-05  2.8589924e+09
   2941000   2.5937875e-11  3471929.3      101730.16      1.1306292e+09  7.2635361e-05  5.1756236e-07  7.2117798e-05  2.858991e+09 
   2942000   2.5946695e-11  3471928.5      101729.14      1.1306292e+09  7.2635353e-05  5.1757213e-07  7.2117781e-05  2.8589897e+09
   2943000   2.5955514e-11  3471928.5      101728.34      1.1306295e+09  7.2635362e-05  5.1758034e-07  7.2117782e-05  2.8589904e+09
   2944000   2.5964333e-11  3471924.3      101725.77      1.130629e+09   7.2635366e-05  5.1767247e-07  7.2117694e-05  2.8589899e+09
   2945000   2.5973153e-11  3471919.2      101726.55      1.130627e+09   7.2635374e-05  5.1778511e-07  7.2117589e-05  2.8589897e+09
   2946000   2.5981972e-11  3471913.7      101719.55      1.1306275e+09  7.2635376e-05  5.1790282e-07  7.2117473e-05  2.8589876e+09
   2947000   2.5990792e-11  3471911.4      101720.37      1.1306264e+09  7.2635373e-05  5.1794666e-07  7.2117426e-05  2.8589867e+09
   2948000   2.5999611e-11  3471916.7      101726.1       1.1306263e+09  7.2635367e-05  5.1783179e-07  7.2117535e-05  2.8589885e+09
   2949000   2.6008431e-11  3471921.8      101724.65      1.1306285e+09  7.263536e-05   5.1771834e-07  7.2117642e-05  2.8589894e+09
   2950000   2.601725e-11   3471915.9      101723.8       1.1306268e+09  7.2635361e-05  5.1784154e-07  7.2117519e-05  2.8589869e+09
   2951000   2.6026069e-11  3471919        101727.69      1.1306265e+09  7.2635359e-05  5.1777513e-07  7.2117584e-05  2.8589879e+09
   2952000   2.6034889e-11  3471920.4      101732.19      1.1306255e+09  7.2635358e-05  5.1774533e-07  7.2117612e-05  2.858989e+09 
   2953000   2.6043708e-11  3471922        101734.74      1.1306252e+09  7.2635356e-05  5.177094e-07   7.2117646e-05  2.8589898e+09
   2954000   2.6052528e-11  3471920.4      101736.13      1.1306242e+09  7.2635355e-05  5.177412e-07   7.2117614e-05  2.8589891e+09
   2955000   2.6061347e-11  3471924.3      101734.56      1.130626e+09   7.2635353e-05  5.1765816e-07  7.2117695e-05  2.8589895e+09
   2956000   2.6070166e-11  3471925.3      101731.72      1.1306273e+09  7.2635348e-05  5.176333e-07   7.2117715e-05  2.858989e+09 
   2957000   2.6078986e-11  3471922        101732.71      1.1306259e+09  7.2635342e-05  5.1769475e-07  7.2117647e-05  2.8589877e+09
   2958000   2.6087805e-11  3471921.5      101735         1.1306249e+09  7.263534e-05   5.1770495e-07  7.2117635e-05  2.8589879e+09
   2959000   2.6096625e-11  3471923.5      101737.89      1.1306246e+09  7.2635344e-05  5.1766693e-07  7.2117677e-05  2.858989e+09 
   2960000   2.6105444e-11  3471920.2      101737.02      1.1306238e+09  7.2635345e-05  5.177361e-07   7.2117609e-05  2.8589876e+09
   2961000   2.6114263e-11  3471924.3      101739.38      1.1306244e+09  7.2635351e-05  5.1765809e-07  7.2117693e-05  2.8589896e+09
   2962000   2.6123083e-11  3471926.5      101742.05      1.1306242e+09  7.2635362e-05  5.1762336e-07  7.2117739e-05  2.8589917e+09
   2963000   2.6131902e-11  3471922.5      101741.65      1.1306231e+09  7.2635365e-05  5.1770815e-07  7.2117657e-05  2.8589907e+09
   2964000   2.6140722e-11  3471916.8      101739.09      1.130622e+09   7.2635362e-05  5.1782271e-07  7.2117539e-05  2.8589872e+09
   2965000   2.6149541e-11  3471930.8      101750.22      1.130623e+09   7.2635363e-05  5.1753331e-07  7.211783e-05   2.8589917e+09
   2966000   2.615836e-11   3471920.4      101746.59      1.1306207e+09  7.2635364e-05  5.1775145e-07  7.2117613e-05  2.8589871e+09
   2967000   2.616718e-11   3471921.2      101748.74      1.1306202e+09  7.2635359e-05  5.1773e-07     7.2117629e-05  2.8589871e+09
   2968000   2.6175999e-11  3471923.4      101751.22      1.1306202e+09  7.2635367e-05  5.1769097e-07  7.2117676e-05  2.8589887e+09
   2969000   2.6184819e-11  3471928.4      101753.03      1.1306212e+09  7.2635369e-05  5.1759067e-07  7.2117778e-05  2.8589905e+09
   2970000   2.6193638e-11  3471925.6      101755.37      1.1306195e+09  7.2635374e-05  5.1765225e-07  7.2117722e-05  2.8589901e+09
   2971000   2.6202457e-11  3471934.6      101760.25      1.1306209e+09  7.2635378e-05  5.1747017e-07  7.2117908e-05  2.8589936e+09
   2972000   2.6211277e-11  3471933.4      101760.13      1.1306205e+09  7.2635371e-05  5.1748667e-07  7.2117884e-05  2.8589921e+09
   2973000   2.6220096e-11  3471935.5      101763.49      1.1306201e+09  7.2635374e-05  5.1744717e-07  7.2117927e-05  2.858993e+09 
   2974000   2.6228916e-11  3471940.5      101765.48      1.1306211e+09  7.2635373e-05  5.1734099e-07  7.2118032e-05  2.8589945e+09
   2975000   2.6237735e-11  3471933        101762.9       1.1306195e+09  7.263537e-05   5.1749534e-07  7.2117875e-05  2.8589911e+09
   2976000   2.6246555e-11  3471936.8      101766.68      1.1306195e+09  7.2635371e-05  5.1741648e-07  7.2117954e-05  2.8589925e+09
   2977000   2.6255374e-11  3471932.5      101765.17      1.1306185e+09  7.2635364e-05  5.1749968e-07  7.2117864e-05  2.8589897e+09
   2978000   2.6264193e-11  3471936.6      101763         1.1306206e+09  7.263537e-05   5.1742104e-07  7.2117949e-05  2.8589915e+09
   2979000   2.6273013e-11  3471938.5      101765.66      1.1306204e+09  7.263537e-05   5.1738188e-07  7.2117988e-05  2.8589923e+09
   2980000   2.6281832e-11  3471938.8      101766.91      1.1306201e+09  7.2635373e-05  5.1737721e-07  7.2117996e-05  2.8589929e+09
   2981000   2.6290652e-11  3471937.3      101765.59      1.13062e+09    7.2635367e-05  5.1740262e-07  7.2117964e-05  2.8589927e+09
   2982000   2.6299471e-11  3471932.3      101766.72      1.130618e+09   7.2635363e-05  5.1750232e-07  7.211786e-05   2.8589912e+09
   2983000   2.630829e-11   3471929.6      101765.68      1.1306174e+09  7.2635374e-05  5.1757071e-07  7.2117804e-05  2.8589905e+09
   2984000   2.631711e-11   3471937.6      101765.86      1.13062e+09    7.2635365e-05  5.1739327e-07  7.2117971e-05  2.8589926e+09
   2985000   2.6325929e-11  3471924.5      101765.34      1.1306158e+09  7.2635363e-05  5.1766492e-07  7.2117698e-05  2.8589877e+09
   2986000   2.6334749e-11  3471927.7      101775.74      1.1306134e+09  7.2635337e-05  5.1757297e-07  7.2117764e-05  2.8589886e+09
   2987000   2.6343568e-11  3471923.6      101775.18      1.1306122e+09  7.2635341e-05  5.1766072e-07  7.211768e-05   2.8589875e+09
   2988000   2.6352387e-11  3471927.6      101778.91      1.1306123e+09  7.2635335e-05  5.1757184e-07  7.2117764e-05  2.8589895e+09
   2989000   2.6361207e-11  3471920.5      101773.46      1.1306117e+09  7.2635334e-05  5.1771973e-07  7.2117614e-05  2.8589863e+09
   2990000   2.6370026e-11  3471924.3      101772.2       1.1306134e+09  7.2635325e-05  5.1763085e-07  7.2117694e-05  2.8589863e+09
   2991000   2.6378846e-11  3471925.3      101772.55      1.1306137e+09  7.2635318e-05  5.1760293e-07  7.2117715e-05  2.8589859e+09
   2992000   2.6387665e-11  3471926.3      101776.62      1.1306126e+09  7.2635312e-05  5.1757531e-07  7.2117737e-05  2.8589855e+09
   2993000   2.6396484e-11  3471929.6      101776.69      1.1306137e+09  7.2635314e-05  5.1750911e-07  7.2117805e-05  2.8589869e+09
   2994000   2.6405304e-11  3471934        101782.79      1.1306132e+09  7.263532e-05   5.1742334e-07  7.2117896e-05  2.8589896e+09
   2995000   2.6414123e-11  3471933.9      101785.1       1.1306124e+09  7.2635322e-05  5.1742785e-07  7.2117894e-05  2.8589896e+09
   2996000   2.6422943e-11  3471942.8      101785.16      1.1306153e+09  7.2635322e-05  5.1724422e-07  7.2118078e-05  2.8589924e+09
   2997000   2.6431762e-11  3471947.6      101790.23      1.1306152e+09  7.2635317e-05  5.171386e-07   7.2118178e-05  2.8589941e+09
   2998000   2.6440581e-11  3471941.2      101789.96      1.1306132e+09  7.2635316e-05  5.1727112e-07  7.2118045e-05  2.8589918e+09
   2999000   2.6449401e-11  3471945.2      101792.72      1.1306136e+09  7.2635308e-05  5.1718028e-07  7.2118127e-05  2.8589927e+09
   3000000   2.645822e-11   3471941.7      101798.01      1.1306106e+09  7.2635308e-05  5.1725232e-07  7.2118055e-05  2.8589916e+09
   3001000   2.646704e-11   3471939.9      101793.01      1.1306117e+09  7.2635305e-05  5.1728768e-07  7.2118017e-05  2.8589908e+09
   3002000   2.6475859e-11  3471930.3      101788.9       1.1306099e+09  7.2635317e-05  5.1749736e-07  7.211782e-05   2.8589885e+09
   3003000   2.6484678e-11  3471933        101787.41      1.1306113e+09  7.2635317e-05  5.1744336e-07  7.2117874e-05  2.8589894e+09
   3004000   2.6493498e-11  3471922.6      101780.41      1.1306101e+09  7.2635317e-05  5.1765777e-07  7.2117659e-05  2.8589851e+09
   3005000   2.6502317e-11  3471922.5      101778.05      1.1306109e+09  7.2635318e-05  5.1766081e-07  7.2117657e-05  2.8589849e+09
   3006000   2.6511137e-11  3471921.7      101774.6       1.1306118e+09  7.2635321e-05  5.1768071e-07  7.2117641e-05  2.8589843e+09
   3007000   2.6519956e-11  3471925        101773.02      1.1306134e+09  7.2635317e-05  5.176081e-07   7.2117709e-05  2.8589848e+09
   3008000   2.6528776e-11  3471918.4      101773.9       1.1306109e+09  7.2635312e-05  5.1774009e-07  7.2117572e-05  2.8589819e+09
   3009000   2.6537595e-11  3471917.5      101775.91      1.1306099e+09  7.2635314e-05  5.1776073e-07  7.2117553e-05  2.8589821e+09
   3010000   2.6546414e-11  3471913.3      101772.44      1.1306097e+09  7.2635314e-05  5.1784815e-07  7.2117466e-05  2.8589803e+09
   3011000   2.6555234e-11  3471916        101772.45      1.1306106e+09  7.2635319e-05  5.1779831e-07  7.2117521e-05  2.8589813e+09
   3012000   2.6564053e-11  3471920.7      101778.46      1.1306101e+09  7.2635318e-05  5.1769935e-07  7.2117619e-05  2.8589835e+09
   3013000   2.6572873e-11  3471920.3      101778         1.1306101e+09  7.2635322e-05  5.1771174e-07  7.211761e-05   2.8589839e+09
   3014000   2.6581692e-11  3471916.3      101777.3       1.130609e+09   7.2635318e-05  5.1778985e-07  7.2117528e-05  2.8589823e+09
   3015000   2.6590511e-11  3471920.9      101778.96      1.13061e+09    7.2635325e-05  5.1770133e-07  7.2117624e-05  2.8589847e+09
   3016000   2.6599331e-11  3471918.8      101779.88      1.130609e+09   7.2635322e-05  5.1774214e-07  7.211758e-05   2.8589832e+09
   3017000   2.660815e-11   3471919.3      101780.13      1.1306091e+09  7.2635322e-05  5.1773148e-07  7.211759e-05   2.8589832e+09
   3018000   2.661697e-11   3471928.8      101786.41      1.1306102e+09  7.2635323e-05  5.1753515e-07  7.2117787e-05  2.8589865e+09
   3019000   2.6625789e-11  3471937.3      101792.12      1.1306111e+09  7.2635323e-05  5.1735804e-07  7.2117965e-05  2.8589895e+09
   3020000   2.6634608e-11  3471936.7      101793.83      1.1306104e+09  7.2635323e-05  5.1737193e-07  7.2117951e-05  2.8589891e+09
   3021000   2.6643428e-11  3471934.6      101794.16      1.1306095e+09  7.2635325e-05  5.1741768e-07  7.2117907e-05  2.8589885e+09
   3022000   2.6652247e-11  3471931.5      101788.57      1.1306104e+09  7.2635325e-05  5.1748024e-07  7.2117844e-05  2.858987e+09 
   3023000   2.6661067e-11  3471929        101787.91      1.1306098e+09  7.2635328e-05  5.1753563e-07  7.2117793e-05  2.8589865e+09
   3024000   2.6669886e-11  3471926.8      101788.2       1.1306089e+09  7.2635325e-05  5.1757839e-07  7.2117747e-05  2.8589859e+09
   3025000   2.6678705e-11  3471931.9      101789.39      1.1306102e+09  7.2635323e-05  5.174705e-07   7.2117853e-05  2.8589881e+09
   3026000   2.6687525e-11  3471923.8      101793.77      1.130606e+09   7.2635319e-05  5.1763628e-07  7.2117683e-05  2.8589844e+09
   3027000   2.6696344e-11  3471944.3      101798.02      1.1306115e+09  7.263533e-05   5.1721964e-07  7.2118111e-05  2.8589929e+09
   3028000   2.6705164e-11  3471947.9      101803.18      1.130611e+09   7.2635329e-05  5.1714345e-07  7.2118185e-05  2.858994e+09 
   3029000   2.6713983e-11  3471943        101804.77      1.1306088e+09  7.2635332e-05  5.1724823e-07  7.2118084e-05  2.8589924e+09
   3030000   2.6722802e-11  3471940        101801.18      1.130609e+09   7.2635339e-05  5.1731935e-07  7.211802e-05   2.8589918e+09
   3031000   2.6731622e-11  3471947.7      101805.35      1.1306102e+09  7.2635346e-05  5.1716518e-07  7.2118181e-05  2.8589957e+09
   3032000   2.6740441e-11  3471944.8      101808.96      1.130608e+09   7.263534e-05   5.1722027e-07  7.211812e-05   2.8589947e+09
   3033000   2.6749261e-11  3471941.7      101806.84      1.1306077e+09  7.2635342e-05  5.1728717e-07  7.2118055e-05  2.8589938e+09
   3034000   2.675808e-11   3471938.2      101806.19      1.1306067e+09  7.2635333e-05  5.173496e-07   7.2117984e-05  2.8589916e+09
   3035000   2.67669e-11    3471940.1      101807.59      1.1306069e+09  7.263533e-05   5.1730753e-07  7.2118022e-05  2.8589918e+09
   3036000   2.6775719e-11  3471934.3      101804.26      1.1306061e+09  7.263533e-05   5.1742823e-07  7.2117902e-05  2.8589895e+09
   3037000   2.6784538e-11  3471929        101800.12      1.1306057e+09  7.2635331e-05  5.1753912e-07  7.2117792e-05  2.8589871e+09
   3038000   2.6793358e-11  3471929.5      101797.78      1.1306066e+09  7.263533e-05   5.1752833e-07  7.2117801e-05  2.8589868e+09
   3039000   2.6802177e-11  3471939.9      101797.45      1.1306102e+09  7.2635331e-05  5.1731421e-07  7.2118017e-05  2.8589899e+09
   3040000   2.6810997e-11  3471941.1      101800.61      1.1306096e+09  7.2635335e-05  5.1729136e-07  7.2118044e-05  2.8589905e+09
   3041000   2.6819816e-11  3471942.4      101805.65      1.1306083e+09  7.2635333e-05  5.1726154e-07  7.2118071e-05  2.8589918e+09
   3042000   2.6828635e-11  3471938.9      101807.73      1.1306064e+09  7.2635338e-05  5.1734146e-07  7.2117996e-05  2.8589922e+09
   3043000   2.6837455e-11  3471937.7      101809.75      1.1306054e+09  7.2635342e-05  5.173703e-07   7.2117972e-05  2.8589927e+09
   3044000   2.6846274e-11  3471943.8      101812.4       1.1306065e+09  7.2635336e-05  5.1723659e-07  7.21181e-05    2.8589947e+09
   3045000   2.6855094e-11  3471943.3      101809.31      1.1306074e+09  7.2635332e-05  5.1724272e-07  7.2118089e-05  2.8589936e+09
   3046000   2.6863913e-11  3471941        101806.63      1.1306075e+09  7.2635329e-05  5.1728863e-07  7.211804e-05   2.858992e+09 
   3047000   2.6872732e-11  3471936.1      101804.55      1.1306066e+09  7.2635326e-05  5.173864e-07   7.2117939e-05  2.8589893e+09
   3048000   2.6881552e-11  3471934.2      101797.24      1.1306084e+09  7.263533e-05   5.1742943e-07  7.2117901e-05  2.8589877e+09
   3049000   2.6890371e-11  3471927.6      101792.33      1.1306078e+09  7.2635331e-05  5.1756735e-07  7.2117763e-05  2.8589845e+09
   3050000   2.6899191e-11  3471929.9      101788.71      1.1306098e+09  7.2635333e-05  5.1752359e-07  7.211781e-05   2.8589865e+09
   3051000   2.690801e-11   3471918.3      101787.34      1.1306064e+09  7.2635338e-05  5.1776897e-07  7.2117569e-05  2.8589835e+09
   3052000   2.6916829e-11  3471914.5      101786.66      1.1306053e+09  7.2635336e-05  5.1784396e-07  7.2117492e-05  2.8589828e+09
   3053000   2.6925649e-11  3471904.6      101785.96      1.1306022e+09  7.2635338e-05  5.18053e-07    7.2117285e-05  2.8589793e+09
   3054000   2.6934468e-11  3471918.3      101786.73      1.1306066e+09  7.2635333e-05  5.1776413e-07  7.2117569e-05  2.858984e+09 
   3055000   2.6943288e-11  3471928.3      101790.51      1.1306086e+09  7.2635328e-05  5.1755118e-07  7.2117777e-05  2.858987e+09 
   3056000   2.6952107e-11  3471925.9      101793.42      1.1306069e+09  7.2635329e-05  5.1760123e-07  7.2117727e-05  2.8589861e+09
   3057000   2.6960926e-11  3471930.4      101797.83      1.1306069e+09  7.2635322e-05  5.1750131e-07  7.2117821e-05  2.8589874e+09
   3058000   2.6969746e-11  3471930.3      101804.16      1.1306048e+09  7.2635329e-05  5.1750906e-07  7.211782e-05   2.8589877e+09
   3059000   2.6978565e-11  3471936.1      101808.48      1.1306053e+09  7.2635329e-05  5.1738974e-07  7.2117939e-05  2.8589899e+09
   3060000   2.6987385e-11  3471936.2      101806.88      1.1306058e+09  7.2635333e-05  5.1739123e-07  7.2117942e-05  2.8589907e+09
   3061000   2.6996204e-11  3471937.7      101813.54      1.1306041e+09  7.263534e-05   5.1736892e-07  7.2117972e-05  2.858992e+09 
   3062000   2.7005023e-11  3471943.9      101814.63      1.1306058e+09  7.2635335e-05  5.1723478e-07  7.21181e-05    2.8589939e+09
   3063000   2.7013843e-11  3471936.7      101812.75      1.130604e+09   7.2635329e-05  5.1737636e-07  7.2117952e-05  2.8589907e+09
   3064000   2.7022662e-11  3471940        101812.87      1.1306051e+09  7.2635323e-05  5.1730338e-07  7.211802e-05   2.8589909e+09
   3065000   2.7031482e-11  3471939.1      101815.35      1.130604e+09   7.2635326e-05  5.1732321e-07  7.2118002e-05  2.8589908e+09
   3066000   2.7040301e-11  3471943.8      101814.91      1.1306057e+09  7.2635325e-05  5.1722579e-07  7.2118099e-05  2.8589925e+09
   3067000   2.7049121e-11  3471934.4      101812.59      1.1306033e+09  7.2635329e-05  5.1742568e-07  7.2117903e-05  2.8589895e+09
   3068000   2.705794e-11   3471928.4      101807.83      1.1306029e+09  7.2635326e-05  5.1754623e-07  7.211778e-05   2.8589872e+09
   3069000   2.7066759e-11  3471925.9      101807.62      1.1306021e+09  7.2635331e-05  5.1760318e-07  7.2117728e-05  2.8589864e+09
   3070000   2.7075579e-11  3471933.2      101807.72      1.1306046e+09  7.2635336e-05  5.1745598e-07  7.211788e-05   2.8589889e+09
   3071000   2.7084398e-11  3471937.8      101814.09      1.1306039e+09  7.2635331e-05  5.1735694e-07  7.2117974e-05  2.8589908e+09
   3072000   2.7093218e-11  3471935.3      101815.4       1.1306027e+09  7.263533e-05   5.174066e-07   7.2117923e-05  2.8589904e+09
   3073000   2.7102037e-11  3471935.2      101814.23      1.130603e+09   7.2635328e-05  5.174074e-07   7.211792e-05   2.8589899e+09
   3074000   2.7110856e-11  3471937.6      101816.18      1.1306032e+09  7.2635319e-05  5.1734916e-07  7.211797e-05   2.8589893e+09
   3075000   2.7119676e-11  3471942.2      101816.59      1.1306046e+09  7.2635314e-05  5.1724852e-07  7.2118066e-05  2.8589899e+09
   3076000   2.7128495e-11  3471944.9      101818.88      1.1306047e+09  7.263531e-05   5.17187e-07    7.2118123e-05  2.8589902e+09
   3077000   2.7137315e-11  3471949.5      101823.37      1.1306048e+09  7.2635308e-05  5.1708986e-07  7.2118218e-05  2.8589917e+09
   3078000   2.7146134e-11  3471944.3      101821.09      1.1306038e+09  7.2635305e-05  5.1719615e-07  7.2118109e-05  2.8589898e+09
   3079000   2.7154953e-11  3471937.8      101821.03      1.1306016e+09  7.263531e-05   5.1733445e-07  7.2117975e-05  2.8589881e+09
   3080000   2.7163773e-11  3471938.2      101820.43      1.130602e+09   7.2635314e-05  5.1733077e-07  7.2117983e-05  2.8589891e+09
   3081000   2.7172592e-11  3471939.5      101818.59      1.130603e+09   7.2635315e-05  5.1730416e-07  7.2118011e-05  2.8589901e+09
   3082000   2.7181412e-11  3471942.6      101825.12      1.1306019e+09  7.2635312e-05  5.1723792e-07  7.2118074e-05  2.8589912e+09
   3083000   2.7190231e-11  3471945.8      101822.97      1.1306037e+09  7.2635316e-05  5.1717534e-07  7.211814e-05   2.8589923e+09
   3084000   2.719905e-11   3471939.9      101827.37      1.1306002e+09  7.2635337e-05  5.1731927e-07  7.2118018e-05  2.8589911e+09
   3085000   2.720787e-11   3471932.8      101825.77      1.1305984e+09  7.2635342e-05  5.1747217e-07  7.211787e-05   2.8589892e+09
   3086000   2.7216689e-11  3471939.2      101828.65      1.1305996e+09  7.2635344e-05  5.1734041e-07  7.2118004e-05  2.8589922e+09
   3087000   2.7225509e-11  3471939.8      101821.23      1.1306022e+09  7.2635345e-05  5.1732774e-07  7.2118017e-05  2.8589921e+09
   3088000   2.7234328e-11  3471927        101817.54      1.1305992e+09  7.2635348e-05  5.175968e-07   7.2117751e-05  2.8589871e+09
   3089000   2.7243147e-11  3471940.7      101823.89      1.1306016e+09  7.2635333e-05  5.1729865e-07  7.2118035e-05  2.8589912e+09
   3090000   2.7251967e-11  3471941.6      101823.65      1.130602e+09   7.2635326e-05  5.1727202e-07  7.2118054e-05  2.8589907e+09
   3091000   2.7260786e-11  3471938.2      101823.56      1.1306009e+09  7.2635329e-05  5.1734661e-07  7.2117982e-05  2.85899e+09  
   3092000   2.7269606e-11  3471939        101823.25      1.1306013e+09  7.2635336e-05  5.1733641e-07  7.2118e-05     2.8589914e+09
   3093000   2.7278425e-11  3471930.7      101820.48      1.1305994e+09  7.2635342e-05  5.1751475e-07  7.2117827e-05  2.8589891e+09
   3094000   2.7287245e-11  3471925.8      101818.8       1.1305983e+09  7.2635346e-05  5.1762112e-07  7.2117725e-05  2.8589877e+09
   3095000   2.7296064e-11  3471931.3      101821.66      1.1305992e+09  7.2635334e-05  5.1749566e-07  7.2117839e-05  2.8589895e+09
   3096000   2.7304883e-11  3471926.2      101824.36      1.1305966e+09  7.2635337e-05  5.1760428e-07  7.2117733e-05  2.8589882e+09
   3097000   2.7313703e-11  3471930.7      101823.12      1.1305986e+09  7.2635338e-05  5.1751038e-07  7.2117828e-05  2.8589895e+09
   3098000   2.7322522e-11  3471923.5      101820.06      1.1305972e+09  7.2635332e-05  5.1765404e-07  7.2117678e-05  2.8589862e+09
   3099000   2.7331342e-11  3471925        101818.62      1.1305981e+09  7.2635338e-05  5.1762899e-07  7.2117709e-05  2.8589869e+09
   3100000   2.7340161e-11  3471925.4      101817.82      1.1305985e+09  7.2635326e-05  5.1760949e-07  7.2117717e-05  2.8589853e+09
   3101000   2.734898e-11   3471924.4      101819.56      1.1305976e+09  7.2635332e-05  5.1763531e-07  7.2117697e-05  2.8589847e+09
   3102000   2.73578e-11    3471922.1      101816.62      1.1305978e+09  7.2635319e-05  5.1767082e-07  7.2117649e-05  2.8589826e+09
   3103000   2.7366619e-11  3471935.4      101818.42      1.1306017e+09  7.2635325e-05  5.1740075e-07  7.2117924e-05  2.8589879e+09
   3104000   2.7375439e-11  3471936.3      101823.15      1.1306004e+09  7.2635328e-05  5.1738514e-07  7.2117943e-05  2.8589882e+09
   3105000   2.7384258e-11  3471935.3      101823.31      1.1306e+09     7.2635334e-05  5.1741101e-07  7.2117923e-05  2.8589884e+09
   3106000   2.7393077e-11  3471937.8      101827.45      1.1305995e+09  7.2635331e-05  5.1735547e-07  7.2117976e-05  2.8589894e+09
   3107000   2.7401897e-11  3471940.4      101830.53      1.1305993e+09  7.2635337e-05  5.1730847e-07  7.2118029e-05  2.8589907e+09
   3108000   2.7410716e-11  3471931.3      101828.91      1.1305968e+09  7.2635346e-05  5.1750606e-07  7.211784e-05   2.8589883e+09
   3109000   2.7419536e-11  3471939.9      101830.69      1.1305991e+09  7.2635342e-05  5.1732308e-07  7.2118019e-05  2.8589913e+09
   3110000   2.7428355e-11  3471938.5      101829.35      1.1305991e+09  7.2635337e-05  5.1734688e-07  7.211799e-05   2.8589896e+09
   3111000   2.7437174e-11  3471941.7      101831.41      1.1305995e+09  7.2635343e-05  5.1728724e-07  7.2118055e-05  2.8589904e+09
   3112000   2.7445994e-11  3471941.9      101833.8       1.1305987e+09  7.2635347e-05  5.172862e-07   7.2118061e-05  2.858991e+09 
   3113000   2.7454813e-11  3471934.8      101832.64      1.1305968e+09  7.263535e-05   5.1743727e-07  7.2117913e-05  2.8589893e+09
   3114000   2.7463633e-11  3471939.1      101832.16      1.1305983e+09  7.2635348e-05  5.173474e-07   7.2118001e-05  2.858991e+09 
   3115000   2.7472452e-11  3471939.3      101832.63      1.1305983e+09  7.2635344e-05  5.1733802e-07  7.2118006e-05  2.8589904e+09
   3116000   2.7481271e-11  3471929.2      101827.34      1.1305966e+09  7.2635338e-05  5.1754295e-07  7.2117795e-05  2.8589856e+09
   3117000   2.7490091e-11  3471934.9      101821.58      1.1306005e+09  7.2635337e-05  5.1742263e-07  7.2117914e-05  2.8589875e+09
   3118000   2.749891e-11   3471932.3      101823.97      1.1305988e+09  7.263534e-05   5.174796e-07   7.211786e-05   2.8589872e+09
   3119000   2.750773e-11   3471933.8      101823.82      1.1305994e+09  7.2635334e-05  5.1744198e-07  7.2117893e-05  2.8589874e+09
   3120000   2.7516549e-11  3471935.4      101826.54      1.130599e+09   7.2635331e-05  5.1740696e-07  7.2117924e-05  2.8589878e+09
   3121000   2.7525368e-11  3471937.8      101832.21      1.1305979e+09  7.2635331e-05  5.173564e-07   7.2117974e-05  2.8589892e+09
   3122000   2.7534188e-11  3471939        101834.39      1.1305976e+09  7.2635332e-05  5.1733245e-07  7.2118e-05     2.85899e+09  
   3123000   2.7543007e-11  3471938.7      101838.07      1.1305962e+09  7.263533e-05   5.173367e-07   7.2117993e-05  2.8589898e+09
   3124000   2.7551827e-11  3471941.2      101839.36      1.1305967e+09  7.2635332e-05  5.1728528e-07  7.2118046e-05  2.8589902e+09
   3125000   2.7560646e-11  3471945.7      101839.77      1.130598e+09   7.2635329e-05  5.1719127e-07  7.2118138e-05  2.8589908e+09
   3126000   2.7569466e-11  3471946.9      101838.09      1.130599e+09   7.263533e-05   5.1716597e-07  7.2118164e-05  2.8589905e+09
   3127000   2.7578285e-11  3471952        101839.42      1.1306002e+09  7.2635335e-05  5.1706573e-07  7.2118269e-05  2.8589928e+09
   3128000   2.7587104e-11  3471938.3      101833.81      1.1305975e+09  7.2635341e-05  5.1735576e-07  7.2117986e-05  2.8589892e+09
   3129000   2.7595924e-11  3471940.7      101840.92      1.130596e+09   7.2635344e-05  5.1730901e-07  7.2118035e-05  2.8589926e+09
   3130000   2.7604743e-11  3471929.6      101835.22      1.1305941e+09  7.2635351e-05  5.1754552e-07  7.2117805e-05  2.8589899e+09
   3131000   2.7613563e-11  3471934.8      101834.62      1.1305961e+09  7.2635351e-05  5.1743957e-07  7.2117912e-05  2.8589917e+09
   3132000   2.7622382e-11  3471931.9      101836.45      1.1305945e+09  7.263534e-05   5.1748878e-07  7.2117851e-05  2.8589889e+09
   3133000   2.7631201e-11  3471938.3      101842.53      1.1305946e+09  7.2635344e-05  5.1735873e-07  7.2117986e-05  2.858991e+09 
   3134000   2.7640021e-11  3471932.2      101836.62      1.1305945e+09  7.2635332e-05  5.1747396e-07  7.2117858e-05  2.8589877e+09
   3135000   2.764884e-11   3471930.1      101831.73      1.1305955e+09  7.2635325e-05  5.1751103e-07  7.2117814e-05  2.8589863e+09
   3136000   2.765766e-11   3471933        101835.49      1.1305952e+09  7.2635328e-05  5.1745421e-07  7.2117874e-05  2.8589877e+09
   3137000   2.7666479e-11  3471932.1      101838.48      1.1305939e+09  7.2635338e-05  5.1748171e-07  7.2117857e-05  2.858989e+09 
   3138000   2.7675298e-11  3471923.7      101834.1       1.1305925e+09  7.2635342e-05  5.1765993e-07  7.2117682e-05  2.8589865e+09
   3139000   2.7684118e-11  3471927.1      101830.08      1.130595e+09   7.263535e-05   5.175986e-07   7.2117752e-05  2.858988e+09 
   3140000   2.7692937e-11  3471927.3      101825.34      1.1305967e+09  7.2635343e-05  5.1758688e-07  7.2117756e-05  2.8589875e+09
   3141000   2.7701757e-11  3471929.9      101832.61      1.1305951e+09  7.2635341e-05  5.175299e-07   7.2117811e-05  2.8589883e+09
   3142000   2.7710576e-11  3471932.8      101834.04      1.1305956e+09  7.2635334e-05  5.1746452e-07  7.211787e-05   2.8589883e+09
   3143000   2.7719395e-11  3471935.4      101833.8       1.1305965e+09  7.263533e-05   5.1740643e-07  7.2117924e-05  2.8589889e+09
   3144000   2.7728215e-11  3471932.2      101832.69      1.1305958e+09  7.263532e-05   5.1746242e-07  7.2117857e-05  2.8589873e+09
   3145000   2.7737034e-11  3471926.1      101828.65      1.1305952e+09  7.2635321e-05  5.175895e-07   7.2117731e-05  2.8589848e+09
   3146000   2.7745854e-11  3471925.5      101830.49      1.1305943e+09  7.2635337e-05  5.1761831e-07  7.2117718e-05  2.8589856e+09
   3147000   2.7754673e-11  3471926        101830.07      1.1305947e+09  7.2635339e-05  5.1760844e-07  7.211773e-05   2.8589864e+09
   3148000   2.7763492e-11  3471924.3      101832.19      1.1305934e+09  7.2635347e-05  5.1765288e-07  7.2117694e-05  2.8589868e+09
   3149000   2.7772312e-11  3471928.5      101834.47      1.130594e+09   7.2635345e-05  5.1756361e-07  7.2117781e-05  2.8589884e+09
   3150000   2.7781131e-11  3471924.5      101837.28      1.1305917e+09  7.2635346e-05  5.1764913e-07  7.2117697e-05  2.8589868e+09
   3151000   2.7789951e-11  3471918        101832.91      1.130591e+09   7.2635349e-05  5.1778617e-07  7.2117563e-05  2.8589848e+09
   3152000   2.779877e-11   3471921.1      101833.73      1.1305918e+09  7.2635347e-05  5.1771825e-07  7.2117628e-05  2.8589865e+09
   3153000   2.780759e-11   3471909        101832.42      1.1305881e+09  7.2635349e-05  5.1797348e-07  7.2117375e-05  2.8589824e+09
   3154000   2.7816409e-11  3471919.2      101833.96      1.1305911e+09  7.2635354e-05  5.1776488e-07  7.2117589e-05  2.8589867e+09
   3155000   2.7825228e-11  3471915.4      101834.64      1.1305896e+09  7.2635354e-05  5.1784336e-07  7.211751e-05   2.8589848e+09
   3156000   2.7834048e-11  3471912.5      101825.93      1.1305915e+09  7.263535e-05   5.1790122e-07  7.2117449e-05  2.8589832e+09
   3157000   2.7842867e-11  3471913.9      101827.18      1.1305915e+09  7.2635346e-05  5.1786849e-07  7.2117477e-05  2.8589839e+09
   3158000   2.7851687e-11  3471905.2      101824.16      1.1305897e+09  7.2635346e-05  5.1804742e-07  7.2117298e-05  2.8589807e+09
   3159000   2.7860506e-11  3471909.5      101827.64      1.1305899e+09  7.2635346e-05  5.1795886e-07  7.2117387e-05  2.8589821e+09
   3160000   2.7869325e-11  3471919.5      101829.77      1.1305926e+09  7.2635348e-05  5.1775378e-07  7.2117594e-05  2.8589857e+09
   3161000   2.7878145e-11  3471914.4      101829.62      1.1305909e+09  7.2635347e-05  5.1785802e-07  7.2117489e-05  2.858984e+09 
   3162000   2.7886964e-11  3471919.1      101835.67      1.1305905e+09  7.2635343e-05  5.1775534e-07  7.2117587e-05  2.8589852e+09
   3163000   2.7895784e-11  3471923.4      101839.5       1.1305906e+09  7.263535e-05   5.1767355e-07  7.2117676e-05  2.8589868e+09
   3164000   2.7904603e-11  3471925.4      101840.64      1.1305909e+09  7.2635355e-05  5.1763842e-07  7.2117716e-05  2.8589878e+09
   3165000   2.7913422e-11  3471927.7      101847.38      1.1305894e+09  7.2635348e-05  5.1758266e-07  7.2117766e-05  2.8589887e+09
   3166000   2.7922242e-11  3471930.4      101850.15      1.1305894e+09  7.2635344e-05  5.1752357e-07  7.211782e-05   2.8589893e+09
   3167000   2.7931061e-11  3471933.6      101851.44      1.1305901e+09  7.2635347e-05  5.1745847e-07  7.2117888e-05  2.8589908e+09
   3168000   2.7939881e-11  3471936.2      101856.44      1.1305893e+09  7.2635343e-05  5.1740102e-07  7.2117942e-05  2.8589918e+09
   3169000   2.79487e-11    3471936.3      101857.51      1.1305889e+09  7.2635347e-05  5.1740444e-07  7.2117943e-05  2.8589925e+09
   3170000   2.7957519e-11  3471932.7      101859.18      1.1305871e+09  7.2635341e-05  5.1747353e-07  7.2117868e-05  2.8589903e+09
   3171000   2.7966339e-11  3471935.7      101859.47      1.1305881e+09  7.2635353e-05  5.174222e-07   7.2117931e-05  2.8589923e+09
   3172000   2.7975158e-11  3471934.4      101856.61      1.1305886e+09  7.2635347e-05  5.1744295e-07  7.2117904e-05  2.8589908e+09
   3173000   2.7983978e-11  3471928.2      101852.45      1.1305879e+09  7.2635344e-05  5.1756751e-07  7.2117776e-05  2.8589878e+09
   3174000   2.7992797e-11  3471930.2      101852.7       1.1305885e+09  7.2635341e-05  5.1752376e-07  7.2117817e-05  2.8589882e+09
   3175000   2.8001616e-11  3471932.2      101856.54      1.1305879e+09  7.2635343e-05  5.1748471e-07  7.2117858e-05  2.8589893e+09
   3176000   2.8010436e-11  3471931.5      101854.61      1.1305883e+09  7.2635349e-05  5.1750448e-07  7.2117844e-05  2.8589896e+09
   3177000   2.8019255e-11  3471929.9      101853.21      1.1305882e+09  7.2635346e-05  5.1753618e-07  7.211781e-05   2.8589884e+09
   3178000   2.8028075e-11  3471926        101852.9       1.130587e+09   7.2635352e-05  5.1762161e-07  7.211773e-05   2.8589869e+09
   3179000   2.8036894e-11  3471932        101856.51      1.1305878e+09  7.2635348e-05  5.174943e-07   7.2117854e-05  2.8589886e+09
   3180000   2.8045713e-11  3471935.4      101857.03      1.1305888e+09  7.2635341e-05  5.1741636e-07  7.2117925e-05  2.8589893e+09
   3181000   2.8054533e-11  3471928.3      101855.98      1.1305868e+09  7.2635339e-05  5.175622e-07   7.2117777e-05  2.8589864e+09
   3182000   2.8063352e-11  3471932.2      101854.95      1.1305884e+09  7.2635333e-05  5.1747414e-07  7.2117859e-05  2.8589868e+09
   3183000   2.8072172e-11  3471935.5      101859.53      1.130588e+09   7.2635338e-05  5.1741098e-07  7.2117927e-05  2.8589884e+09
   3184000   2.8080991e-11  3471936.6      101864.19      1.1305868e+09  7.2635341e-05  5.1739174e-07  7.211795e-05   2.8589897e+09
   3185000   2.8089811e-11  3471942        101868.22      1.1305873e+09  7.2635351e-05  5.1728815e-07  7.2118063e-05  2.8589934e+09
   3186000   2.809863e-11   3471946.1      101872.74      1.1305871e+09  7.263535e-05   5.1720345e-07  7.2118146e-05  2.858995e+09 
   3187000   2.8107449e-11  3471942.7      101873.12      1.1305858e+09  7.2635355e-05  5.1727917e-07  7.2118076e-05  2.858994e+09 
   3188000   2.8116269e-11  3471942.2      101869.21      1.130587e+09   7.263535e-05   5.172837e-07   7.2118066e-05  2.8589929e+09
   3189000   2.8125088e-11  3471941        101864.63      1.1305881e+09  7.2635353e-05  5.1731085e-07  7.2118042e-05  2.8589921e+09
   3190000   2.8133908e-11  3471935.3      101860.24      1.1305877e+09  7.263536e-05   5.1743724e-07  7.2117923e-05  2.8589909e+09
   3191000   2.8142727e-11  3471934.5      101862.93      1.1305865e+09  7.2635364e-05  5.174585e-07   7.2117905e-05  2.8589918e+09
   3192000   2.8151546e-11  3471934.6      101861.32      1.1305871e+09  7.2635371e-05  5.1746335e-07  7.2117908e-05  2.858993e+09 
   3193000   2.8160366e-11  3471928.1      101855.24      1.130587e+09   7.2635372e-05  5.1759811e-07  7.2117774e-05  2.8589909e+09
   3194000   2.8169185e-11  3471922        101850.47      1.1305865e+09  7.2635373e-05  5.1772699e-07  7.2117646e-05  2.8589886e+09
   3195000   2.8178005e-11  3471925.9      101855.63      1.1305861e+09  7.2635372e-05  5.1764404e-07  7.2117728e-05  2.8589902e+09
   3196000   2.8186824e-11  3471923        101854.11      1.1305856e+09  7.263536e-05   5.1769232e-07  7.2117668e-05  2.8589882e+09
   3197000   2.8195643e-11  3471926.7      101853.79      1.130587e+09   7.2635358e-05  5.1761434e-07  7.2117744e-05  2.8589892e+09
   3198000   2.8204463e-11  3471923.4      101851.99      1.1305865e+09  7.2635359e-05  5.1768356e-07  7.2117676e-05  2.858988e+09 
   3199000   2.8213282e-11  3471921.5      101851.91      1.1305858e+09  7.2635361e-05  5.1772519e-07  7.2117636e-05  2.8589873e+09
   3200000   2.8222102e-11  3471918        101852.63      1.1305844e+09  7.2635355e-05  5.1779244e-07  7.2117563e-05  2.8589854e+09
   3201000   2.8230921e-11  3471922.2      101851.4       1.1305863e+09  7.2635352e-05  5.1769991e-07  7.2117652e-05  2.8589866e+09
   3202000   2.823974e-11   3471923.1      101849.18      1.1305873e+09  7.2635353e-05  5.1768416e-07  7.2117669e-05  2.8589871e+09
   3203000   2.824856e-11   3471924.6      101850.04      1.1305875e+09  7.2635349e-05  5.1764904e-07  7.21177e-05    2.8589872e+09
   3204000   2.8257379e-11  3471923.8      101851.63      1.1305867e+09  7.2635351e-05  5.1766739e-07  7.2117683e-05  2.8589868e+09
   3205000   2.8266199e-11  3471927.7      101856.28      1.1305865e+09  7.263534e-05   5.1757506e-07  7.2117765e-05  2.8589873e+09
   3206000   2.8275018e-11  3471923.8      101857.1       1.1305849e+09  7.2635343e-05  5.1765926e-07  7.2117683e-05  2.8589859e+09
   3207000   2.8283837e-11  3471928.4      101858.75      1.1305859e+09  7.2635347e-05  5.1756692e-07  7.211778e-05   2.8589887e+09
   3208000   2.8292657e-11  3471925.8      101858.83      1.130585e+09   7.2635351e-05  5.1762537e-07  7.2117725e-05  2.8589887e+09
   3209000   2.8301476e-11  3471924.7      101860.07      1.1305842e+09  7.2635347e-05  5.1764591e-07  7.2117702e-05  2.8589885e+09
   3210000   2.8310296e-11  3471926.1      101860.75      1.1305844e+09  7.2635341e-05  5.1760845e-07  7.2117732e-05  2.8589885e+09
   3211000   2.8319115e-11  3471925.4      101862.65      1.1305835e+09  7.2635347e-05  5.1763067e-07  7.2117716e-05  2.8589888e+09
   3212000   2.8327935e-11  3471926.3      101861.01      1.1305844e+09  7.2635341e-05  5.1760666e-07  7.2117735e-05  2.858989e+09 
   3213000   2.8336754e-11  3471925.3      101862.44      1.1305836e+09  7.2635351e-05  5.1763529e-07  7.2117715e-05  2.8589898e+09
   3214000   2.8345573e-11  3471922.2      101856.74      1.1305845e+09  7.2635353e-05  5.1770245e-07  7.2117651e-05  2.8589891e+09
   3215000   2.8354393e-11  3471923.6      101858.46      1.1305844e+09  7.2635354e-05  5.1767362e-07  7.211768e-05   2.8589907e+09
   3216000   2.8363212e-11  3471912.6      101854.93      1.1305819e+09  7.2635357e-05  5.1790485e-07  7.2117452e-05  2.8589875e+09
   3217000   2.8372032e-11  3471914.9      101851         1.1305839e+09  7.2635357e-05  5.1785693e-07  7.21175e-05    2.8589882e+09
   3218000   2.8380851e-11  3471911.1      101853.6       1.1305818e+09  7.2635351e-05  5.1793011e-07  7.2117421e-05  2.8589866e+09
   3219000   2.838967e-11   3471906.7      101847.39      1.1305824e+09  7.2635345e-05  5.180165e-07   7.2117328e-05  2.858984e+09 
   3220000   2.839849e-11   3471914.5      101852.88      1.1305832e+09  7.2635347e-05  5.1785508e-07  7.2117491e-05  2.8589866e+09
   3221000   2.8407309e-11  3471922.6      101857.56      1.1305843e+09  7.2635347e-05  5.1768819e-07  7.2117658e-05  2.8589885e+09
   3222000   2.8416129e-11  3471930        101862.91      1.130585e+09   7.263535e-05   5.1753685e-07  7.2117813e-05  2.8589913e+09
   3223000   2.8424948e-11  3471929.5      101861.47      1.1305853e+09  7.2635363e-05  5.1755996e-07  7.2117803e-05  2.8589923e+09
   3224000   2.8433767e-11  3471929.1      101862.29      1.1305849e+09  7.2635362e-05  5.1756898e-07  7.2117794e-05  2.8589927e+09
   3225000   2.8442587e-11  3471921.1      101863.96      1.1305817e+09  7.2635365e-05  5.1773776e-07  7.2117627e-05  2.8589906e+09
   3226000   2.8451406e-11  3471918        101863.17      1.1305809e+09  7.2635361e-05  5.1779725e-07  7.2117563e-05  2.8589891e+09
   3227000   2.8460226e-11  3471920.6      101862.43      1.130582e+09   7.2635362e-05  5.1774496e-07  7.2117617e-05  2.8589895e+09
   3228000   2.8469045e-11  3471926.6      101864.85      1.1305832e+09  7.2635362e-05  5.1761892e-07  7.2117743e-05  2.8589911e+09
   3229000   2.8477864e-11  3471931.9      101865.57      1.1305847e+09  7.2635369e-05  5.1751734e-07  7.2117851e-05  2.8589928e+09
   3230000   2.8486684e-11  3471930.4      101864.37      1.1305847e+09  7.2635369e-05  5.1754758e-07  7.2117822e-05  2.8589924e+09
   3231000   2.8495503e-11  3471929.5      101866.34      1.1305837e+09  7.2635364e-05  5.1756095e-07  7.2117803e-05  2.8589921e+09
   3232000   2.8504323e-11  3471921.6      101860.23      1.1305831e+09  7.2635364e-05  5.1772561e-07  7.2117639e-05  2.8589892e+09
   3233000   2.8513142e-11  3471934        101862.01      1.1305866e+09  7.263537e-05   5.1747446e-07  7.2117895e-05  2.8589938e+09
   3234000   2.8521961e-11  3471932.8      101868.19      1.1305842e+09  7.263537e-05   5.1749855e-07  7.2117871e-05  2.8589938e+09
   3235000   2.8530781e-11  3471934.9      101877.33      1.1305818e+09  7.2635361e-05  5.1744645e-07  7.2117915e-05  2.8589949e+09
   3236000   2.85396e-11    3471926.8      101875.82      1.1305796e+09  7.2635363e-05  5.1761617e-07  7.2117747e-05  2.8589922e+09
   3237000   2.854842e-11   3471929.8      101874.39      1.1305811e+09  7.263537e-05   5.1756203e-07  7.2117808e-05  2.8589933e+09
   3238000   2.8557239e-11  3471926.3      101869.45      1.1305816e+09  7.2635369e-05  5.1763434e-07  7.2117735e-05  2.8589912e+09
   3239000   2.8566058e-11  3471925.7      101868.66      1.1305816e+09  7.2635368e-05  5.176451e-07   7.2117723e-05  2.8589912e+09
   3240000   2.8574878e-11  3471918.6      101868.07      1.1305795e+09  7.2635375e-05  5.1779898e-07  7.2117576e-05  2.8589895e+09
   3241000   2.8583697e-11  3471926.6      101873.68      1.1305803e+09  7.2635372e-05  5.1762999e-07  7.2117742e-05  2.8589922e+09
   3242000   2.8592517e-11  3471923.8      101883.22      1.1305762e+09  7.2635283e-05  5.1759788e-07  7.2117685e-05  2.8589891e+09
   3243000   2.8601336e-11  3471923.2      101885.77      1.1305751e+09  7.2635271e-05  5.1759909e-07  7.2117672e-05  2.8589882e+09
   3244000   2.8610156e-11  3471920        101884.45      1.1305745e+09  7.263528e-05   5.1767443e-07  7.2117605e-05  2.8589878e+09
   3245000   2.8618975e-11  3471930.3      101888.85      1.1305764e+09  7.263528e-05   5.1746217e-07  7.2117818e-05  2.8589915e+09
   3246000   2.8627794e-11  3471929.4      101887.7       1.1305765e+09  7.2635287e-05  5.1748683e-07  7.21178e-05    2.8589919e+09
   3247000   2.8636614e-11  3471929.3      101887.9       1.1305764e+09  7.2635283e-05  5.1748508e-07  7.2117798e-05  2.8589914e+09
   3248000   2.8645433e-11  3471930.8      101886.4       1.1305774e+09  7.2635282e-05  5.1745296e-07  7.2117829e-05  2.8589915e+09
   3249000   2.8654253e-11  3471927.4      101888.23      1.1305757e+09  7.2635276e-05  5.1751671e-07  7.2117759e-05  2.8589901e+09
   3250000   2.8663072e-11  3471927.2      101889.92      1.130575e+09   7.2635274e-05  5.1751895e-07  7.2117755e-05  2.8589903e+09
   3251000   2.8671891e-11  3471933.8      101896.42      1.1305751e+09  7.2635277e-05  5.1738442e-07  7.2117892e-05  2.8589933e+09
   3252000   2.8680711e-11  3471935.3      101897.19      1.1305753e+09  7.2635283e-05  5.1735928e-07  7.2117924e-05  2.8589941e+09
   3253000   2.868953e-11   3471942.1      101898.69      1.1305771e+09  7.2635275e-05  5.1721127e-07  7.2118063e-05  2.8589952e+09
   3254000   2.869835e-11   3471937.4      101895.93      1.1305764e+09  7.2635278e-05  5.1731231e-07  7.2117965e-05  2.8589932e+09
   3255000   2.8707169e-11  3471938.5      101899.38      1.1305757e+09  7.2635263e-05  5.1727298e-07  7.211799e-05   2.8589922e+09
   3256000   2.8715988e-11  3471946.3      101898.38      1.1305786e+09  7.263526e-05   5.1710974e-07  7.211815e-05   2.8589934e+09
   3257000   2.8724808e-11  3471944        101896.65      1.1305784e+09  7.2635255e-05  5.1715191e-07  7.2118103e-05  2.8589911e+09
   3258000   2.8733627e-11  3471942.6      101896.96      1.1305778e+09  7.2635244e-05  5.1717034e-07  7.2118074e-05  2.8589905e+09
   3259000   2.8742447e-11  3471935.4      101897.34      1.1305753e+09  7.2635245e-05  5.1732156e-07  7.2117924e-05  2.858989e+09 
   3260000   2.8751266e-11  3471931.7      101895.94      1.1305745e+09  7.2635252e-05  5.1740428e-07  7.2117847e-05  2.8589884e+09
   3261000   2.8760085e-11  3471930.3      101893.31      1.1305749e+09  7.2635262e-05  5.1744307e-07  7.2117819e-05  2.8589888e+09
   3262000   2.8768905e-11  3471930.9      101891.38      1.1305758e+09  7.2635258e-05  5.1742608e-07  7.2117832e-05  2.8589887e+09
   3263000   2.8777724e-11  3471925.8      101891.13      1.1305742e+09  7.2635256e-05  5.1753032e-07  7.2117726e-05  2.8589871e+09
   3264000   2.8786544e-11  3471920.5      101889.72      1.1305729e+09  7.2635255e-05  5.1763968e-07  7.2117615e-05  2.8589853e+09
   3265000   2.8795363e-11  3471922.1      101889.64      1.1305734e+09  7.2635257e-05  5.1760921e-07  7.2117648e-05  2.8589863e+09
   3266000   2.8804182e-11  3471917.7      101888.83      1.1305722e+09  7.2635256e-05  5.1769827e-07  7.2117558e-05  2.8589843e+09
   3267000   2.8813002e-11  3471923.8      101888.12      1.1305745e+09  7.2635252e-05  5.1756898e-07  7.2117683e-05  2.858986e+09 
   3268000   2.8821821e-11  3471924.5      101891.73      1.1305735e+09  7.2635252e-05  5.17553e-07    7.2117699e-05  2.8589863e+09
   3269000   2.8830641e-11  3471932.8      101895.8       1.130575e+09   7.2635254e-05  5.1738319e-07  7.2117871e-05  2.8589893e+09
   3270000   2.883946e-11   3471927.7      101895.06      1.1305735e+09  7.2635257e-05  5.1749184e-07  7.2117765e-05  2.8589875e+09
   3271000   2.884828e-11   3471917.8      101891.49      1.1305713e+09  7.263525e-05   5.176921e-07   7.2117558e-05  2.8589834e+09
   3272000   2.8857099e-11  3471919.1      101888.91      1.1305727e+09  7.2635248e-05  5.1766176e-07  7.2117586e-05  2.8589831e+09
   3273000   2.8865918e-11  3471930.3      101891.5       1.1305755e+09  7.2635253e-05  5.1743427e-07  7.2117819e-05  2.858987e+09 
   3274000   2.8874738e-11  3471918.7      101888.18      1.1305728e+09  7.2635253e-05  5.1767564e-07  7.2117577e-05  2.8589833e+09
   3275000   2.8883557e-11  3471916.8      101889.37      1.1305717e+09  7.2635253e-05  5.1771521e-07  7.2117538e-05  2.8589838e+09
   3276000   2.8892377e-11  3471920.3      101896.62      1.1305705e+09  7.2635276e-05  5.1766448e-07  7.2117611e-05  2.858986e+09 
   3277000   2.8901196e-11  3471920.6      101893.38      1.1305717e+09  7.2635274e-05  5.1765698e-07  7.2117617e-05  2.8589854e+09
   3278000   2.8910015e-11  3471925.8      101899.17      1.1305715e+09  7.2635267e-05  5.1754141e-07  7.2117726e-05  2.8589866e+09
   3279000   2.8918835e-11  3471925.5      101903.76      1.1305699e+09  7.2635267e-05  5.1754659e-07  7.211772e-05   2.8589856e+09
   3280000   2.8927654e-11  3471931.7      101904.81      1.1305716e+09  7.2635275e-05  5.1742697e-07  7.2117848e-05  2.858988e+09 
   3281000   2.8936474e-11  3471929.2      101907.84      1.1305697e+09  7.2635284e-05  5.1748688e-07  7.2117797e-05  2.8589885e+09
   3282000   2.8945293e-11  3471935.5      101909.28      1.1305713e+09  7.2635287e-05  5.1736037e-07  7.2117926e-05  2.858992e+09 
   3283000   2.8954112e-11  3471932.4      101908.63      1.1305705e+09  7.2635301e-05  5.1743822e-07  7.2117862e-05  2.8589922e+09
   3284000   2.8962932e-11  3471930.8      101909.15      1.1305698e+09  7.2635296e-05  5.1746683e-07  7.2117829e-05  2.8589913e+09
   3285000   2.8971751e-11  3471928.5      101911.37      1.1305683e+09  7.2635295e-05  5.1751342e-07  7.2117781e-05  2.8589902e+09
   3286000   2.8980571e-11  3471930.6      101912.55      1.1305686e+09  7.2635291e-05  5.1746671e-07  7.2117824e-05  2.8589909e+09
   3287000   2.898939e-11   3471931.7      101913.89      1.1305685e+09  7.2635289e-05  5.1744177e-07  7.2117847e-05  2.8589907e+09
   3288000   2.8998209e-11  3471948.2      101919.19      1.1305723e+09  7.2635278e-05  5.1708653e-07  7.2118192e-05  2.8589949e+09
   3289000   2.9007029e-11  3471949.4      101918.16      1.130573e+09   7.2635283e-05  5.1706773e-07  7.2118216e-05  2.8589946e+09
   3290000   2.9015848e-11  3471949.6      101922.01      1.1305718e+09  7.2635274e-05  5.1705463e-07  7.2118219e-05  2.858994e+09 
   3291000   2.9024668e-11  3471957.1      101923.89      1.1305737e+09  7.2635273e-05  5.1689727e-07  7.2118376e-05  2.8589968e+09
   3292000   2.9033487e-11  3471945.8      101916.79      1.1305723e+09  7.2635276e-05  5.1713482e-07  7.2118141e-05  2.8589926e+09
   3293000   2.9042306e-11  3471935.8      101913.94      1.1305699e+09  7.2635275e-05  5.1734103e-07  7.2117934e-05  2.8589895e+09
   3294000   2.9051126e-11  3471938.6      101915.77      1.1305702e+09  7.2635278e-05  5.1728614e-07  7.2117992e-05  2.8589914e+09
   3295000   2.9059945e-11  3471944.6      101920.26      1.1305707e+09  7.2635287e-05  5.1717135e-07  7.2118116e-05  2.8589944e+09
   3296000   2.9068765e-11  3471946.5      101926.86      1.1305691e+09  7.2635272e-05  5.1711709e-07  7.2118155e-05  2.8589934e+09
   3297000   2.9077584e-11  3471950        101925.52      1.1305708e+09  7.2635271e-05  5.1704386e-07  7.2118227e-05  2.8589941e+09
   3298000   2.9086403e-11  3471935.1      101917.78      1.1305684e+09  7.2635274e-05  5.1735481e-07  7.2117919e-05  2.8589882e+09
   3299000   2.9095223e-11  3471935.8      101916.33      1.1305691e+09  7.263528e-05   5.1734614e-07  7.2117933e-05  2.8589893e+09
   3300000   2.9104042e-11  3471933.5      101914.38      1.130569e+09   7.2635279e-05  5.1739309e-07  7.2117886e-05  2.8589884e+09
   3301000   2.9112862e-11  3471931.6      101914.61      1.1305682e+09  7.2635278e-05  5.1743333e-07  7.2117845e-05  2.8589882e+09
   3302000   2.9121681e-11  3471930.5      101913.76      1.1305682e+09  7.2635275e-05  5.1745167e-07  7.2117824e-05  2.8589882e+09
   3303000   2.9130501e-11  3471926.4      101908.72      1.1305685e+09  7.2635277e-05  5.1753857e-07  7.2117738e-05  2.8589866e+09
   3304000   2.913932e-11   3471923.6      101906.43      1.1305683e+09  7.2635273e-05  5.175937e-07   7.2117679e-05  2.8589848e+09
   3305000   2.9148139e-11  3471925.4      101908.49      1.1305682e+09  7.2635265e-05  5.1754723e-07  7.2117718e-05  2.8589844e+09
   3306000   2.9156959e-11  3471920.6      101924.1       1.1305614e+09  7.2635311e-05  5.1769359e-07  7.2117618e-05  2.8589838e+09
   3307000   2.9165778e-11  3471927        101927.69      1.1305623e+09  7.2635306e-05  5.1755608e-07  7.211775e-05   2.8589862e+09
   3308000   2.9174598e-11  3471937.9      101930.77      1.130565e+09   7.2635299e-05  5.1732176e-07  7.2117977e-05  2.8589901e+09
   3309000   2.9183417e-11  3471923.1      101926.97      1.1305613e+09  7.263529e-05   5.176216e-07   7.2117668e-05  2.8589842e+09
   3310000   2.9192236e-11  3471920.7      101927.47      1.1305603e+09  7.2635291e-05  5.176724e-07   7.2117619e-05  2.8589837e+09
   3311000   2.9201056e-11  3471923.9      101927.33      1.1305614e+09  7.2635289e-05  5.1760314e-07  7.2117686e-05  2.8589844e+09
   3312000   2.9209875e-11  3471935.7      101931.37      1.130564e+09   7.2635288e-05  5.173573e-07   7.2117931e-05  2.8589882e+09
   3313000   2.9218695e-11  3471928.7      101932.36      1.1305613e+09  7.2635291e-05  5.1750609e-07  7.2117785e-05  2.8589855e+09
   3314000   2.9227514e-11  3471930.8      101935.6       1.130561e+09   7.2635282e-05  5.1745225e-07  7.211783e-05   2.8589861e+09
   3315000   2.9236333e-11  3471929.4      101933.64      1.1305611e+09  7.2635289e-05  5.1748896e-07  7.21178e-05    2.8589868e+09
   3316000   2.9245153e-11  3471927        101930.54      1.1305614e+09  7.2635293e-05  5.1754226e-07  7.2117751e-05  2.8589861e+09
   3317000   2.9253972e-11  3471934.2      101937.32      1.1305615e+09  7.2635295e-05  5.1739636e-07  7.2117899e-05  2.8589892e+09
   3318000   2.9262792e-11  3471926        101935.8       1.1305593e+09  7.2635288e-05  5.1755887e-07  7.2117729e-05  2.8589855e+09
   3319000   2.9271611e-11  3471925.3      101933.73      1.1305598e+09  7.2635287e-05  5.1757196e-07  7.2117715e-05  2.8589846e+09
   3320000   2.928043e-11   3471935.4      101932.98      1.1305634e+09  7.2635288e-05  5.173618e-07   7.2117926e-05  2.8589881e+09
   3321000   2.928925e-11   3471936.4      101932.72      1.1305638e+09  7.2635271e-05  5.1732527e-07  7.2117945e-05  2.8589867e+09
   3322000   2.9298069e-11  3471926.3      101932.09      1.1305606e+09  7.2635276e-05  5.1753962e-07  7.2117736e-05  2.8589833e+09
   3323000   2.9306889e-11  3471934.8      101929.07      1.1305645e+09  7.263527e-05   5.173566e-07   7.2117913e-05  2.8589852e+09
   3324000   2.9315708e-11  3471923.2      101920.73      1.1305634e+09  7.2635275e-05  5.1760338e-07  7.2117672e-05  2.8589811e+09
   3325000   2.9324527e-11  3471925.2      101923.17      1.1305632e+09  7.2635273e-05  5.1756094e-07  7.2117712e-05  2.8589826e+09
   3326000   2.9333347e-11  3471923.3      101923.77      1.1305624e+09  7.2635277e-05  5.1760339e-07  7.2117673e-05  2.8589826e+09
   3327000   2.9342166e-11  3471923.7      101927.13      1.1305614e+09  7.2635279e-05  5.1759788e-07  7.2117681e-05  2.8589836e+09
   3328000   2.9350986e-11  3471919.6      101924.6       1.1305609e+09  7.2635279e-05  5.176825e-07   7.2117596e-05  2.8589824e+09
   3329000   2.9359805e-11  3471917.1      101920.54      1.1305614e+09  7.2635287e-05  5.1774324e-07  7.2117544e-05  2.8589822e+09
   3330000   2.9368625e-11  3471921.8      101918.91      1.1305635e+09  7.2635292e-05  5.1765068e-07  7.2117641e-05  2.8589841e+09
   3331000   2.9377444e-11  3471915.7      101915.4       1.1305627e+09  7.2635295e-05  5.1777827e-07  7.2117517e-05  2.8589816e+09
   3332000   2.9386263e-11  3471916.3      101917.34      1.1305622e+09  7.2635292e-05  5.177636e-07   7.2117528e-05  2.8589816e+09
   3333000   2.9395083e-11  3471918.1      101917.74      1.1305627e+09  7.263529e-05   5.1772513e-07  7.2117565e-05  2.8589825e+09
   3334000   2.9403902e-11  3471915.1      101914.83      1.1305626e+09  7.2635284e-05  5.1778107e-07  7.2117502e-05  2.8589811e+09
   3335000   2.9412722e-11  3471917.9      101915.39      1.1305634e+09  7.2635278e-05  5.1771692e-07  7.2117561e-05  2.8589814e+09
   3336000   2.9421541e-11  3471924.7      101920.03      1.1305641e+09  7.2635271e-05  5.1756901e-07  7.2117702e-05  2.858983e+09 
   3337000   2.943036e-11   3471920.4      101918.91      1.1305631e+09  7.2635274e-05  5.1766113e-07  7.2117613e-05  2.8589817e+09
   3338000   2.943918e-11   3471919.7      101917.31      1.1305633e+09  7.2635273e-05  5.1767457e-07  7.2117598e-05  2.8589821e+09
   3339000   2.9447999e-11  3471905.8      101917.32      1.1305587e+09  7.2635277e-05  5.1796606e-07  7.2117311e-05  2.8589779e+09
   3340000   2.9456819e-11  3471912.9      101918.08      1.1305608e+09  7.2635273e-05  5.1781506e-07  7.2117458e-05  2.8589802e+09
   3341000   2.9465638e-11  3471917.9      101916.38      1.1305631e+09  7.2635274e-05  5.177119e-07   7.2117562e-05  2.8589813e+09
   3342000   2.9474457e-11  3471921.8      101918.61      1.1305636e+09  7.2635263e-05  5.1762009e-07  7.2117643e-05  2.8589814e+09
   3343000   2.9483277e-11  3471914.3      101920.82      1.1305604e+09  7.2635262e-05  5.1777631e-07  7.2117485e-05  2.8589788e+09
   3344000   2.9492096e-11  3471917.7      101920.74      1.1305616e+09  7.2635261e-05  5.1770359e-07  7.2117558e-05  2.8589807e+09
   3345000   2.9500916e-11  3471906.1      101917.47      1.1305588e+09  7.2635266e-05  5.1794941e-07  7.2117317e-05  2.858977e+09 
   3346000   2.9509735e-11  3471907.1      101915.82      1.1305596e+09  7.2635276e-05  5.17938e-07    7.2117338e-05  2.8589778e+09
   3347000   2.9518554e-11  3471903.3      101910.84      1.13056e+09    7.2635275e-05  5.180169e-07   7.2117258e-05  2.8589755e+09
   3348000   2.9527374e-11  3471907.8      101913.23      1.1305607e+09  7.2635273e-05  5.1792135e-07  7.2117352e-05  2.8589772e+09
   3349000   2.9536193e-11  3471914.6      101914.43      1.1305626e+09  7.263527e-05   5.1777807e-07  7.2117492e-05  2.8589795e+09
   3350000   2.9545013e-11  3471912.8      101914.36      1.130562e+09   7.2635278e-05  5.1782168e-07  7.2117456e-05  2.85898e+09  
   3351000   2.9553832e-11  3471915.7      101921.17      1.1305607e+09  7.2635281e-05  5.1776509e-07  7.2117516e-05  2.8589821e+09
   3352000   2.9562651e-11  3471916.7      101926.59      1.1305592e+09  7.2635276e-05  5.1774053e-07  7.2117536e-05  2.8589827e+09
   3353000   2.9571471e-11  3471920.6      101929.29      1.1305597e+09  7.2635272e-05  5.176535e-07   7.2117618e-05  2.858984e+09 
   3354000   2.958029e-11   3471920.5      101926.91      1.1305604e+09  7.2635283e-05  5.1766773e-07  7.2117615e-05  2.8589847e+09
   3355000   2.958911e-11   3471915.9      101929.14      1.1305581e+09  7.2635294e-05  5.1777508e-07  7.2117519e-05  2.8589836e+09
   3356000   2.9597929e-11  3471924.5      101927.41      1.1305616e+09  7.2635291e-05  5.1759343e-07  7.2117697e-05  2.8589863e+09
   3357000   2.9606748e-11  3471920.6      101925.74      1.1305608e+09  7.2635291e-05  5.1767476e-07  7.2117616e-05  2.8589843e+09
   3358000   2.9615568e-11  3471919        101927.12      1.1305598e+09  7.2635285e-05  5.1770205e-07  7.2117583e-05  2.8589833e+09
   3359000   2.9624387e-11  3471920        101924.76      1.130561e+09   7.2635292e-05  5.1768698e-07  7.2117605e-05  2.8589845e+09
   3360000   2.9633207e-11  3471917.6      101923.99      1.1305604e+09  7.2635295e-05  5.1773977e-07  7.2117555e-05  2.8589847e+09
   3361000   2.9642026e-11  3471915.4      101923.77      1.1305598e+09  7.2635301e-05  5.1779133e-07  7.211751e-05   2.8589846e+09
   3362000   2.9650846e-11  3471918.6      101927.07      1.1305597e+09  7.2635297e-05  5.1772151e-07  7.2117575e-05  2.8589855e+09
   3363000   2.9659665e-11  3471916.8      101925.5       1.1305596e+09  7.2635292e-05  5.1775397e-07  7.2117538e-05  2.858984e+09 
   3364000   2.9668484e-11  3471915.7      101923.65      1.1305599e+09  7.2635298e-05  5.1778155e-07  7.2117516e-05  2.8589836e+09
   3365000   2.9677304e-11  3471922.2      101925         1.1305616e+09  7.2635303e-05  5.1765197e-07  7.2117651e-05  2.858987e+09 
   3366000   2.9686123e-11  3471921.6      101926.1       1.130561e+09   7.263531e-05   5.1767295e-07  7.2117637e-05  2.8589884e+09
   3367000   2.9694943e-11  3471914.2      101924.08      1.1305592e+09  7.2635319e-05  5.1783505e-07  7.2117484e-05  2.858987e+09 
   3368000   2.9703762e-11  3471908.9      101924.52      1.1305573e+09  7.2635328e-05  5.1795421e-07  7.2117374e-05  2.8589861e+09
   3369000   2.9712581e-11  3471915        101925.38      1.1305591e+09  7.2635325e-05  5.1782293e-07  7.2117502e-05  2.8589886e+09
   3370000   2.9721401e-11  3471901.7      101922.83      1.1305555e+09  7.2635317e-05  5.1809211e-07  7.2117225e-05  2.8589828e+09
   3371000   2.973022e-11   3471914.9      101928.64      1.1305579e+09  7.2635314e-05  5.1781582e-07  7.2117498e-05  2.8589874e+09
   3372000   2.973904e-11   3471919.5      101927.83      1.1305598e+09  7.2635321e-05  5.1772662e-07  7.2117595e-05  2.858989e+09 
   3373000   2.9747859e-11  3471921.9      101926.64      1.130561e+09   7.2635311e-05  5.1766547e-07  7.2117645e-05  2.8589885e+09
   3374000   2.9756678e-11  3471920.6      101930.57      1.1305592e+09  7.2635314e-05  5.1769667e-07  7.2117618e-05  2.8589886e+09
   3375000   2.9765498e-11  3471917.8      101932.46      1.1305577e+09  7.2635321e-05  5.1776139e-07  7.211756e-05   2.8589888e+09
   3376000   2.9774317e-11  3471922.4      101937.56      1.1305575e+09  7.2635328e-05  5.1767323e-07  7.2117655e-05  2.8589913e+09
   3377000   2.9783137e-11  3471933.9      101943.59      1.1305593e+09  7.2635324e-05  5.1743012e-07  7.2117894e-05  2.8589956e+09
   3378000   2.9791956e-11  3471939        101949.86      1.130559e+09   7.2635321e-05  5.1732107e-07  7.2118e-05     2.8589978e+09
   3379000   2.9800775e-11  3471935.9      101947.41      1.1305587e+09  7.2635315e-05  5.1737877e-07  7.2117936e-05  2.8589962e+09
   3380000   2.9809595e-11  3471932.6      101945.83      1.1305581e+09  7.2635306e-05  5.1744006e-07  7.2117866e-05  2.8589934e+09
   3381000   2.9818414e-11  3471934.9      101941.41      1.1305604e+09  7.2635308e-05  5.1739323e-07  7.2117914e-05  2.8589934e+09
   3382000   2.9827234e-11  3471928        101935.49      1.1305601e+09  7.263531e-05   5.1753837e-07  7.2117772e-05  2.8589909e+09
   3383000   2.9836053e-11  3471914.5      101928.37      1.1305579e+09  7.2635306e-05  5.178157e-07   7.211749e-05   2.8589862e+09
   3384000   2.9844872e-11  3471910.9      101924.11      1.1305581e+09  7.2635303e-05  5.1788782e-07  7.2117415e-05  2.8589853e+09
   3385000   2.9853692e-11  3471917.4      101928.81      1.1305587e+09  7.2635299e-05  5.1774798e-07  7.2117551e-05  2.858987e+09 
   3386000   2.9862511e-11  3471924.1      101935.51      1.1305588e+09  7.2635301e-05  5.1761075e-07  7.211769e-05   2.8589889e+09
   3387000   2.9871331e-11  3471928.1      101937.76      1.1305594e+09  7.2635298e-05  5.1752435e-07  7.2117774e-05  2.8589902e+09
   3388000   2.988015e-11   3471922.5      101940.39      1.1305566e+09  7.2635296e-05  5.1763919e-07  7.2117657e-05  2.8589887e+09
   3389000   2.988897e-11   3471929.3      101942.08      1.1305583e+09  7.2635294e-05  5.1749729e-07  7.2117797e-05  2.8589914e+09
   3390000   2.9897789e-11  3471914.7      101938.93      1.1305544e+09  7.2635295e-05  5.1780096e-07  7.2117494e-05  2.8589862e+09
   3391000   2.9906608e-11  3471923.6      101940.51      1.1305569e+09  7.2635289e-05  5.1761076e-07  7.2117679e-05  2.8589889e+09
   3392000   2.9915428e-11  3471920.3      101937.48      1.1305568e+09  7.26353e-05    5.1768925e-07  7.2117611e-05  2.8589876e+09
   3393000   2.9924247e-11  3471922.8      101934.33      1.1305587e+09  7.2635297e-05  5.1763524e-07  7.2117662e-05  2.8589871e+09
   3394000   2.9933067e-11  3471923.2      101940.73      1.1305567e+09  7.2635297e-05  5.1762526e-07  7.2117672e-05  2.8589869e+09
   3395000   2.9941886e-11  3471928        101941.04      1.1305582e+09  7.2635302e-05  5.1753072e-07  7.2117771e-05  2.8589894e+09
   3396000   2.9950705e-11  3471925.9      101945.21      1.1305561e+09  7.2635304e-05  5.1757612e-07  7.2117727e-05  2.8589897e+09
   3397000   2.9959525e-11  3471922.2      101947.12      1.1305542e+09  7.2635303e-05  5.1765347e-07  7.211765e-05   2.8589888e+09
   3398000   2.9968344e-11  3471921        101956.74      1.1305506e+09  7.2635289e-05  5.1766365e-07  7.2117625e-05  2.8589883e+09
   3399000   2.9977164e-11  3471914.8      101957.13      1.1305484e+09  7.2635298e-05  5.1780146e-07  7.2117497e-05  2.8589866e+09
   3400000   2.9985983e-11  3471913.9      101956.58      1.1305483e+09  7.2635291e-05  5.1781344e-07  7.2117477e-05  2.8589859e+09
   3401000   2.9994802e-11  3471909.9      101956.53      1.130547e+09   7.2635288e-05  5.1789176e-07  7.2117396e-05  2.858984e+09 
   3402000   3.0003622e-11  3471914.6      101955.94      1.1305487e+09  7.2635292e-05  5.1779896e-07  7.2117493e-05  2.8589855e+09
   3403000   3.0012441e-11  3471915.9      101956.92      1.1305488e+09  7.2635289e-05  5.1776899e-07  7.211752e-05   2.8589851e+09
   3404000   3.0021261e-11  3471921.4      101959.05      1.13055e+09    7.2635294e-05  5.1766085e-07  7.2117633e-05  2.8589877e+09
   3405000   3.003008e-11   3471908.8      101959.84      1.1305455e+09  7.2635285e-05  5.1791311e-07  7.2117372e-05  2.8589821e+09
   3406000   3.0038899e-11  3471923.4      101966.04      1.1305483e+09  7.2635276e-05  5.176005e-07   7.2117676e-05  2.8589866e+09
   3407000   3.0047719e-11  3471931.5      101971.83      1.1305491e+09  7.2635285e-05  5.1744144e-07  7.2117843e-05  2.8589895e+09
   3408000   3.0056538e-11  3471929.8      101971.09      1.1305488e+09  7.2635284e-05  5.1747543e-07  7.2117809e-05  2.8589888e+09
   3409000   3.0065358e-11  3471930.6      101972.94      1.1305484e+09  7.2635286e-05  5.1746015e-07  7.2117826e-05  2.8589899e+09
   3410000   3.0074177e-11  3471935.9      101977.68      1.1305486e+09  7.2635289e-05  5.1735441e-07  7.2117935e-05  2.8589922e+09
   3411000   3.0082996e-11  3471943.3      101978.87      1.1305507e+09  7.2635286e-05  5.1719623e-07  7.2118089e-05  2.8589941e+09
   3412000   3.0091816e-11  3471944.7      101976.26      1.130552e+09   7.2635284e-05  5.171658e-07   7.2118118e-05  2.8589939e+09
   3413000   3.0100635e-11  3471935.6      101974.32      1.1305496e+09  7.263528e-05   5.1735152e-07  7.2117928e-05  2.8589893e+09
   3414000   3.0109455e-11  3471948.2      101977.15      1.1305529e+09  7.2635271e-05  5.1708074e-07  7.211819e-05   2.8589934e+09
   3415000   3.0118274e-11  3471937.7      101977.24      1.1305494e+09  7.2635275e-05  5.1730257e-07  7.2117973e-05  2.8589901e+09
   3416000   3.0127093e-11  3471939.8      101976.81      1.1305502e+09  7.2635279e-05  5.1726352e-07  7.2118015e-05  2.8589912e+09
   3417000   3.0135913e-11  3471937.2      101976.98      1.1305493e+09  7.263528e-05   5.1731846e-07  7.2117962e-05  2.8589904e+09
   3418000   3.0144732e-11  3471935        101977.38      1.1305484e+09  7.2635268e-05  5.1735145e-07  7.2117917e-05  2.858989e+09 
   3419000   3.0153552e-11  3471941.9      101976.54      1.130551e+09   7.2635262e-05  5.1720191e-07  7.211806e-05   2.8589903e+09
   3420000   3.0162371e-11  3471940.1      101972.36      1.1305518e+09  7.2635264e-05  5.1724116e-07  7.2118023e-05  2.858989e+09 
   3421000   3.0171191e-11  3471943        101975.53      1.1305517e+09  7.2635266e-05  5.1718368e-07  7.2118082e-05  2.85899e+09  
   3422000   3.018001e-11   3471938.2      101974.77      1.1305504e+09  7.2635259e-05  5.1727553e-07  7.2117984e-05  2.8589886e+09
   3423000   3.0188829e-11  3471919.8      101968.69      1.1305462e+09  7.2635257e-05  5.1765649e-07  7.21176e-05    2.8589822e+09
   3424000   3.0197649e-11  3471930        101969.38      1.1305494e+09  7.2635257e-05  5.1744435e-07  7.2117813e-05  2.858986e+09 
   3425000   3.0206468e-11  3471921.5      101968.48      1.1305469e+09  7.2635262e-05  5.1762528e-07  7.2117637e-05  2.8589828e+09
   3426000   3.0215288e-11  3471921.7      101966.95      1.1305474e+09  7.2635262e-05  5.1762221e-07  7.211764e-05   2.8589835e+09
   3427000   3.0224107e-11  3471929.9      101969.73      1.1305493e+09  7.2635264e-05  5.1745392e-07  7.2117811e-05  2.8589872e+09
   3428000   3.0232926e-11  3471926        101967.18      1.1305488e+09  7.2635261e-05  5.1753082e-07  7.211773e-05   2.8589852e+09
   3429000   3.0241746e-11  3471917.6      101968.74      1.1305455e+09  7.2635261e-05  5.1770574e-07  7.2117555e-05  2.8589816e+09
   3430000   3.0250565e-11  3471914.2      101963.2       1.1305462e+09  7.2635271e-05  5.1778644e-07  7.2117484e-05  2.8589808e+09
   3431000   3.0259385e-11  3471931.2      101968.08      1.1305502e+09  7.263527e-05   5.174334e-07   7.2117837e-05  2.8589871e+09
   3432000   3.0268204e-11  3471929.2      101970.11      1.1305489e+09  7.2635265e-05  5.1746849e-07  7.2117797e-05  2.8589862e+09
   3433000   3.0277023e-11  3471929.2      101970.97      1.1305486e+09  7.2635262e-05  5.1746566e-07  7.2117796e-05  2.8589864e+09
   3434000   3.0285843e-11  3471931.1      101971.87      1.1305489e+09  7.2635266e-05  5.1742996e-07  7.2117836e-05  2.8589872e+09
   3435000   3.0294662e-11  3471925.3      101967.61      1.1305484e+09  7.2635274e-05  5.175589e-07   7.2117715e-05  2.8589852e+09
   3436000   3.0303482e-11  3471924.7      101965.6       1.1305489e+09  7.2635269e-05  5.1756693e-07  7.2117702e-05  2.858985e+09 
   3437000   3.0312301e-11  3471921        101967.55      1.130547e+09   7.2635264e-05  5.176374e-07   7.2117627e-05  2.8589843e+09
   3438000   3.032112e-11   3471918.3      101966.37      1.1305465e+09  7.263526e-05   5.1768992e-07  7.211757e-05   2.8589831e+09
   3439000   3.032994e-11   3471928.3      101973.51      1.1305474e+09  7.263526e-05   5.1748309e-07  7.2117777e-05  2.8589866e+09
   3440000   3.0338759e-11  3471931.4      101974.86      1.130548e+09   7.2635253e-05  5.1741208e-07  7.2117841e-05  2.8589869e+09
   3441000   3.0347579e-11  3471935        101976.87      1.1305486e+09  7.2635252e-05  5.17336e-07    7.2117916e-05  2.8589879e+09
   3442000   3.0356398e-11  3471935.1      101977.73      1.1305483e+09  7.2635255e-05  5.1733653e-07  7.2117918e-05  2.8589879e+09
   3443000   3.0365217e-11  3471940.9      101978.12      1.1305501e+09  7.263525e-05   5.1720968e-07  7.211804e-05   2.8589897e+09
   3444000   3.0374037e-11  3471930.8      101973.75      1.1305482e+09  7.2635255e-05  5.1742595e-07  7.2117829e-05  2.8589865e+09
   3445000   3.0382856e-11  3471925.3      101971.37      1.1305471e+09  7.2635264e-05  5.1755004e-07  7.2117714e-05  2.8589854e+09
   3446000   3.0391676e-11  3471919.2      101967.65      1.1305463e+09  7.2635264e-05  5.1767644e-07  7.2117587e-05  2.8589832e+09
   3447000   3.0400495e-11  3471912.4      101961.71      1.1305461e+09  7.2635272e-05  5.178254e-07   7.2117446e-05  2.8589814e+09
   3448000   3.0409315e-11  3471917        101959.29      1.1305484e+09  7.2635264e-05  5.1772225e-07  7.2117542e-05  2.858982e+09 
   3449000   3.0418134e-11  3471921.7      101962.92      1.1305488e+09  7.2635263e-05  5.1762203e-07  7.2117641e-05  2.8589833e+09
   3450000   3.0426953e-11  3471922.5      101964.57      1.1305485e+09  7.2635267e-05  5.176109e-07   7.2117656e-05  2.8589832e+09
   3451000   3.0435773e-11  3471925.7      101964.22      1.1305497e+09  7.2635263e-05  5.1754026e-07  7.2117722e-05  2.858984e+09 
   3452000   3.0444592e-11  3471921.2      101964.4       1.1305481e+09  7.2635262e-05  5.1763253e-07  7.211763e-05   2.8589828e+09
   3453000   3.0453412e-11  3471920.7      101963.55      1.1305482e+09  7.2635267e-05  5.1764713e-07  7.211762e-05   2.858983e+09 
   3454000   3.0462231e-11  3471925.9      101964.63      1.1305496e+09  7.2635268e-05  5.1754087e-07  7.2117727e-05  2.8589848e+09
   3455000   3.047105e-11   3471924.6      101966.96      1.1305484e+09  7.2635276e-05  5.1757547e-07  7.21177e-05    2.8589852e+09
   3456000   3.047987e-11   3471922        101963.17      1.1305488e+09  7.2635277e-05  5.1763088e-07  7.2117647e-05  2.8589846e+09
   3457000   3.0488689e-11  3471925.9      101965.79      1.1305492e+09  7.2635281e-05  5.1755428e-07  7.2117726e-05  2.8589868e+09
   3458000   3.0497509e-11  3471911        101961.42      1.1305457e+09  7.2635288e-05  5.1786973e-07  7.2117418e-05  2.8589831e+09
   3459000   3.0506328e-11  3471916.3      101963.21      1.1305469e+09  7.2635297e-05  5.1776926e-07  7.2117528e-05  2.8589864e+09
   3460000   3.0515147e-11  3471911.5      101963.3       1.1305452e+09  7.2635296e-05  5.1786879e-07  7.2117427e-05  2.8589842e+09
   3461000   3.0523967e-11  3471915.6      101963.49      1.1305465e+09  7.2635294e-05  5.1778047e-07  7.2117514e-05  2.8589851e+09
   3462000   3.0532786e-11  3471920.7      101967.72      1.1305468e+09  7.2635298e-05  5.176792e-07   7.2117619e-05  2.8589876e+09
   3463000   3.0541606e-11  3471918.6      101965.35      1.1305469e+09  7.2635299e-05  5.1772353e-07  7.2117576e-05  2.8589874e+09
   3464000   3.0550425e-11  3471920.9      101969.08      1.1305464e+09  7.2635297e-05  5.1767403e-07  7.2117623e-05  2.8589884e+09
   3465000   3.0559244e-11  3471922.7      101971.06      1.1305464e+09  7.2635294e-05  5.1763175e-07  7.2117662e-05  2.8589884e+09
   3466000   3.0568064e-11  3471921.7      101971.36      1.130546e+09   7.2635291e-05  5.1765052e-07  7.211764e-05   2.8589874e+09
   3467000   3.0576883e-11  3471927.5      101969.47      1.1305485e+09  7.263528e-05   5.175191e-07   7.2117761e-05  2.8589888e+09
   3468000   3.0585703e-11  3471911.4      101966.74      1.130544e+09   7.2635279e-05  5.1785297e-07  7.2117426e-05  2.8589831e+09
   3469000   3.0594522e-11  3471917.1      101966.33      1.1305461e+09  7.2635289e-05  5.1774361e-07  7.2117545e-05  2.8589859e+09
   3470000   3.0603341e-11  3471925.3      101968.06      1.1305483e+09  7.2635287e-05  5.1757181e-07  7.2117715e-05  2.8589886e+09
   3471000   3.0612161e-11  3471915.4      101965.11      1.1305459e+09  7.2635287e-05  5.1777756e-07  7.2117509e-05  2.8589849e+09
   3472000   3.062098e-11   3471914.8      101961.56      1.1305469e+09  7.2635288e-05  5.1779068e-07  7.2117498e-05  2.8589847e+09
   3473000   3.06298e-11    3471916.2      101961.2       1.1305475e+09  7.2635287e-05  5.1776115e-07  7.2117526e-05  2.858985e+09 
   3474000   3.0638619e-11  3471913.1      101963         1.1305459e+09  7.2635294e-05  5.1783176e-07  7.2117462e-05  2.8589847e+09
   3475000   3.0647438e-11  3471915.1      101966.12      1.1305455e+09  7.2635298e-05  5.1779414e-07  7.2117504e-05  2.8589865e+09
   3476000   3.0656258e-11  3471909.5      101963.6       1.1305445e+09  7.263529e-05   5.1790337e-07  7.2117387e-05  2.8589845e+09
   3477000   3.0665077e-11  3471913.7      101962.3       1.1305463e+09  7.2635291e-05  5.1781683e-07  7.2117474e-05  2.8589866e+09
   3478000   3.0673897e-11  3471904.9      101957.99      1.1305448e+09  7.2635291e-05  5.1799955e-07  7.2117291e-05  2.8589837e+09
   3479000   3.0682716e-11  3471899.6      101953.42      1.1305445e+09  7.2635293e-05  5.1811228e-07  7.2117181e-05  2.8589823e+09
   3480000   3.0691536e-11  3471895.7      101954.84      1.1305428e+09  7.2635291e-05  5.1819099e-07  7.21171e-05    2.8589809e+09
   3481000   3.0700355e-11  3471906.8      101955.22      1.1305464e+09  7.2635284e-05  5.1795383e-07  7.211733e-05   2.8589837e+09
   3482000   3.0709174e-11  3471909.8      101958.97      1.1305461e+09  7.2635282e-05  5.1788904e-07  7.2117393e-05  2.8589844e+09
   3483000   3.0717994e-11  3471908.1      101961.48      1.1305447e+09  7.2635279e-05  5.1792176e-07  7.2117357e-05  2.8589835e+09
   3484000   3.0726813e-11  3471906.1      101957.84      1.1305453e+09  7.2635274e-05  5.1795716e-07  7.2117317e-05  2.8589827e+09
   3485000   3.0735633e-11  3471899.9      101957.45      1.1305433e+09  7.2635278e-05  5.1808998e-07  7.2117188e-05  2.8589811e+09
   3486000   3.0744452e-11  3471904.6      101960.14      1.130544e+09   7.2635284e-05  5.1799975e-07  7.2117285e-05  2.8589834e+09
   3487000   3.0753271e-11  3471909.6      101961.23      1.1305453e+09  7.2635294e-05  5.1790461e-07  7.2117389e-05  2.8589857e+09
   3488000   3.0762091e-11  3471910.8      101963.36      1.130545e+09   7.2635293e-05  5.1787941e-07  7.2117414e-05  2.8589858e+09
   3489000   3.077091e-11   3471919.6      101969.21      1.130546e+09   7.2635292e-05  5.1769431e-07  7.2117598e-05  2.8589893e+09
   3490000   3.077973e-11   3471916.4      101970.41      1.1305445e+09  7.263529e-05   5.1776078e-07  7.2117529e-05  2.8589887e+09
   3491000   3.0788549e-11  3471907.6      101969.29      1.1305419e+09  7.2635295e-05  5.1794765e-07  7.2117347e-05  2.8589866e+09
   3492000   3.0797368e-11  3471907.5      101973.92      1.1305403e+09  7.2635294e-05  5.1794913e-07  7.2117344e-05  2.8589867e+09
   3493000   3.0806188e-11  3471913.4      101970.88      1.1305433e+09  7.2635291e-05  5.1782323e-07  7.2117467e-05  2.8589883e+09
   3494000   3.0815007e-11  3471910.5      101971.06      1.1305423e+09  7.263529e-05   5.1788147e-07  7.2117408e-05  2.8589873e+09
   3495000   3.0823827e-11  3471914.4      101971.84      1.1305433e+09  7.2635287e-05  5.1779941e-07  7.2117488e-05  2.8589884e+09
   3496000   3.0832646e-11  3471910.1      101972.79      1.1305416e+09  7.263529e-05   5.1789086e-07  7.2117399e-05  2.8589866e+09
   3497000   3.0841465e-11  3471904.1      101971.23      1.1305401e+09  7.2635292e-05  5.1801773e-07  7.2117275e-05  2.8589842e+09
   3498000   3.0850285e-11  3471921.4      101976.68      1.1305441e+09  7.2635286e-05  5.1765286e-07  7.2117633e-05  2.8589903e+09
   3499000   3.0859104e-11  3471917.5      101975.48      1.1305432e+09  7.2635285e-05  5.1773234e-07  7.2117553e-05  2.8589891e+09
   3500000   3.0867924e-11  3471918.4      101982.71      1.1305411e+09  7.2635295e-05  5.1772326e-07  7.2117572e-05  2.8589907e+09
   3501000   3.0876743e-11  3471916.7      101981.43      1.1305409e+09  7.2635293e-05  5.1775745e-07  7.2117536e-05  2.85899e+09  
   3502000   3.0885562e-11  3471912.6      101981.06      1.1305397e+09  7.2635303e-05  5.1785075e-07  7.2117452e-05  2.8589893e+09
   3503000   3.0894382e-11  3471918.8      101982.94      1.1305411e+09  7.2635304e-05  5.1772323e-07  7.2117581e-05  2.8589915e+09
   3504000   3.0903201e-11  3471914.1      101979.34      1.1305407e+09  7.2635296e-05  5.1781422e-07  7.2117482e-05  2.8589886e+09
   3505000   3.0912021e-11  3471909.4      101983.98      1.1305376e+09  7.2635296e-05  5.1791111e-07  7.2117385e-05  2.8589862e+09
   3506000   3.092084e-11   3471920.7      101988.03      1.13054e+09    7.26353e-05    5.1768055e-07  7.211762e-05   2.8589903e+09
   3507000   3.092966e-11   3471922.2      101987.04      1.1305409e+09  7.2635296e-05  5.1764582e-07  7.211765e-05   2.8589901e+09
   3508000   3.0938479e-11  3471923.8      101990.67      1.1305402e+09  7.2635297e-05  5.176135e-07   7.2117683e-05  2.8589901e+09
   3509000   3.0947298e-11  3471931.1      101996.13      1.1305408e+09  7.2635297e-05  5.1746123e-07  7.2117835e-05  2.8589928e+09
   3510000   3.0956118e-11  3471933.3      102001.49      1.1305398e+09  7.2635297e-05  5.1741584e-07  7.2117882e-05  2.8589937e+09
   3511000   3.0964937e-11  3471928.5      102003.27      1.1305376e+09  7.2635305e-05  5.1752262e-07  7.2117782e-05  2.8589925e+09
   3512000   3.0973757e-11  3471936.5      102004.1       1.13054e+09    7.2635299e-05  5.1735197e-07  7.2117948e-05  2.8589944e+09
   3513000   3.0982576e-11  3471939.4      102004         1.130541e+09   7.2635294e-05  5.1728592e-07  7.2118008e-05  2.8589947e+09
   3514000   3.0991395e-11  3471939        102004.6       1.1305407e+09  7.2635286e-05  5.1728548e-07  7.2118e-05     2.8589934e+09
   3515000   3.1000215e-11  3471938.6      102002.67      1.1305412e+09  7.2635288e-05  5.1729703e-07  7.2117991e-05  2.8589928e+09
   3516000   3.1009034e-11  3471938.3      102002.09      1.1305413e+09  7.2635291e-05  5.1730505e-07  7.2117986e-05  2.8589928e+09
   3517000   3.1017854e-11  3471934.5      102002.54      1.1305398e+09  7.2635295e-05  5.1738923e-07  7.2117906e-05  2.8589921e+09
   3518000   3.1026673e-11  3471934.4      102003.81      1.1305394e+09  7.2635287e-05  5.1738289e-07  7.2117904e-05  2.8589921e+09
   3519000   3.1035492e-11  3471933.4      102005.12      1.1305386e+09  7.2635288e-05  5.1740469e-07  7.2117883e-05  2.8589923e+09
   3520000   3.1044312e-11  3471936.6      102004.97      1.1305397e+09  7.2635286e-05  5.1733632e-07  7.211795e-05   2.8589927e+09
   3521000   3.1053131e-11  3471937        102001.91      1.1305409e+09  7.2635289e-05  5.1733041e-07  7.2117958e-05  2.8589926e+09
   3522000   3.1061951e-11  3471926.6      101999.03      1.1305383e+09  7.2635286e-05  5.1754476e-07  7.2117742e-05  2.8589881e+09
   3523000   3.107077e-11   3471934        102002.64      1.1305396e+09  7.2635279e-05  5.1738389e-07  7.2117895e-05  2.8589906e+09
   3524000   3.1079589e-11  3471928.6      102002.86      1.1305377e+09  7.2635284e-05  5.1749929e-07  7.2117784e-05  2.8589891e+09
   3525000   3.1088409e-11  3471929.7      101998.79      1.1305395e+09  7.2635287e-05  5.1748142e-07  7.2117806e-05  2.8589899e+09
   3526000   3.1097228e-11  3471927.4      101995.59      1.1305398e+09  7.2635295e-05  5.1753549e-07  7.2117759e-05  2.8589898e+09
   3527000   3.1106048e-11  3471928.2      101999.41      1.1305387e+09  7.2635296e-05  5.1752089e-07  7.2117775e-05  2.8589906e+09
   3528000   3.1114867e-11  3471924.1      101997.34      1.1305381e+09  7.2635296e-05  5.1760588e-07  7.211769e-05   2.8589892e+09
   3529000   3.1123686e-11  3471917.1      101991.62      1.1305376e+09  7.2635303e-05  5.1775766e-07  7.2117545e-05  2.8589869e+09
   3530000   3.1132506e-11  3471921.1      101991.63      1.130539e+09   7.2635297e-05  5.1766978e-07  7.2117627e-05  2.8589874e+09
   3531000   3.1141325e-11  3471917.8      101993.47      1.1305372e+09  7.2635297e-05  5.1773906e-07  7.2117558e-05  2.8589858e+09
   3532000   3.1150145e-11  3471923        101995.55      1.1305383e+09  7.2635299e-05  5.1763221e-07  7.2117667e-05  2.8589881e+09
   3533000   3.1158964e-11  3471925.1      102000.73      1.1305373e+09  7.2635299e-05  5.1758784e-07  7.2117711e-05  2.8589888e+09
   3534000   3.1167783e-11  3471925.7      102002.7       1.1305368e+09  7.2635294e-05  5.175704e-07   7.2117724e-05  2.8589884e+09
   3535000   3.1176603e-11  3471923.9      102003.76      1.1305358e+09  7.2635288e-05  5.1760284e-07  7.2117685e-05  2.8589866e+09
   3536000   3.1185422e-11  3471930.2      102005.12      1.1305375e+09  7.2635285e-05  5.1746907e-07  7.2117816e-05  2.8589886e+09
   3537000   3.1194242e-11  3471936.3      102005.31      1.1305395e+09  7.2635287e-05  5.1734435e-07  7.2117943e-05  2.8589906e+09
   3538000   3.1203061e-11  3471937        102005.96      1.1305395e+09  7.2635292e-05  5.1733317e-07  7.2117959e-05  2.8589913e+09
   3539000   3.1211881e-11  3471937.1      102011.35      1.1305378e+09  7.2635296e-05  5.1733588e-07  7.2117961e-05  2.8589919e+09
   3540000   3.12207e-11    3471937.6      102011.38      1.1305379e+09  7.2635298e-05  5.1732903e-07  7.2117969e-05  2.8589921e+09
   3541000   3.1229519e-11  3471937.9      102013.28      1.1305374e+09  7.2635291e-05  5.1731449e-07  7.2117976e-05  2.8589923e+09
   3542000   3.1238339e-11  3471933.5      102013.99      1.1305357e+09  7.2635292e-05  5.174059e-07   7.2117886e-05  2.8589911e+09
   3543000   3.1247158e-11  3471937.2      102014.41      1.1305368e+09  7.2635293e-05  5.173298e-07   7.2117963e-05  2.8589926e+09
   3544000   3.1255978e-11  3471930.3      102011.9       1.1305353e+09  7.2635292e-05  5.174723e-07   7.211782e-05   2.8589892e+09
   3545000   3.1264797e-11  3471940        102010.95      1.1305388e+09  7.2635291e-05  5.1727131e-07  7.211802e-05   2.8589924e+09
   3546000   3.1273616e-11  3471928.3      102006.44      1.1305364e+09  7.2635288e-05  5.1751116e-07  7.2117777e-05  2.8589884e+09
   3547000   3.1282436e-11  3471925.6      102005.38      1.1305359e+09  7.2635289e-05  5.1756832e-07  7.2117721e-05  2.8589881e+09
   3548000   3.1291255e-11  3471922.6      102005.38      1.1305349e+09  7.263529e-05   5.1763204e-07  7.2117658e-05  2.8589872e+09
   3549000   3.1300075e-11  3471921.6      102006.23      1.1305343e+09  7.2635286e-05  5.1764807e-07  7.2117638e-05  2.8589866e+09
   3550000   3.1308894e-11  3471925.6      102004.33      1.1305362e+09  7.2635279e-05  5.1755683e-07  7.2117722e-05  2.8589867e+09
   3551000   3.1317713e-11  3471926.9      102000.4       1.130538e+09   7.2635275e-05  5.1752619e-07  7.2117749e-05  2.8589862e+09
   3552000   3.1326533e-11  3471921.9      101999.35      1.1305367e+09  7.2635278e-05  5.1763301e-07  7.2117645e-05  2.8589848e+09
   3553000   3.1335352e-11  3471923.7      102002.37      1.1305363e+09  7.2635274e-05  5.1759168e-07  7.2117683e-05  2.8589858e+09
   3554000   3.1344172e-11  3471921        102000.64      1.1305359e+09  7.2635267e-05  5.1764213e-07  7.2117625e-05  2.8589843e+09
   3555000   3.1352991e-11  3471921.2      102003.02      1.1305352e+09  7.2635272e-05  5.1764206e-07  7.211763e-05   2.8589846e+09
   3556000   3.136181e-11   3471917.9      102002.13      1.1305344e+09  7.2635266e-05  5.1770452e-07  7.2117561e-05  2.8589825e+09
   3557000   3.137063e-11   3471926.2      102006.42      1.1305357e+09  7.2635271e-05  5.1753811e-07  7.2117733e-05  2.8589857e+09
   3558000   3.1379449e-11  3471931.6      102006.6       1.1305375e+09  7.2635264e-05  5.174174e-07   7.2117846e-05  2.8589865e+09
   3559000   3.1388269e-11  3471936.7      102011.73      1.1305375e+09  7.2635265e-05  5.1731381e-07  7.2117951e-05  2.8589878e+09
   3560000   3.1397088e-11  3471933.8      102009.51      1.1305372e+09  7.2635259e-05  5.1736884e-07  7.2117891e-05  2.8589865e+09
   3561000   3.1405907e-11  3471931.7      102011.38      1.1305359e+09  7.2635261e-05  5.1741338e-07  7.2117847e-05  2.8589864e+09
   3562000   3.1414727e-11  3471937.1      102017.75      1.1305356e+09  7.2635265e-05  5.1730428e-07  7.2117961e-05  2.8589893e+09
   3563000   3.1423546e-11  3471931.4      102019.54      1.1305331e+09  7.2635275e-05  5.1743341e-07  7.2117841e-05  2.8589878e+09
   3564000   3.1432366e-11  3471940.4      102018.97      1.1305363e+09  7.2635281e-05  5.172529e-07   7.2118028e-05  2.8589917e+09
   3565000   3.1441185e-11  3471935.2      102019.36      1.1305344e+09  7.263529e-05   5.1736863e-07  7.2117921e-05  2.8589904e+09
   3566000   3.1450005e-11  3471942.2      102020.81      1.1305363e+09  7.263529e-05   5.1722289e-07  7.2118067e-05  2.8589929e+09
   3567000   3.1458824e-11  3471951.1      102024.29      1.1305381e+09  7.2635293e-05  5.170427e-07   7.211825e-05   2.8589963e+09
   3568000   3.1467643e-11  3471943.1      102023.51      1.1305357e+09  7.263529e-05   5.1720609e-07  7.2118084e-05  2.8589933e+09
   3569000   3.1476463e-11  3471941.4      102021.07      1.1305359e+09  7.2635283e-05  5.1723432e-07  7.2118049e-05  2.8589923e+09
   3570000   3.1485282e-11  3471937.6      102023.96      1.1305337e+09  7.2635283e-05  5.1731239e-07  7.211797e-05   2.8589905e+09
   3571000   3.1494102e-11  3471950.8      102029.17      1.1305364e+09  7.2635281e-05  5.1703711e-07  7.2118244e-05  2.8589948e+09
   3572000   3.1502921e-11  3471946.7      102028.16      1.1305353e+09  7.2635278e-05  5.1711954e-07  7.2118159e-05  2.8589928e+09
   3573000   3.151174e-11   3471946.4      102027.49      1.1305355e+09  7.2635279e-05  5.1712459e-07  7.2118154e-05  2.8589923e+09
   3574000   3.152056e-11   3471953.7      102029.45      1.1305373e+09  7.2635285e-05  5.1698008e-07  7.2118305e-05  2.8589954e+09
   3575000   3.1529379e-11  3471948.6      102027.72      1.1305361e+09  7.2635289e-05  5.1709078e-07  7.2118198e-05  2.8589939e+09
   3576000   3.1538199e-11  3471946.1      102027.07      1.1305355e+09  7.2635286e-05  5.1713759e-07  7.2118148e-05  2.8589937e+09
   3577000   3.1547018e-11  3471941.2      102026.08      1.1305342e+09  7.2635285e-05  5.1723935e-07  7.2118045e-05  2.8589929e+09
   3578000   3.1555837e-11  3471938.6      102024.54      1.1305338e+09  7.2635296e-05  5.1730499e-07  7.2117991e-05  2.8589931e+09
   3579000   3.1564657e-11  3471939.8      102023.86      1.1305345e+09  7.2635299e-05  5.1728223e-07  7.2118016e-05  2.8589938e+09
   3580000   3.1573476e-11  3471940.8      102024.88      1.1305345e+09  7.2635299e-05  5.172626e-07   7.2118037e-05  2.858994e+09 
   3581000   3.1582296e-11  3471937.3      102023.3       1.1305338e+09  7.2635294e-05  5.1733024e-07  7.2117964e-05  2.858992e+09 
   3582000   3.1591115e-11  3471944.6      102016.94      1.1305384e+09  7.2635287e-05  5.1717112e-07  7.2118116e-05  2.8589934e+09
   3583000   3.1599934e-11  3471931.4      102010.74      1.130536e+09   7.2635284e-05  5.1744214e-07  7.2117842e-05  2.858988e+09 
   3584000   3.1608754e-11  3471928.5      102013.39      1.1305342e+09  7.2635279e-05  5.174985e-07   7.2117781e-05  2.8589863e+09
   3585000   3.1617573e-11  3471931.2      102011.25      1.1305358e+09  7.263529e-05   5.174512e-07   7.2117838e-05  2.8589885e+09
   3586000   3.1626393e-11  3471930.8      102013.05      1.1305351e+09  7.2635288e-05  5.1745841e-07  7.2117829e-05  2.8589891e+09
   3587000   3.1635212e-11  3471932.5      102013.43      1.1305355e+09  7.263529e-05   5.1742502e-07  7.2117865e-05  2.8589907e+09
   3588000   3.1644031e-11  3471930        102013.93      1.1305345e+09  7.2635295e-05  5.1748322e-07  7.2117812e-05  2.8589906e+09
   3589000   3.1652851e-11  3471930.7      102013.89      1.1305348e+09  7.2635284e-05  5.1745671e-07  7.2117828e-05  2.8589904e+09
   3590000   3.166167e-11   3471930.9      102015.35      1.1305343e+09  7.2635282e-05  5.1745173e-07  7.211783e-05   2.8589909e+09
   3591000   3.167049e-11   3471927.4      102018.33      1.1305321e+09  7.2635284e-05  5.1752666e-07  7.2117758e-05  2.85899e+09  
   3592000   3.1679309e-11  3471936.1      102018.91      1.1305349e+09  7.2635289e-05  5.1734998e-07  7.2117939e-05  2.8589929e+09
   3593000   3.1688128e-11  3471934.4      102016.97      1.130535e+09   7.2635281e-05  5.1737612e-07  7.2117905e-05  2.8589909e+09
   3594000   3.1696948e-11  3471934.6      102019.1       1.1305343e+09  7.2635282e-05  5.1737384e-07  7.2117908e-05  2.8589908e+09
   3595000   3.1705767e-11  3471942.4      102018.85      1.130537e+09   7.2635286e-05  5.1721622e-07  7.211807e-05   2.8589937e+09
   3596000   3.1714587e-11  3471935.2      102016.94      1.1305352e+09  7.2635287e-05  5.1736642e-07  7.2117921e-05  2.8589913e+09
   3597000   3.1723406e-11  3471935.1      102015.94      1.1305355e+09  7.2635278e-05  5.173594e-07   7.2117919e-05  2.8589908e+09
   3598000   3.1732226e-11  3471927        102016.99      1.1305325e+09  7.2635281e-05  5.1753152e-07  7.211775e-05   2.8589882e+09
   3599000   3.1741045e-11  3471921.7      102013.62      1.1305318e+09  7.2635282e-05  5.1764294e-07  7.2117639e-05  2.8589866e+09
   3600000   3.1749864e-11  3471926        102015.21      1.1305327e+09  7.263528e-05   5.175504e-07   7.211773e-05   2.8589882e+09
   3601000   3.1758684e-11  3471932.1      102016.33      1.1305344e+09  7.2635275e-05  5.1741871e-07  7.2117856e-05  2.8589903e+09
   3602000   3.1767503e-11  3471927.5      102015.09      1.1305333e+09  7.2635278e-05  5.1751739e-07  7.2117761e-05  2.8589886e+09
   3603000   3.1776323e-11  3471930.9      102014.63      1.1305346e+09  7.2635274e-05  5.1744248e-07  7.2117832e-05  2.858989e+09 
   3604000   3.1785142e-11  3471935.1      102016.34      1.1305354e+09  7.2635262e-05  5.1734456e-07  7.2117918e-05  2.8589887e+09
   3605000   3.1793961e-11  3471937.4      102018.39      1.1305355e+09  7.2635261e-05  5.1729479e-07  7.2117966e-05  2.8589891e+09
   3606000   3.1802781e-11  3471929.3      102015.13      1.1305339e+09  7.2635254e-05  5.1745704e-07  7.2117797e-05  2.8589859e+09
   3607000   3.18116e-11    3471926.2      102016.07      1.1305325e+09  7.2635265e-05  5.1753101e-07  7.2117734e-05  2.8589863e+09
   3608000   3.182042e-11   3471926.5      102016.26      1.1305326e+09  7.2635261e-05  5.1752056e-07  7.2117741e-05  2.8589862e+09
   3609000   3.1829239e-11  3471927.5      102009.92      1.130535e+09   7.263526e-05   5.1749981e-07  7.211776e-05   2.8589857e+09
   3610000   3.1838058e-11  3471922.2      102011.14      1.1305328e+09  7.2635256e-05  5.1760569e-07  7.211765e-05   2.8589834e+09
   3611000   3.1846878e-11  3471920.1      102011.99      1.1305318e+09  7.2635256e-05  5.1764837e-07  7.2117608e-05  2.8589832e+09
   3612000   3.1855697e-11  3471920.3      102010.93      1.1305323e+09  7.2635261e-05  5.1764966e-07  7.2117611e-05  2.8589837e+09
   3613000   3.1864517e-11  3471923.4      102014.76      1.130532e+09   7.2635258e-05  5.1758186e-07  7.2117676e-05  2.8589841e+09
   3614000   3.1873336e-11  3471922.5      102016.81      1.130531e+09   7.2635257e-05  5.1759961e-07  7.2117657e-05  2.8589828e+09
   3615000   3.1882155e-11  3471927        102014.78      1.1305332e+09  7.2635252e-05  5.1750107e-07  7.2117751e-05  2.8589834e+09
   3616000   3.1890975e-11  3471923.6      102016.31      1.1305316e+09  7.2635244e-05  5.1756352e-07  7.2117681e-05  2.8589815e+09
   3617000   3.1899794e-11  3471923        102012.69      1.1305326e+09  7.2635242e-05  5.1757511e-07  7.2117667e-05  2.8589813e+09
   3618000   3.1908614e-11  3471918.4      102010.23      1.1305318e+09  7.2635244e-05  5.1767263e-07  7.2117571e-05  2.8589796e+09
   3619000   3.1917433e-11  3471924.1      102019.91      1.1305305e+09  7.2635244e-05  5.1755502e-07  7.2117689e-05  2.8589817e+09
   3620000   3.1926252e-11  3471920.8      102019.68      1.1305295e+09  7.2635245e-05  5.1762376e-07  7.2117621e-05  2.8589804e+09
   3621000   3.1935072e-11  3471923        102020.84      1.1305298e+09  7.2635239e-05  5.175719e-07   7.2117667e-05  2.8589808e+09
   3622000   3.1943891e-11  3471916.9      102027.72      1.1305255e+09  7.263524e-05   5.1769902e-07  7.2117541e-05  2.8589794e+09
   3623000   3.1952711e-11  3471923.2      102024.53      1.1305287e+09  7.2635246e-05  5.1757415e-07  7.2117672e-05  2.8589823e+09
   3624000   3.196153e-11   3471926        102027.6       1.1305286e+09  7.2635246e-05  5.1751602e-07  7.211773e-05   2.8589832e+09
   3625000   3.197035e-11   3471920.9      102029.04      1.1305264e+09  7.2635251e-05  5.1762771e-07  7.2117624e-05  2.8589819e+09
   3626000   3.1979169e-11  3471925.4      102031.29      1.1305271e+09  7.2635249e-05  5.175329e-07   7.2117717e-05  2.8589833e+09
   3627000   3.1987988e-11  3471920.5      102025.36      1.1305275e+09  7.2635247e-05  5.1763109e-07  7.2117615e-05  2.8589808e+09
   3628000   3.1996808e-11  3471926.1      102027.22      1.1305288e+09  7.2635248e-05  5.1751562e-07  7.2117732e-05  2.8589828e+09
   3629000   3.2005627e-11  3471925.9      102028.44      1.1305283e+09  7.2635246e-05  5.1751936e-07  7.2117726e-05  2.8589828e+09
   3630000   3.2014447e-11  3471921.7      102028.07      1.130527e+09   7.263525e-05   5.1760909e-07  7.2117641e-05  2.8589825e+09
   3631000   3.2023266e-11  3471918.4      102023.28      1.1305275e+09  7.2635246e-05  5.1767332e-07  7.2117573e-05  2.8589805e+09
   3632000   3.2032085e-11  3471915.2      102018.85      1.1305279e+09  7.2635247e-05  5.1774098e-07  7.2117506e-05  2.8589786e+09
   3633000   3.2040905e-11  3471912.2      102021.35      1.130526e+09   7.2635239e-05  5.1779753e-07  7.2117442e-05  2.8589765e+09
   3634000   3.2049724e-11  3471914.5      102021.29      1.1305268e+09  7.2635245e-05  5.1775452e-07  7.211749e-05   2.8589779e+09
   3635000   3.2058544e-11  3471915.5      102021.9       1.130527e+09   7.2635244e-05  5.1773116e-07  7.2117512e-05  2.8589776e+09
   3636000   3.2067363e-11  3471926        102024.06      1.1305298e+09  7.2635249e-05  5.1751904e-07  7.211773e-05   2.8589818e+09
   3637000   3.2076182e-11  3471925        102032.59      1.1305266e+09  7.2635242e-05  5.1753367e-07  7.2117708e-05  2.8589813e+09
   3638000   3.2085002e-11  3471932.7      102037.03      1.1305277e+09  7.2635242e-05  5.1737356e-07  7.2117869e-05  2.8589838e+09
   3639000   3.2093821e-11  3471934.4      102038.13      1.1305279e+09  7.2635244e-05  5.1733897e-07  7.2117905e-05  2.8589842e+09
   3640000   3.2102641e-11  3471938.2      102043         1.1305275e+09  7.2635252e-05  5.1726873e-07  7.2117984e-05  2.8589856e+09
   3641000   3.211146e-11   3471946.9      102046.82      1.1305292e+09  7.2635261e-05  5.1709734e-07  7.2118164e-05  2.8589899e+09
   3642000   3.2120279e-11  3471938.4      102049.25      1.1305255e+09  7.2635265e-05  5.172781e-07   7.2117987e-05  2.8589883e+09
   3643000   3.2129099e-11  3471936.7      102049.21      1.130525e+09   7.2635269e-05  5.1731652e-07  7.2117953e-05  2.8589888e+09
   3644000   3.2137918e-11  3471936.9      102043.48      1.1305269e+09  7.2635267e-05  5.1730996e-07  7.2117957e-05  2.8589874e+09
   3645000   3.2146738e-11  3471946.2      102047.48      1.1305287e+09  7.2635268e-05  5.1711927e-07  7.2118149e-05  2.8589897e+09
   3646000   3.2155557e-11  3471949.1      102050.38      1.1305287e+09  7.2635268e-05  5.1705854e-07  7.2118209e-05  2.8589907e+09
   3647000   3.2164376e-11  3471939.9      102049.52      1.1305259e+09  7.2635271e-05  5.1725294e-07  7.2118018e-05  2.858989e+09 
   3648000   3.2173196e-11  3471926.6      102044.18      1.1305233e+09  7.2635261e-05  5.1751859e-07  7.2117742e-05  2.8589844e+09
   3649000   3.2182015e-11  3471923.1      102038.15      1.1305241e+09  7.2635269e-05  5.1760041e-07  7.2117669e-05  2.8589836e+09
   3650000   3.2190835e-11  3471917.5      102039.07      1.1305219e+09  7.2635274e-05  5.177222e-07   7.2117552e-05  2.8589808e+09
   3651000   3.2199654e-11  3471930        102038.78      1.1305262e+09  7.2635267e-05  5.1745357e-07  7.2117814e-05  2.8589842e+09
   3652000   3.2208473e-11  3471929.6      102039.46      1.1305258e+09  7.263527e-05   5.1746597e-07  7.2117804e-05  2.8589838e+09
   3653000   3.2217293e-11  3471933.3      102041.07      1.1305265e+09  7.2635271e-05  5.1738971e-07  7.2117881e-05  2.858985e+09 
   3654000   3.2226112e-11  3471929.2      102044.98      1.1305238e+09  7.2635267e-05  5.174717e-07   7.2117795e-05  2.8589836e+09
   3655000   3.2234932e-11  3471936.4      102049.84      1.1305246e+09  7.2635263e-05  5.1731746e-07  7.2117946e-05  2.8589859e+09
   3656000   3.2243751e-11  3471946        102053.94      1.1305265e+09  7.2635268e-05  5.1712217e-07  7.2118146e-05  2.8589897e+09
   3657000   3.2252571e-11  3471946.4      102053.29      1.1305268e+09  7.263527e-05   5.1711762e-07  7.2118153e-05  2.8589901e+09
   3658000   3.226139e-11   3471940        102052.92      1.1305248e+09  7.2635265e-05  5.1724375e-07  7.2118021e-05  2.858988e+09 
   3659000   3.2270209e-11  3471934.5      102050.41      1.1305238e+09  7.2635262e-05  5.1735641e-07  7.2117905e-05  2.8589866e+09
   3660000   3.2279029e-11  3471928.5      102048.56      1.1305224e+09  7.2635272e-05  5.1748965e-07  7.2117782e-05  2.8589856e+09
   3661000   3.2287848e-11  3471925.3      102048.79      1.1305213e+09  7.2635269e-05  5.1755457e-07  7.2117715e-05  2.8589842e+09
   3662000   3.2296668e-11  3471932.5      102047.89      1.130524e+09   7.2635265e-05  5.1740021e-07  7.2117865e-05  2.8589864e+09
   3663000   3.2305487e-11  3471928.6      102045.98      1.1305233e+09  7.2635258e-05  5.1747532e-07  7.2117783e-05  2.8589836e+09
   3664000   3.2314306e-11  3471931.6      102044.69      1.1305248e+09  7.2635256e-05  5.1741005e-07  7.2117846e-05  2.858984e+09 
   3665000   3.2323126e-11  3471931.3      102044.17      1.1305248e+09  7.2635259e-05  5.1741937e-07  7.211784e-05   2.8589837e+09
   3666000   3.2331945e-11  3471940.3      102050.84      1.1305256e+09  7.2635252e-05  5.1722651e-07  7.2118026e-05  2.8589867e+09
   3667000   3.2340765e-11  3471939.5      102051.57      1.1305251e+09  7.2635248e-05  5.1723697e-07  7.2118011e-05  2.8589864e+09
   3668000   3.2349584e-11  3471936.4      102053.7       1.1305233e+09  7.2635246e-05  5.1730004e-07  7.2117946e-05  2.8589856e+09
   3669000   3.2358403e-11  3471928.2      102048.75      1.1305223e+09  7.2635241e-05  5.1746533e-07  7.2117775e-05  2.858983e+09 
   3670000   3.2367223e-11  3471927.4      102049.3       1.1305218e+09  7.2635247e-05  5.1748852e-07  7.2117758e-05  2.8589842e+09
   3671000   3.2376042e-11  3471925.8      102048.95      1.1305214e+09  7.2635247e-05  5.1752248e-07  7.2117725e-05  2.8589837e+09
   3672000   3.2384862e-11  3471919.6      102046.94      1.13052e+09    7.2635257e-05  5.176612e-07   7.2117596e-05  2.858982e+09 
   3673000   3.2393681e-11  3471919.8      102045.41      1.1305206e+09  7.263526e-05   5.1765862e-07  7.2117601e-05  2.8589821e+09
   3674000   3.24025e-11    3471919.4      102047.19      1.1305198e+09  7.2635254e-05  5.1766167e-07  7.2117592e-05  2.8589809e+09
   3675000   3.241132e-11   3471924.6      102048.8       1.130521e+09   7.2635252e-05  5.1755193e-07  7.21177e-05    2.8589827e+09
   3676000   3.2420139e-11  3471926.7      102050.85      1.130521e+09   7.2635255e-05  5.1751164e-07  7.2117744e-05  2.8589839e+09
   3677000   3.2428959e-11  3471928.9      102053.94      1.1305207e+09  7.2635251e-05  5.1746256e-07  7.2117789e-05  2.8589844e+09
   3678000   3.2437778e-11  3471924.3      102056.38      1.1305184e+09  7.2635248e-05  5.1755438e-07  7.2117693e-05  2.858982e+09 
   3679000   3.2446597e-11  3471935.3      102057.37      1.1305218e+09  7.2635239e-05  5.1731533e-07  7.2117923e-05  2.8589848e+09
   3680000   3.2455417e-11  3471939.6      102059.14      1.1305226e+09  7.2635249e-05  5.1723688e-07  7.2118012e-05  2.8589865e+09
   3681000   3.2464236e-11  3471940.5      102061.97      1.130522e+09   7.2635249e-05  5.1721774e-07  7.2118031e-05  2.8589877e+09
   3682000   3.2473056e-11  3471926.2      102058.51      1.1305183e+09  7.2635247e-05  5.1751189e-07  7.2117735e-05  2.858983e+09 
   3683000   3.2481875e-11  3471933        102061.74      1.1305195e+09  7.2635262e-05  5.173873e-07   7.2117875e-05  2.8589871e+09
   3684000   3.2490694e-11  3471935.9      102063.21      1.13052e+09    7.2635267e-05  5.1733169e-07  7.2117935e-05  2.8589883e+09
   3685000   3.2499514e-11  3471937.3      102067.14      1.1305191e+09  7.2635277e-05  5.173133e-07   7.2117964e-05  2.8589894e+09
   3686000   3.2508333e-11  3471936.8      102063.98      1.1305201e+09  7.2635267e-05  5.1731297e-07  7.2117954e-05  2.8589885e+09
   3687000   3.2517153e-11  3471931.9      102062.19      1.130519e+09   7.2635267e-05  5.1741614e-07  7.2117851e-05  2.8589865e+09
   3688000   3.2525972e-11  3471936        102062.57      1.1305202e+09  7.263526e-05   5.1732318e-07  7.2117937e-05  2.8589875e+09
   3689000   3.2534792e-11  3471927.5      102061.53      1.1305178e+09  7.2635264e-05  5.1750328e-07  7.2117761e-05  2.8589847e+09
   3690000   3.2543611e-11  3471927.6      102059.59      1.1305184e+09  7.2635269e-05  5.1750629e-07  7.2117763e-05  2.8589852e+09
   3691000   3.255243e-11   3471926        102055.13      1.1305194e+09  7.2635264e-05  5.1753454e-07  7.2117729e-05  2.8589842e+09
   3692000   3.256125e-11   3471927.6      102058.02      1.130519e+09   7.2635262e-05  5.1749903e-07  7.2117763e-05  2.858985e+09 
   3693000   3.2570069e-11  3471925.4      102061.92      1.1305169e+09  7.2635256e-05  5.1753816e-07  7.2117717e-05  2.8589838e+09
   3694000   3.2578889e-11  3471933.5      102059.69      1.1305204e+09  7.263525e-05   5.1736479e-07  7.2117885e-05  2.858986e+09 
   3695000   3.2587708e-11  3471929.2      102063.53      1.1305176e+09  7.2635247e-05  5.1745155e-07  7.2117795e-05  2.858984e+09 
   3696000   3.2596527e-11  3471932.4      102060.25      1.1305198e+09  7.2635246e-05  5.1738314e-07  7.2117863e-05  2.8589855e+09
   3697000   3.2605347e-11  3471926.1      102064.12      1.1305164e+09  7.2635251e-05  5.1751831e-07  7.2117732e-05  2.8589838e+09
   3698000   3.2614166e-11  3471929.6      102066.03      1.1305169e+09  7.263525e-05   5.1744508e-07  7.2117804e-05  2.8589851e+09
   3699000   3.2622986e-11  3471925.5      102064.05      1.1305162e+09  7.2635254e-05  5.1753423e-07  7.211772e-05   2.8589836e+09
   3700000   3.2631805e-11  3471930.8      102062.26      1.1305186e+09  7.263525e-05   5.1742006e-07  7.211783e-05   2.8589851e+09
   3701000   3.2640624e-11  3471927.1      102059.66      1.1305182e+09  7.2635248e-05  5.1749703e-07  7.2117751e-05  2.858983e+09 
   3702000   3.2649444e-11  3471927.4      102056.03      1.1305195e+09  7.2635246e-05  5.1748826e-07  7.2117758e-05  2.8589829e+09
   3703000   3.2658263e-11  3471925.9      102060.22      1.1305176e+09  7.2635244e-05  5.1751632e-07  7.2117727e-05  2.8589827e+09
   3704000   3.2667083e-11  3471926        102061.92      1.1305171e+09  7.2635257e-05  5.1752637e-07  7.211773e-05   2.858985e+09 
   3705000   3.2675902e-11  3471922.6      102056.91      1.1305176e+09  7.2635259e-05  5.1759968e-07  7.2117659e-05  2.8589842e+09
   3706000   3.2684721e-11  3471922.5      102056.54      1.1305177e+09  7.2635254e-05  5.1759839e-07  7.2117656e-05  2.8589834e+09
   3707000   3.2693541e-11  3471923.5      102062.34      1.1305161e+09  7.2635254e-05  5.1757659e-07  7.2117677e-05  2.8589834e+09
   3708000   3.270236e-11   3471925.4      102064.54      1.130516e+09   7.2635254e-05  5.1753745e-07  7.2117716e-05  2.8589839e+09
   3709000   3.271118e-11   3471921        102066.91      1.1305138e+09  7.2635252e-05  5.1762554e-07  7.2117627e-05  2.8589819e+09
   3710000   3.2719999e-11  3471926.9      102066.76      1.1305158e+09  7.263526e-05   5.1751239e-07  7.2117747e-05  2.8589853e+09
   3711000   3.2728818e-11  3471919.1      102068.36      1.1305126e+09  7.2635261e-05  5.17675e-07    7.2117586e-05  2.8589831e+09
   3712000   3.2737638e-11  3471930        102069.37      1.130516e+09   7.2635261e-05  5.1744811e-07  7.2117813e-05  2.8589874e+09
   3713000   3.2746457e-11  3471935.3      102069.34      1.1305177e+09  7.2635257e-05  5.1733559e-07  7.2117922e-05  2.8589878e+09
   3714000   3.2755277e-11  3471933        102065.94      1.1305181e+09  7.2635257e-05  5.1738264e-07  7.2117874e-05  2.8589863e+09
   3715000   3.2764096e-11  3471927.2      102070.18      1.1305147e+09  7.2635255e-05  5.1750105e-07  7.2117754e-05  2.8589848e+09
   3716000   3.2772916e-11  3471926        102069.05      1.1305147e+09  7.2635259e-05  5.175289e-07   7.211773e-05   2.8589855e+09
   3717000   3.2781735e-11  3471927.9      102070.96      1.1305147e+09  7.2635262e-05  5.1749265e-07  7.2117769e-05  2.8589869e+09
   3718000   3.2790554e-11  3471926.6      102071.57      1.1305141e+09  7.2635271e-05  5.1752884e-07  7.2117742e-05  2.8589878e+09
   3719000   3.2799374e-11  3471916.1      102069.26      1.1305113e+09  7.2635268e-05  5.1774419e-07  7.2117523e-05  2.8589833e+09
   3720000   3.2808193e-11  3471927.4      102069.33      1.1305151e+09  7.263527e-05   5.1751214e-07  7.2117758e-05  2.858987e+09 
   3721000   3.2817013e-11  3471927.6      102069.97      1.130515e+09   7.2635276e-05  5.1751251e-07  7.2117763e-05  2.8589868e+09
   3722000   3.2825832e-11  3471918.4      102066.54      1.130513e+09   7.2635275e-05  5.1770252e-07  7.2117572e-05  2.8589831e+09
   3723000   3.2834651e-11  3471918.2      102067.66      1.1305126e+09  7.2635275e-05  5.1770751e-07  7.2117568e-05  2.8589841e+09
   3724000   3.2843471e-11  3471908        102063.86      1.1305104e+09  7.2635269e-05  5.1791438e-07  7.2117355e-05  2.8589801e+09
   3725000   3.285229e-11   3471911.4      102066.9       1.1305105e+09  7.2635275e-05  5.1784902e-07  7.2117426e-05  2.8589815e+09
   3726000   3.286111e-11   3471924.8      102071.91      1.1305134e+09  7.2635275e-05  5.1756968e-07  7.2117705e-05  2.858986e+09 
   3727000   3.2869929e-11  3471919.8      102069.53      1.1305125e+09  7.2635261e-05  5.1766028e-07  7.21176e-05    2.8589828e+09
   3728000   3.2878748e-11  3471917.1      102070.04      1.1305114e+09  7.2635266e-05  5.1772223e-07  7.2117544e-05  2.858982e+09 
   3729000   3.2887568e-11  3471930.5      102073.61      1.1305147e+09  7.263526e-05   5.1743621e-07  7.2117823e-05  2.858986e+09 
   3730000   3.2896387e-11  3471927.9      102072.71      1.1305142e+09  7.2635266e-05  5.1749578e-07  7.211777e-05   2.8589852e+09
   3731000   3.2905207e-11  3471931.7      102076.32      1.1305142e+09  7.2635262e-05  5.1741453e-07  7.2117847e-05  2.8589862e+09
   3732000   3.2914026e-11  3471937.8      102080.66      1.1305148e+09  7.2635253e-05  5.1727882e-07  7.2117974e-05  2.8589879e+09
   3733000   3.2922845e-11  3471931.6      102084.19      1.1305115e+09  7.2635254e-05  5.1740828e-07  7.2117846e-05  2.8589863e+09
   3734000   3.2931665e-11  3471929.1      102084.33      1.1305106e+09  7.2635254e-05  5.1746115e-07  7.2117793e-05  2.8589852e+09
   3735000   3.2940484e-11  3471936.3      102083.37      1.1305134e+09  7.2635261e-05  5.173169e-07   7.2117944e-05  2.8589879e+09
   3736000   3.2949304e-11  3471935.4      102082.79      1.1305133e+09  7.2635263e-05  5.1733891e-07  7.2117924e-05  2.8589882e+09
   3737000   3.2958123e-11  3471924.1      102082.64      1.1305095e+09  7.2635258e-05  5.1756747e-07  7.211769e-05   2.8589846e+09
   3738000   3.2966942e-11  3471919.4      102080.91      1.1305086e+09  7.2635259e-05  5.1766648e-07  7.2117593e-05  2.8589835e+09
   3739000   3.2975762e-11  3471920.2      102080.79      1.1305089e+09  7.2635266e-05  5.176561e-07   7.211761e-05   2.8589847e+09
   3740000   3.2984581e-11  3471919.4      102079.04      1.1305092e+09  7.2635262e-05  5.1766961e-07  7.2117593e-05  2.8589843e+09
   3741000   3.2993401e-11  3471913.5      102076.06      1.1305082e+09  7.2635256e-05  5.1778603e-07  7.211747e-05   2.8589812e+09
   3742000   3.300222e-11   3471911.2      102076.09      1.1305074e+09  7.2635245e-05  5.1782223e-07  7.2117423e-05  2.8589787e+09
   3743000   3.3011039e-11  3471923.1      102080.83      1.1305098e+09  7.2635242e-05  5.1757277e-07  7.2117669e-05  2.8589812e+09
   3744000   3.3019859e-11  3471935.4      102087.88      1.1305116e+09  7.2635239e-05  5.1731463e-07  7.2117924e-05  2.8589843e+09
   3745000   3.3028678e-11  3471939.4      102090.79      1.130512e+09   7.2635241e-05  5.1723309e-07  7.2118008e-05  2.8589869e+09
   3746000   3.3037498e-11  3471930.7      102092.92      1.1305083e+09  7.2635248e-05  5.1742132e-07  7.2117827e-05  2.8589852e+09
   3747000   3.3046317e-11  3471936.9      102094.3       1.1305099e+09  7.2635256e-05  5.1729927e-07  7.2117956e-05  2.8589886e+09
   3748000   3.3055137e-11  3471936        102092.37      1.1305103e+09  7.2635259e-05  5.1732174e-07  7.2117937e-05  2.8589885e+09
   3749000   3.3063956e-11  3471931.9      102091.08      1.1305093e+09  7.2635265e-05  5.1741306e-07  7.2117852e-05  2.8589874e+09
   3750000   3.3072775e-11  3471928.7      102087.9       1.1305093e+09  7.2635265e-05  5.1748008e-07  7.2117785e-05  2.8589859e+09
   3751000   3.3081595e-11  3471918.7      102083.57      1.1305074e+09  7.2635258e-05  5.1768025e-07  7.2117578e-05  2.8589814e+09
   3752000   3.3090414e-11  3471932.3      102084.86      1.1305115e+09  7.2635253e-05  5.1739286e-07  7.211786e-05   2.858986e+09 
   3753000   3.3099234e-11  3471935.3      102085.76      1.1305123e+09  7.2635252e-05  5.1732968e-07  7.2117922e-05  2.8589864e+09
   3754000   3.3108053e-11  3471938.7      102089.29      1.1305122e+09  7.2635251e-05  5.1725833e-07  7.2117992e-05  2.8589874e+09
   3755000   3.3116872e-11  3471938.6      102087.44      1.1305128e+09  7.2635253e-05  5.1726133e-07  7.2117992e-05  2.8589873e+09
   3756000   3.3125692e-11  3471939        102089.48      1.1305123e+09  7.2635245e-05  5.1724491e-07  7.2118e-05     2.8589869e+09
   3757000   3.3134511e-11  3471938.4      102096.78      1.1305096e+09  7.2635246e-05  5.1725849e-07  7.2117988e-05  2.8589877e+09
   3758000   3.3143331e-11  3471942.8      102099.32      1.1305102e+09  7.263525e-05   5.1717149e-07  7.2118079e-05  2.8589902e+09
   3759000   3.315215e-11   3471943.8      102101.92      1.1305097e+09  7.263525e-05   5.1715079e-07  7.2118099e-05  2.8589911e+09
   3760000   3.3160969e-11  3471941        102102.79      1.1305085e+09  7.2635257e-05  5.1721637e-07  7.211804e-05   2.8589909e+09
   3761000   3.3169789e-11  3471938.2      102102.58      1.1305076e+09  7.2635256e-05  5.1727242e-07  7.2117983e-05  2.8589898e+09
   3762000   3.3178608e-11  3471936        102100.39      1.1305076e+09  7.2635249e-05  5.1731138e-07  7.2117938e-05  2.8589881e+09
   3763000   3.3187428e-11  3471945.6      102099.67      1.1305111e+09  7.2635239e-05  5.1710232e-07  7.2118137e-05  2.8589902e+09
   3764000   3.3196247e-11  3471938.9      102094.52      1.1305105e+09  7.2635233e-05  5.1723593e-07  7.2117997e-05  2.8589867e+09
   3765000   3.3205066e-11  3471941.1      102097.08      1.1305104e+09  7.2635236e-05  5.1719272e-07  7.2118043e-05  2.858988e+09 
   3766000   3.3213886e-11  3471941.7      102099.24      1.1305099e+09  7.263524e-05   5.1718414e-07  7.2118056e-05  2.858989e+09 
   3767000   3.3222705e-11  3471941.1      102099.1       1.1305097e+09  7.263524e-05   5.1719758e-07  7.2118042e-05  2.8589891e+09
   3768000   3.3231525e-11  3471937.1      102093.67      1.1305102e+09  7.2635247e-05  5.1728799e-07  7.2117959e-05  2.8589878e+09
   3769000   3.3240344e-11  3471937.3      102093.21      1.1305104e+09  7.2635253e-05  5.1728812e-07  7.2117965e-05  2.8589876e+09
   3770000   3.3249163e-11  3471928.1      102085.24      1.13051e+09    7.2635252e-05  5.1747809e-07  7.2117773e-05  2.8589839e+09
   3771000   3.3257983e-11  3471923.7      102087.06      1.1305079e+09  7.2635249e-05  5.1756726e-07  7.2117681e-05  2.8589825e+09
   3772000   3.3266802e-11  3471924.4      102086.95      1.1305082e+09  7.2635251e-05  5.1755447e-07  7.2117697e-05  2.8589828e+09
   3773000   3.3275622e-11  3471926.2      102087.48      1.1305086e+09  7.2635257e-05  5.1752415e-07  7.2117733e-05  2.8589836e+09
   3774000   3.3284441e-11  3471926.9      102087.73      1.1305088e+09  7.2635267e-05  5.1751843e-07  7.2117749e-05  2.8589854e+09
   3775000   3.3293261e-11  3471921.1      102088.55      1.1305065e+09  7.2635262e-05  5.1763468e-07  7.2117627e-05  2.8589836e+09
   3776000   3.330208e-11   3471922        102094.25      1.1305049e+09  7.2635262e-05  5.1761605e-07  7.2117646e-05  2.8589838e+09
   3777000   3.3310899e-11  3471931.5      102096.34      1.1305074e+09  7.2635265e-05  5.1742113e-07  7.2117844e-05  2.8589875e+09
   3778000   3.3319719e-11  3471925.1      102094.23      1.130506e+09   7.2635267e-05  5.175566e-07   7.211771e-05   2.8589845e+09
   3779000   3.3328538e-11  3471930        102097.65      1.1305065e+09  7.2635274e-05  5.1746215e-07  7.2117812e-05  2.8589866e+09
   3780000   3.3337358e-11  3471934.2      102103.99      1.1305058e+09  7.2635268e-05  5.1736871e-07  7.2117899e-05  2.8589883e+09
   3781000   3.3346177e-11  3471934.8      102104.52      1.1305058e+09  7.2635265e-05  5.1735268e-07  7.2117912e-05  2.8589888e+09
   3782000   3.3354996e-11  3471941.8      102108.15      1.1305069e+09  7.2635273e-05  5.17216e-07    7.2118057e-05  2.8589914e+09
   3783000   3.3363816e-11  3471945.8      102109.65      1.1305078e+09  7.2635274e-05  5.1713234e-07  7.2118141e-05  2.8589923e+09
   3784000   3.3372635e-11  3471943.8      102108.61      1.1305075e+09  7.2635262e-05  5.1716355e-07  7.2118099e-05  2.8589906e+09
   3785000   3.3381455e-11  3471934.7      102104.58      1.1305058e+09  7.2635256e-05  5.1734682e-07  7.211791e-05   2.8589869e+09
   3786000   3.3390274e-11  3471935        102103.83      1.1305061e+09  7.263526e-05   5.1734317e-07  7.2117917e-05  2.8589869e+09
   3787000   3.3399093e-11  3471933.6      102099.47      1.1305071e+09  7.2635264e-05  5.1737679e-07  7.2117887e-05  2.8589857e+09
   3788000   3.3407913e-11  3471931.8      102096.05      1.1305076e+09  7.2635262e-05  5.1741161e-07  7.211785e-05   2.8589849e+09
   3789000   3.3416732e-11  3471929.7      102097.13      1.1305066e+09  7.2635247e-05  5.1744134e-07  7.2117806e-05  2.8589832e+09
   3790000   3.3425552e-11  3471932.7      102103.87      1.1305053e+09  7.263524e-05   5.1737099e-07  7.2117869e-05  2.8589834e+09
   3791000   3.3434371e-11  3471940.9      102109.13      1.1305063e+09  7.2635239e-05  5.1720115e-07  7.2118038e-05  2.8589866e+09
   3792000   3.344319e-11   3471942.1      102113.69      1.1305052e+09  7.263524e-05   5.1717577e-07  7.2118064e-05  2.8589876e+09
   3793000   3.345201e-11   3471941.2      102105.78      1.1305075e+09  7.2635251e-05  5.1720676e-07  7.2118045e-05  2.8589884e+09
   3794000   3.3460829e-11  3471937        102105.84      1.1305061e+09  7.2635256e-05  5.1729735e-07  7.2117958e-05  2.8589881e+09
   3795000   3.3469649e-11  3471928.7      102102.63      1.1305044e+09  7.263526e-05   5.1747456e-07  7.2117785e-05  2.8589861e+09
   3796000   3.3478468e-11  3471919.8      102100.39      1.1305022e+09  7.2635263e-05  5.1766153e-07  7.2117601e-05  2.8589832e+09
   3797000   3.3487287e-11  3471929.6      102101.06      1.1305052e+09  7.2635265e-05  5.1746034e-07  7.2117805e-05  2.858987e+09 
   3798000   3.3496107e-11  3471921.9      102096.84      1.130504e+09   7.2635261e-05  5.1761766e-07  7.2117644e-05  2.8589839e+09
   3799000   3.3504926e-11  3471920.5      102097.99      1.1305032e+09  7.2635264e-05  5.1764835e-07  7.2117616e-05  2.8589839e+09
   3800000   3.3513746e-11  3471919.9      102092.01      1.130505e+09   7.2635261e-05  5.1765752e-07  7.2117604e-05  2.8589833e+09
   3801000   3.3522565e-11  3471928.9      102091.57      1.1305082e+09  7.2635257e-05  5.1746675e-07  7.211779e-05   2.8589858e+09
   3802000   3.3531384e-11  3471932.8      102099.01      1.130507e+09   7.2635263e-05  5.1739181e-07  7.2117871e-05  2.8589875e+09
   3803000   3.3540204e-11  3471927.1      102100.09      1.1305047e+09  7.2635259e-05  5.1750588e-07  7.2117753e-05  2.8589853e+09
   3804000   3.3549023e-11  3471929.7      102100.71      1.1305054e+09  7.2635254e-05  5.1744836e-07  7.2117806e-05  2.8589867e+09
   3805000   3.3557843e-11  3471921.1      102095.44      1.1305043e+09  7.263525e-05   5.1762195e-07  7.2117628e-05  2.858984e+09 
   3806000   3.3566662e-11  3471911.6      102095.5       1.130501e+09   7.2635245e-05  5.1781438e-07  7.211743e-05   2.8589808e+09
   3807000   3.3575482e-11  3471912.8      102090.07      1.1305033e+09  7.2635249e-05  5.1779408e-07  7.2117455e-05  2.8589808e+09
   3808000   3.3584301e-11  3471919.8      102090.13      1.1305056e+09  7.2635247e-05  5.1764656e-07  7.21176e-05    2.8589823e+09
   3809000   3.359312e-11   3471919        102089.23      1.1305056e+09  7.2635255e-05  5.1767089e-07  7.2117584e-05  2.8589827e+09
   3810000   3.360194e-11   3471907.1      102090.03      1.1305014e+09  7.2635251e-05  5.1791338e-07  7.2117338e-05  2.858979e+09 
   3811000   3.3610759e-11  3471913.2      102091.78      1.1305028e+09  7.2635247e-05  5.1778281e-07  7.2117464e-05  2.8589814e+09
   3812000   3.3619579e-11  3471920.7      102090.21      1.1305059e+09  7.2635259e-05  5.1763953e-07  7.2117619e-05  2.8589846e+09
   3813000   3.3628398e-11  3471914.8      102086.63      1.1305051e+09  7.2635264e-05  5.1776766e-07  7.2117496e-05  2.8589827e+09
   3814000   3.3637217e-11  3471910.9      102089.23      1.1305029e+09  7.2635265e-05  5.1785002e-07  7.2117415e-05  2.8589819e+09
   3815000   3.3646037e-11  3471916        102091.24      1.130504e+09   7.2635258e-05  5.1773585e-07  7.2117522e-05  2.8589833e+09
   3816000   3.3654856e-11  3471913.9      102092.95      1.1305027e+09  7.2635266e-05  5.1778781e-07  7.2117479e-05  2.8589831e+09
   3817000   3.3663676e-11  3471916.4      102094.49      1.130503e+09   7.2635263e-05  5.1773325e-07  7.211753e-05   2.8589839e+09
   3818000   3.3672495e-11  3471913.9      102094.4       1.1305022e+09  7.2635262e-05  5.1778342e-07  7.2117478e-05  2.858983e+09 
   3819000   3.3681314e-11  3471911.5      102093.33      1.1305017e+09  7.2635257e-05  5.1782791e-07  7.2117429e-05  2.858982e+09 
   3820000   3.3690134e-11  3471909.9      102095.89      1.1305004e+09  7.2635265e-05  5.1786938e-07  7.2117396e-05  2.8589821e+09
   3821000   3.3698953e-11  3471915.1      102100.31      1.1305006e+09  7.263527e-05   5.1776599e-07  7.2117504e-05  2.8589841e+09
   3822000   3.3707773e-11  3471919        102098.33      1.1305026e+09  7.2635266e-05  5.1768116e-07  7.2117585e-05  2.8589848e+09
   3823000   3.3716592e-11  3471918.1      102103.03      1.1305007e+09  7.2635257e-05  5.1769144e-07  7.2117566e-05  2.8589831e+09
   3824000   3.3725411e-11  3471920.1      102103.55      1.1305012e+09  7.2635256e-05  5.1764852e-07  7.2117608e-05  2.8589836e+09
   3825000   3.3734231e-11  3471920.3      102105.38      1.1305006e+09  7.2635254e-05  5.1764364e-07  7.211761e-05   2.8589831e+09
   3826000   3.374305e-11   3471925.9      102106.72      1.1305021e+09  7.2635258e-05  5.1753158e-07  7.2117726e-05  2.8589856e+09
   3827000   3.375187e-11   3471923.7      102103.11      1.1305026e+09  7.2635256e-05  5.1757467e-07  7.2117681e-05  2.8589848e+09
   3828000   3.3760689e-11  3471917.6      102104.03      1.1305002e+09  7.2635256e-05  5.1770077e-07  7.2117555e-05  2.8589832e+09
   3829000   3.3769508e-11  3471917.4      102103.38      1.1305004e+09  7.2635265e-05  5.1771341e-07  7.2117552e-05  2.8589842e+09
   3830000   3.3778328e-11  3471920.5      102102.97      1.1305015e+09  7.2635269e-05  5.176536e-07   7.2117616e-05  2.8589856e+09
   3831000   3.3787147e-11  3471920.9      102104.5       1.1305012e+09  7.2635271e-05  5.1764713e-07  7.2117624e-05  2.8589856e+09
   3832000   3.3795967e-11  3471926.9      102105.35      1.1305029e+09  7.2635262e-05  5.1751338e-07  7.2117749e-05  2.8589861e+09
   3833000   3.3804786e-11  3471922.5      102104.89      1.1305016e+09  7.2635267e-05  5.176105e-07   7.2117656e-05  2.8589838e+09
   3834000   3.3813606e-11  3471928.2      102109.69      1.1305019e+09  7.2635267e-05  5.174921e-07   7.2117775e-05  2.8589868e+09
   3835000   3.3822425e-11  3471927.9      102114.75      1.1305001e+09  7.2635267e-05  5.1749733e-07  7.2117769e-05  2.8589877e+09
   3836000   3.3831244e-11  3471926.6      102114.34      1.1304998e+09  7.2635274e-05  5.1753197e-07  7.2117742e-05  2.8589882e+09
   3837000   3.3840064e-11  3471922.2      102114.2       1.1304983e+09  7.2635277e-05  5.1762653e-07  7.211765e-05   2.8589867e+09
   3838000   3.3848883e-11  3471924.1      102114.27      1.130499e+09   7.263528e-05   5.1759024e-07  7.211769e-05   2.8589878e+09
   3839000   3.3857703e-11  3471931.8      102118.21      1.1305002e+09  7.2635276e-05  5.1742606e-07  7.211785e-05   2.8589904e+09
   3840000   3.3866522e-11  3471929.2      102117.45      1.1304996e+09  7.2635284e-05  5.1748935e-07  7.2117795e-05  2.8589904e+09
   3841000   3.3875341e-11  3471931.3      102117.66      1.1305002e+09  7.2635283e-05  5.1744289e-07  7.211784e-05   2.8589911e+09
   3842000   3.3884161e-11  3471922.3      102114.96      1.1304981e+09  7.263528e-05   5.1762613e-07  7.2117654e-05  2.8589872e+09
   3843000   3.389298e-11   3471916.9      102109.48      1.1304981e+09  7.2635282e-05  5.177417e-07   7.211754e-05   2.8589855e+09
   3844000   3.39018e-11    3471911.1      102108.51      1.1304965e+09  7.2635278e-05  5.178575e-07   7.211742e-05   2.8589833e+09
   3845000   3.3910619e-11  3471921.5      102110.74      1.1304993e+09  7.2635279e-05  5.1764378e-07  7.2117635e-05  2.8589873e+09
   3846000   3.3919438e-11  3471924.4      102115.49      1.1304987e+09  7.2635274e-05  5.175774e-07   7.2117696e-05  2.8589874e+09
   3847000   3.3928258e-11  3471933.2      102119.11      1.1305004e+09  7.2635276e-05  5.1739727e-07  7.2117878e-05  2.8589902e+09
   3848000   3.3937077e-11  3471925.3      102116.92      1.1304985e+09  7.2635285e-05  5.1757027e-07  7.2117714e-05  2.8589878e+09
   3849000   3.3945897e-11  3471931.8      102114.68      1.1305014e+09  7.2635287e-05  5.1743652e-07  7.2117851e-05  2.8589902e+09
   3850000   3.3954716e-11  3471931.9      102120.82      1.1304994e+09  7.2635279e-05  5.1742811e-07  7.2117851e-05  2.8589893e+09
   3851000   3.3963535e-11  3471937.6      102125.37      1.1304998e+09  7.2635275e-05  5.1730449e-07  7.2117971e-05  2.8589909e+09
   3852000   3.3972355e-11  3471945.5      102130.21      1.1305008e+09  7.2635283e-05  5.1714831e-07  7.2118135e-05  2.8589944e+09
   3853000   3.3981174e-11  3471940.1      102131.02      1.1304987e+09  7.2635281e-05  5.1725945e-07  7.2118022e-05  2.8589923e+09
   3854000   3.3989994e-11  3471939.8      102131.52      1.1304985e+09  7.2635286e-05  5.1727046e-07  7.2118016e-05  2.8589929e+09
   3855000   3.3998813e-11  3471939        102127.77      1.1304994e+09  7.263529e-05   5.172908e-07   7.2117999e-05  2.8589929e+09
   3856000   3.4007632e-11  3471933.5      102128.97      1.1304972e+09  7.2635288e-05  5.1740349e-07  7.2117885e-05  2.8589913e+09
   3857000   3.4016452e-11  3471937        102128.4       1.1304986e+09  7.2635287e-05  5.1732838e-07  7.2117959e-05  2.8589926e+09
   3858000   3.4025271e-11  3471929        102122.96      1.1304977e+09  7.263528e-05   5.1748891e-07  7.2117791e-05  2.8589885e+09
   3859000   3.4034091e-11  3471934.9      102127.46      1.1304982e+09  7.2635286e-05  5.1737168e-07  7.2117914e-05  2.8589912e+09
   3860000   3.404291e-11   3471938.9      102129.6       1.1304988e+09  7.2635284e-05  5.1728669e-07  7.2117997e-05  2.8589924e+09
   3861000   3.4051729e-11  3471933.4      102125.69      1.1304983e+09  7.2635287e-05  5.1740338e-07  7.2117884e-05  2.8589908e+09
   3862000   3.4060549e-11  3471920.8      102121.44      1.1304955e+09  7.2635288e-05  5.1766684e-07  7.2117621e-05  2.8589865e+09
   3863000   3.4069368e-11  3471923.7      102117.09      1.1304979e+09  7.2635288e-05  5.1760639e-07  7.2117681e-05  2.8589875e+09
   3864000   3.4078188e-11  3471915.8      102115.09      1.1304959e+09  7.26353e-05    5.1778118e-07  7.2117519e-05  2.8589849e+09
   3865000   3.4087007e-11  3471922.5      102115.99      1.1304979e+09  7.2635301e-05  5.176445e-07   7.2117657e-05  2.8589883e+09
   3866000   3.4095827e-11  3471921        102122.4       1.1304952e+09  7.2635304e-05  5.176789e-07   7.2117625e-05  2.8589884e+09
   3867000   3.4104646e-11  3471918.9      102122.58      1.1304945e+09  7.2635304e-05  5.1772094e-07  7.2117583e-05  2.8589869e+09
   3868000   3.4113465e-11  3471929.3      102119.75      1.1304989e+09  7.2635299e-05  5.1750081e-07  7.2117798e-05  2.8589896e+09
   3869000   3.4122285e-11  3471924.7      102114.77      1.130499e+09   7.2635305e-05  5.1760304e-07  7.2117702e-05  2.8589882e+09
   3870000   3.4131104e-11  3471917.7      102113.61      1.1304971e+09  7.2635298e-05  5.1773983e-07  7.2117558e-05  2.8589861e+09
   3871000   3.4139924e-11  3471925.3      102118.24      1.130498e+09   7.2635292e-05  5.1757694e-07  7.2117715e-05  2.8589893e+09
   3872000   3.4148743e-11  3471925        102121.21      1.130497e+09   7.2635295e-05  5.1758562e-07  7.2117709e-05  2.8589894e+09
   3873000   3.4157562e-11  3471932.3      102128.61      1.1304969e+09  7.2635289e-05  5.1742919e-07  7.2117859e-05  2.8589912e+09
   3874000   3.4166382e-11  3471937.2      102129.8       1.1304982e+09  7.2635289e-05  5.1732674e-07  7.2117962e-05  2.8589926e+09
   3875000   3.4175201e-11  3471942.2      102134.02      1.1304984e+09  7.2635275e-05  5.172103e-07   7.2118065e-05  2.8589934e+09
   3876000   3.4184021e-11  3471940.1      102130.64      1.1304989e+09  7.2635271e-05  5.1724861e-07  7.2118022e-05  2.858992e+09 
   3877000   3.419284e-11   3471930.1      102125.25      1.1304973e+09  7.2635279e-05  5.1746301e-07  7.2117816e-05  2.8589889e+09
   3878000   3.4201659e-11  3471918.7      102118.35      1.1304958e+09  7.2635276e-05  5.1769736e-07  7.2117579e-05  2.8589846e+09
   3879000   3.4210479e-11  3471918.2      102118.95      1.1304954e+09  7.2635272e-05  5.1770531e-07  7.2117567e-05  2.8589842e+09
   3880000   3.4219298e-11  3471918        102114.94      1.1304967e+09  7.2635268e-05  5.1770482e-07  7.2117563e-05  2.8589837e+09
   3881000   3.4228118e-11  3471927.2      102112.71      1.1305005e+09  7.2635268e-05  5.1751455e-07  7.2117753e-05  2.8589864e+09
   3882000   3.4236937e-11  3471930.2      102127.98      1.1304964e+09  7.2635267e-05  5.1745113e-07  7.2117816e-05  2.858987e+09 
   3883000   3.4245756e-11  3471930.5      102129.52      1.130496e+09   7.2635267e-05  5.1744391e-07  7.2117823e-05  2.8589873e+09
   3884000   3.4254576e-11  3471928.9      102130.63      1.1304951e+09  7.2635267e-05  5.1747778e-07  7.2117789e-05  2.8589868e+09
   3885000   3.4263395e-11  3471933.5      102130.6       1.1304967e+09  7.2635271e-05  5.1738525e-07  7.2117886e-05  2.8589887e+09
   3886000   3.4272215e-11  3471934.6      102131.8       1.1304966e+09  7.2635267e-05  5.1735925e-07  7.2117907e-05  2.8589883e+09
   3887000   3.4281034e-11  3471931.9      102134.01      1.130495e+09   7.2635274e-05  5.1742136e-07  7.2117852e-05  2.8589878e+09
   3888000   3.4289853e-11  3471939.8      102134.6       1.1304974e+09  7.2635266e-05  5.1725081e-07  7.2118015e-05  2.8589904e+09
   3889000   3.4298673e-11  3471935.5      102133.92      1.1304962e+09  7.2635272e-05  5.1734498e-07  7.2117927e-05  2.8589896e+09
   3890000   3.4307492e-11  3471930.3      102131.58      1.1304952e+09  7.2635278e-05  5.1746043e-07  7.2117818e-05  2.8589879e+09
   3891000   3.4316312e-11  3471935.5      102134.05      1.1304962e+09  7.2635273e-05  5.1734611e-07  7.2117927e-05  2.8589893e+09
   3892000   3.4325131e-11  3471935.7      102133.49      1.1304964e+09  7.2635281e-05  5.1735019e-07  7.211793e-05   2.8589897e+09
   3893000   3.4333951e-11  3471927.3      102130.37      1.1304947e+09  7.2635273e-05  5.1751544e-07  7.2117757e-05  2.858986e+09 
   3894000   3.434277e-11   3471927.1      102129.81      1.1304948e+09  7.2635275e-05  5.1752246e-07  7.2117753e-05  2.8589863e+09
   3895000   3.4351589e-11  3471934.6      102137.75      1.1304946e+09  7.2635274e-05  5.1736657e-07  7.2117907e-05  2.8589888e+09
   3896000   3.4360409e-11  3471943.2      102138.28      1.1304974e+09  7.2635274e-05  5.1718571e-07  7.2118088e-05  2.8589919e+09
   3897000   3.4369228e-11  3471934.6      102142.15      1.1304932e+09  7.2635272e-05  5.173639e-07   7.2117908e-05  2.8589888e+09
   3898000   3.4378048e-11  3471947.5      102148.42      1.1304954e+09  7.2635277e-05  5.1710214e-07  7.2118175e-05  2.8589939e+09
   3899000   3.4386867e-11  3471935.7      102145.61      1.1304924e+09  7.2635273e-05  5.1734088e-07  7.2117932e-05  2.8589892e+09
   3900000   3.4395686e-11  3471935.2      102141.38      1.1304936e+09  7.2635265e-05  5.1734491e-07  7.211792e-05   2.8589886e+09
   3901000   3.4404506e-11  3471935.4      102145.2       1.1304924e+09  7.2635266e-05  5.1734029e-07  7.2117925e-05  2.8589887e+09
   3902000   3.4413325e-11  3471946.2      102152.59      1.1304936e+09  7.2635264e-05  5.1711577e-07  7.2118149e-05  2.8589928e+09
   3903000   3.4422145e-11  3471948.1      102157.48      1.1304926e+09  7.2635268e-05  5.170787e-07   7.2118189e-05  2.8589936e+09
   3904000   3.4430964e-11  3471940.6      102155.45      1.1304907e+09  7.2635269e-05  5.172376e-07   7.2118032e-05  2.8589911e+09
   3905000   3.4439783e-11  3471937.8      102152.21      1.1304909e+09  7.2635279e-05  5.1730544e-07  7.2117974e-05  2.8589907e+09
   3906000   3.4448603e-11  3471937        102151.07      1.130491e+09   7.2635272e-05  5.1731298e-07  7.2117959e-05  2.8589899e+09
   3907000   3.4457422e-11  3471939.9      102153.06      1.1304913e+09  7.2635284e-05  5.1726601e-07  7.2118018e-05  2.8589925e+09
   3908000   3.4466242e-11  3471941.9      102155.55      1.1304911e+09  7.2635295e-05  5.1723572e-07  7.211806e-05   2.8589947e+09
   3909000   3.4475061e-11  3471933.6      102154.77      1.1304886e+09  7.2635292e-05  5.1740527e-07  7.2117887e-05  2.858992e+09 
   3910000   3.448388e-11   3471932.9      102152.08      1.1304893e+09  7.2635292e-05  5.1741966e-07  7.2117872e-05  2.8589917e+09
   3911000   3.44927e-11    3471927        102146.9       1.130489e+09   7.2635283e-05  5.1753221e-07  7.211775e-05   2.8589882e+09
   3912000   3.4501519e-11  3471930        102144.7       1.1304908e+09  7.2635273e-05  5.1746136e-07  7.2117812e-05  2.8589882e+09
   3913000   3.4510339e-11  3471924.4      102143.27      1.1304894e+09  7.2635269e-05  5.1757294e-07  7.2117696e-05  2.8589853e+09
   3914000   3.4519158e-11  3471924.7      102144.15      1.1304892e+09  7.2635267e-05  5.1756464e-07  7.2117702e-05  2.8589849e+09
   3915000   3.4527977e-11  3471934.5      102148.58      1.130491e+09   7.2635281e-05  5.1737489e-07  7.2117906e-05  2.8589898e+09
   3916000   3.4536797e-11  3471928.6      102150.2       1.1304885e+09  7.2635283e-05  5.1749905e-07  7.2117784e-05  2.8589876e+09
   3917000   3.4545616e-11  3471932.1      102149         1.13049e+09    7.263528e-05   5.174238e-07   7.2117857e-05  2.8589893e+09
   3918000   3.4554436e-11  3471907.9      102147.35      1.1304825e+09  7.2635274e-05  5.1792015e-07  7.2117354e-05  2.8589788e+09
   3919000   3.4563255e-11  3471931.4      102151.84      1.1304888e+09  7.263527e-05   5.1742912e-07  7.2117841e-05  2.8589871e+09
   3920000   3.4572074e-11  3471932.4      102154.12      1.1304884e+09  7.2635277e-05  5.1741465e-07  7.2117863e-05  2.8589875e+09
   3921000   3.4580894e-11  3471933.3      102155.9       1.1304881e+09  7.2635278e-05  5.1739671e-07  7.2117881e-05  2.8589882e+09
   3922000   3.4589713e-11  3471938.5      102159.38      1.1304887e+09  7.2635269e-05  5.172791e-07   7.211799e-05   2.8589896e+09
   3923000   3.4598533e-11  3471942.6      102163.78      1.1304886e+09  7.2635283e-05  5.1720924e-07  7.2118073e-05  2.8589919e+09
   3924000   3.4607352e-11  3471944.9      102168.23      1.1304879e+09  7.2635283e-05  5.1716106e-07  7.2118122e-05  2.8589927e+09
   3925000   3.4616172e-11  3471951.6      102168.31      1.1304901e+09  7.2635281e-05  5.170195e-07   7.2118261e-05  2.8589949e+09
   3926000   3.4624991e-11  3471948.9      102167.92      1.1304893e+09  7.2635286e-05  5.1708103e-07  7.2118205e-05  2.8589942e+09
   3927000   3.463381e-11   3471939.3      102166.18      1.1304867e+09  7.2635282e-05  5.1727561e-07  7.2118006e-05  2.8589905e+09
   3928000   3.464263e-11   3471938.3      102165.02      1.1304867e+09  7.2635273e-05  5.1728858e-07  7.2117984e-05  2.8589901e+09
   3929000   3.4651449e-11  3471936.6      102163.43      1.1304867e+09  7.2635275e-05  5.17325e-07    7.211795e-05   2.8589899e+09
   3930000   3.4660269e-11  3471943.4      102164.36      1.1304887e+09  7.2635268e-05  5.1717775e-07  7.2118091e-05  2.8589913e+09
   3931000   3.4669088e-11  3471940.7      102161.83      1.1304886e+09  7.2635264e-05  5.1723042e-07  7.2118034e-05  2.8589896e+09
   3932000   3.4677907e-11  3471931.1      102157.2       1.1304869e+09  7.263527e-05   5.1743513e-07  7.2117835e-05  2.8589865e+09
   3933000   3.4686727e-11  3471929.1      102153.81      1.1304874e+09  7.2635278e-05  5.1748376e-07  7.2117794e-05  2.8589869e+09
   3934000   3.4695546e-11  3471923.5      102150.35      1.1304867e+09  7.2635274e-05  5.1759576e-07  7.2117678e-05  2.8589852e+09
   3935000   3.4704366e-11  3471926.8      102147.91      1.1304886e+09  7.263528e-05   5.1753422e-07  7.2117746e-05  2.858987e+09 
   3936000   3.4713185e-11  3471932.6      102155.66      1.130488e+09   7.2635288e-05  5.1742097e-07  7.2117867e-05  2.8589894e+09
   3937000   3.4722004e-11  3471930.7      102155.47      1.1304874e+09  7.2635287e-05  5.1745919e-07  7.2117828e-05  2.8589886e+09
   3938000   3.4730824e-11  3471929.4      102155.79      1.1304868e+09  7.2635279e-05  5.1747972e-07  7.2117799e-05  2.8589876e+09
   3939000   3.4739643e-11  3471925.5      102156.9       1.1304852e+09  7.2635274e-05  5.175543e-07   7.211772e-05   2.8589857e+09
   3940000   3.4748463e-11  3471937.5      102157.35      1.130489e+09   7.2635275e-05  5.173073e-07   7.2117967e-05  2.8589899e+09
   3941000   3.4757282e-11  3471939.4      102159.41      1.130489e+09   7.2635274e-05  5.1726532e-07  7.2118008e-05  2.8589902e+09
   3942000   3.4766101e-11  3471935.9      102156.67      1.1304888e+09  7.2635276e-05  5.1734025e-07  7.2117936e-05  2.8589893e+09
   3943000   3.4774921e-11  3471936.8      102160.12      1.1304879e+09  7.2635275e-05  5.1732062e-07  7.2117954e-05  2.8589901e+09
   3944000   3.478374e-11   3471933.3      102161.42      1.1304863e+09  7.2635266e-05  5.1738571e-07  7.2117881e-05  2.858988e+09 
   3945000   3.479256e-11   3471933.7      102159.33      1.1304871e+09  7.263527e-05   5.1738139e-07  7.2117889e-05  2.8589881e+09
   3946000   3.4801379e-11  3471935.9      102159.49      1.1304878e+09  7.2635274e-05  5.1734004e-07  7.2117934e-05  2.8589894e+09
   3947000   3.4810198e-11  3471937.2      102166.9       1.1304858e+09  7.2635274e-05  5.1731255e-07  7.2117962e-05  2.8589907e+09
   3948000   3.4819018e-11  3471931.5      102162.84      1.1304852e+09  7.2635279e-05  5.1743505e-07  7.2117843e-05  2.8589887e+09
   3949000   3.4827837e-11  3471934.4      102163.53      1.1304859e+09  7.2635276e-05  5.1737186e-07  7.2117904e-05  2.8589896e+09
   3950000   3.4836657e-11  3471933.4      102163.16      1.1304857e+09  7.2635277e-05  5.1739339e-07  7.2117884e-05  2.8589897e+09
   3951000   3.4845476e-11  3471925.8      102159.46      1.1304844e+09  7.263528e-05   5.1755514e-07  7.2117725e-05  2.858987e+09 
   3952000   3.4854296e-11  3471921.3      102154.86      1.1304845e+09  7.2635289e-05  5.1765595e-07  7.2117633e-05  2.8589858e+09
   3953000   3.4863115e-11  3471920.1      102159.36      1.1304825e+09  7.2635293e-05  5.1768741e-07  7.2117606e-05  2.8589858e+09
   3954000   3.4871934e-11  3471935.7      102164.31      1.1304861e+09  7.2635287e-05  5.1735598e-07  7.2117931e-05  2.8589909e+09
   3955000   3.4880754e-11  3471938.1      102166.82      1.1304861e+09  7.2635287e-05  5.1730541e-07  7.2117981e-05  2.8589911e+09
   3956000   3.4889573e-11  3471943.9      102171.47      1.1304865e+09  7.2635285e-05  5.171846e-07   7.21181e-05    2.8589922e+09
   3957000   3.4898393e-11  3471939.2      102170.61      1.1304852e+09  7.2635286e-05  5.1728266e-07  7.2118003e-05  2.8589898e+09
   3958000   3.4907212e-11  3471943.1      102174.01      1.1304853e+09  7.2635279e-05  5.171945e-07   7.2118084e-05  2.858991e+09 
   3959000   3.4916031e-11  3471940.5      102174.03      1.1304845e+09  7.263528e-05   5.1724924e-07  7.2118031e-05  2.8589909e+09
   3960000   3.4924851e-11  3471937.7      102173         1.1304839e+09  7.2635284e-05  5.1731169e-07  7.2117972e-05  2.8589902e+09
   3961000   3.493367e-11   3471931.3      102165.79      1.1304841e+09  7.2635291e-05  5.1745187e-07  7.2117839e-05  2.858988e+09 
   3962000   3.494249e-11   3471929.2      102164.85      1.1304838e+09  7.2635283e-05  5.1748689e-07  7.2117796e-05  2.8589867e+09
   3963000   3.4951309e-11  3471926.6      102165.01      1.1304828e+09  7.2635276e-05  5.1753351e-07  7.2117743e-05  2.8589849e+09
   3964000   3.4960128e-11  3471927.6      102162.85      1.1304839e+09  7.2635279e-05  5.1751656e-07  7.2117763e-05  2.8589849e+09
   3965000   3.4968948e-11  3471936.6      102170.31      1.1304844e+09  7.2635271e-05  5.1732204e-07  7.2117949e-05  2.8589878e+09
   3966000   3.4977767e-11  3471938.5      102170.86      1.1304849e+09  7.2635266e-05  5.1727719e-07  7.2117989e-05  2.8589881e+09
   3967000   3.4986587e-11  3471936.2      102168.4       1.1304849e+09  7.2635267e-05  5.1732468e-07  7.2117942e-05  2.8589868e+09
   3968000   3.4995406e-11  3471933.1      102171.08      1.130483e+09   7.2635266e-05  5.1739024e-07  7.2117876e-05  2.8589855e+09
   3969000   3.5004225e-11  3471937.7      102169.58      1.130485e+09   7.2635265e-05  5.1729304e-07  7.2117972e-05  2.8589871e+09
   3970000   3.5013045e-11  3471940.8      102176.31      1.1304838e+09  7.263527e-05   5.1723367e-07  7.2118036e-05  2.8589888e+09
   3971000   3.5021864e-11  3471940.4      102177.81      1.1304832e+09  7.2635273e-05  5.1724445e-07  7.2118028e-05  2.858989e+09 
   3972000   3.5030684e-11  3471949.2      102179.94      1.1304854e+09  7.2635274e-05  5.1706274e-07  7.2118211e-05  2.8589925e+09
   3973000   3.5039503e-11  3471948.3      102178         1.1304858e+09  7.2635278e-05  5.1708632e-07  7.2118192e-05  2.8589928e+09
   3974000   3.5048322e-11  3471942        102172.19      1.1304856e+09  7.2635282e-05  5.1721973e-07  7.2118063e-05  2.8589912e+09
   3975000   3.5057142e-11  3471928.6      102168.88      1.1304822e+09  7.2635287e-05  5.1750308e-07  7.2117784e-05  2.8589871e+09
   3976000   3.5065961e-11  3471925.9      102167.45      1.1304818e+09  7.2635284e-05  5.1755693e-07  7.2117727e-05  2.8589866e+09
   3977000   3.5074781e-11  3471923.6      102161.68      1.130483e+09   7.2635272e-05  5.1759135e-07  7.211768e-05   2.8589846e+09
   3978000   3.50836e-11    3471917.5      102158.92      1.1304818e+09  7.2635274e-05  5.1772087e-07  7.2117553e-05  2.8589824e+09
   3979000   3.5092419e-11  3471919.3      102154.36      1.1304839e+09  7.2635276e-05  5.1768605e-07  7.211759e-05   2.858983e+09 
   3980000   3.5101239e-11  3471923        102158.26      1.1304839e+09  7.2635273e-05  5.176055e-07   7.2117667e-05  2.8589842e+09
   3981000   3.5110058e-11  3471916.4      102155.88      1.1304825e+09  7.2635272e-05  5.177415e-07   7.211753e-05   2.8589819e+09
   3982000   3.5118878e-11  3471929.7      102159.83      1.1304856e+09  7.263527e-05   5.1746351e-07  7.2117807e-05  2.8589866e+09
   3983000   3.5127697e-11  3471926.9      102162.03      1.1304839e+09  7.2635272e-05  5.1752306e-07  7.2117749e-05  2.8589857e+09
   3984000   3.5136517e-11  3471921.9      102164.05      1.1304816e+09  7.2635275e-05  5.1763074e-07  7.2117644e-05  2.8589841e+09
   3985000   3.5145336e-11  3471930.5      102166.95      1.1304835e+09  7.2635275e-05  5.1745279e-07  7.2117822e-05  2.8589874e+09
   3986000   3.5154155e-11  3471935.8      102165.99      1.1304856e+09  7.2635268e-05  5.1733566e-07  7.2117932e-05  2.8589894e+09
   3987000   3.5162975e-11  3471921.8      102161.35      1.1304824e+09  7.2635271e-05  5.1763002e-07  7.2117641e-05  2.8589854e+09
   3988000   3.5171794e-11  3471913.4      102160.9       1.1304798e+09  7.263527e-05   5.1780127e-07  7.2117469e-05  2.8589828e+09
   3989000   3.5180614e-11  3471924.1      102162.72      1.1304828e+09  7.2635263e-05  5.1757217e-07  7.2117691e-05  2.8589859e+09
   3990000   3.5189433e-11  3471918.7      102158.21      1.1304825e+09  7.2635263e-05  5.1768488e-07  7.2117578e-05  2.858983e+09 
   3991000   3.5198252e-11  3471909.6      102155.93      1.1304802e+09  7.2635267e-05  5.1787738e-07  7.211739e-05   2.8589793e+09
   3992000   3.5207072e-11  3471917        102159.21      1.1304816e+09  7.2635267e-05  5.1772433e-07  7.2117543e-05  2.8589822e+09
   3993000   3.5215891e-11  3471907.8      102154.66      1.13048e+09    7.2635265e-05  5.1791391e-07  7.2117351e-05  2.8589788e+09
   3994000   3.5224711e-11  3471907.1      102154.62      1.1304798e+09  7.2635265e-05  5.1792876e-07  7.2117337e-05  2.8589788e+09
   3995000   3.523353e-11   3471909.8      102156.75      1.1304799e+09  7.2635268e-05  5.178756e-07   7.2117392e-05  2.8589798e+09
   3996000   3.5242349e-11  3471905.7      102156         1.1304788e+09  7.2635276e-05  5.1796695e-07  7.2117309e-05  2.8589789e+09
   3997000   3.5251169e-11  3471910.4      102161.21      1.1304787e+09  7.2635287e-05  5.1788192e-07  7.2117405e-05  2.8589815e+09
   3998000   3.5259988e-11  3471925.6      102163.26      1.1304831e+09  7.2635285e-05  5.1756453e-07  7.211772e-05   2.8589872e+09
   3999000   3.5268808e-11  3471919.5      102164.97      1.1304805e+09  7.2635288e-05  5.176939e-07   7.2117594e-05  2.8589854e+09
   4000000   3.5277627e-11  3471920.9      102166.46      1.1304804e+09  7.2635282e-05  5.1765768e-07  7.2117624e-05  2.8589846e+09
   4001000   3.5286446e-11  3471927.1      102170.26      1.1304812e+09  7.2635274e-05  5.1752291e-07  7.2117752e-05  2.8589857e+09
   4002000   3.5295266e-11  3471932.6      102172.14      1.1304825e+09  7.263527e-05   5.17403e-07    7.2117867e-05  2.858987e+09 
   4003000   3.5304085e-11  3471938.5      102177.4       1.1304827e+09  7.2635282e-05  5.1729249e-07  7.2117989e-05  2.8589903e+09
   4004000   3.5312905e-11  3471923        102172.69      1.1304791e+09  7.2635274e-05  5.1760621e-07  7.2117668e-05  2.8589839e+09
   4005000   3.5321724e-11  3471926.8      102169.55      1.1304814e+09  7.2635273e-05  5.1752794e-07  7.2117745e-05  2.8589852e+09
   4006000   3.5330543e-11  3471926.2      102170.26      1.1304809e+09  7.2635278e-05  5.1754406e-07  7.2117734e-05  2.8589851e+09
   4007000   3.5339363e-11  3471930.9      102172.65      1.1304817e+09  7.263527e-05   5.1743833e-07  7.2117832e-05  2.858986e+09 
   4008000   3.5348182e-11  3471929.2      102172.44      1.1304812e+09  7.2635269e-05  5.1747264e-07  7.2117797e-05  2.8589856e+09
   4009000   3.5357002e-11  3471928.1      102174.19      1.1304803e+09  7.2635265e-05  5.1749194e-07  7.2117773e-05  2.8589851e+09
   4010000   3.5365821e-11  3471928.9      102178.66      1.130479e+09   7.2635267e-05  5.1747661e-07  7.211779e-05   2.8589854e+09
   4011000   3.5374641e-11  3471930.2      102177.52      1.1304799e+09  7.2635272e-05  5.1745607e-07  7.2117816e-05  2.8589859e+09
   4012000   3.538346e-11   3471930.9      102178.18      1.1304799e+09  7.2635264e-05  5.1743296e-07  7.2117831e-05  2.8589854e+09
   4013000   3.5392279e-11  3471932.7      102175.17      1.1304815e+09  7.2635268e-05  5.1740002e-07  7.2117868e-05  2.8589863e+09
   4014000   3.5401099e-11  3471923.5      102173.74      1.1304789e+09  7.2635272e-05  5.1759339e-07  7.2117678e-05  2.8589835e+09
   4015000   3.5409918e-11  3471915.8      102170.45      1.1304774e+09  7.2635265e-05  5.177484e-07   7.2117517e-05  2.8589805e+09
   4016000   3.5418738e-11  3471919.8      102172.66      1.130478e+09   7.2635271e-05  5.1766922e-07  7.2117602e-05  2.8589827e+09
   4017000   3.5427557e-11  3471915        102170.75      1.130477e+09   7.2635262e-05  5.1776096e-07  7.2117501e-05  2.8589799e+09
   4018000   3.5436376e-11  3471923.5      102173.58      1.1304789e+09  7.263526e-05   5.175826e-07   7.2117677e-05  2.8589826e+09
   4019000   3.5445196e-11  3471929.9      102180.18      1.1304789e+09  7.2635262e-05  5.1745201e-07  7.211781e-05   2.8589849e+09
   4020000   3.5454015e-11  3471938.1      102183.47      1.1304805e+09  7.2635264e-05  5.1728342e-07  7.211798e-05   2.8589882e+09
   4021000   3.5462835e-11  3471941.4      102184.3       1.1304813e+09  7.2635263e-05  5.1721385e-07  7.2118049e-05  2.8589897e+09
   4022000   3.5471654e-11  3471929.4      102181.65      1.1304782e+09  7.2635258e-05  5.1745914e-07  7.2117799e-05  2.8589851e+09
   4023000   3.5480473e-11  3471923.1      102176.03      1.130478e+09   7.2635255e-05  5.1758657e-07  7.2117669e-05  2.8589827e+09
   4024000   3.5489293e-11  3471921.8      102173.86      1.1304783e+09  7.2635265e-05  5.1762196e-07  7.2117643e-05  2.8589828e+09
   4025000   3.5498112e-11  3471923.1      102175.45      1.1304782e+09  7.2635266e-05  5.175964e-07   7.211767e-05   2.858983e+09 
   4026000   3.5506932e-11  3471931        102175.42      1.1304808e+09  7.2635264e-05  5.1743048e-07  7.2117834e-05  2.8589854e+09
   4027000   3.5515751e-11  3471927.3      102177.42      1.1304789e+09  7.2635266e-05  5.1751042e-07  7.2117756e-05  2.8589844e+09
   4028000   3.552457e-11   3471922.9      102180.2       1.1304765e+09  7.263526e-05   5.1759473e-07  7.2117665e-05  2.8589832e+09
   4029000   3.553339e-11   3471922.4      102179.76      1.1304765e+09  7.2635255e-05  5.1760047e-07  7.2117655e-05  2.8589831e+09
   4030000   3.5542209e-11  3471918.7      102173.07      1.1304775e+09  7.2635257e-05  5.1767857e-07  7.2117579e-05  2.8589812e+09
   4031000   3.5551029e-11  3471934.1      102178.25      1.1304809e+09  7.2635268e-05  5.1736946e-07  7.2117898e-05  2.8589877e+09
   4032000   3.5559848e-11  3471916.5      102183.49      1.1304733e+09  7.2635272e-05  5.1773986e-07  7.2117532e-05  2.8589812e+09
   4033000   3.5568667e-11  3471931.5      102182.48      1.1304786e+09  7.2635263e-05  5.1742046e-07  7.2117843e-05  2.8589869e+09
   4034000   3.5577487e-11  3471922.9      102177.06      1.1304776e+09  7.2635272e-05  5.1760702e-07  7.2117665e-05  2.8589837e+09
   4035000   3.5586306e-11  3471921.5      102174.5       1.1304779e+09  7.2635264e-05  5.176282e-07   7.2117636e-05  2.8589817e+09
   4036000   3.5595126e-11  3471922.4      102173.78      1.1304785e+09  7.2635267e-05  5.1761272e-07  7.2117654e-05  2.8589823e+09
   4037000   3.5603945e-11  3471922.5      102174.76      1.1304782e+09  7.2635256e-05  5.1759857e-07  7.2117657e-05  2.8589814e+09
   4038000   3.5612764e-11  3471928        102176.65      1.1304794e+09  7.2635259e-05  5.1748854e-07  7.211777e-05   2.8589838e+09
   4039000   3.5621584e-11  3471925.7      102179.6       1.1304777e+09  7.2635258e-05  5.175348e-07   7.2117723e-05  2.8589833e+09
   4040000   3.5630403e-11  3471926.7      102183.16      1.1304768e+09  7.2635254e-05  5.1751038e-07  7.2117744e-05  2.8589838e+09
   4041000   3.5639223e-11  3471923.3      102181.95      1.1304761e+09  7.263525e-05   5.1757628e-07  7.2117674e-05  2.8589824e+09
   4042000   3.5648042e-11  3471922.7      102178.68      1.1304769e+09  7.2635253e-05  5.1759239e-07  7.211766e-05   2.858982e+09 
   4043000   3.5656862e-11  3471913.4      102172.65      1.1304759e+09  7.2635253e-05  5.1778537e-07  7.2117468e-05  2.8589786e+09
   4044000   3.5665681e-11  3471924.8      102178.87      1.1304776e+09  7.2635253e-05  5.17548e-07    7.2117705e-05  2.858983e+09 
   4045000   3.56745e-11    3471929.9      102182.44      1.1304781e+09  7.2635253e-05  5.174413e-07   7.2117812e-05  2.858985e+09 
   4046000   3.568332e-11   3471932.4      102185.46      1.1304779e+09  7.2635249e-05  5.1738734e-07  7.2117862e-05  2.8589859e+09
   4047000   3.5692139e-11  3471930.8      102186.74      1.130477e+09   7.2635242e-05  5.174134e-07   7.2117829e-05  2.8589848e+09
   4048000   3.5700959e-11  3471929.7      102179.45      1.1304791e+09  7.2635238e-05  5.1743155e-07  7.2117807e-05  2.8589834e+09
   4049000   3.5709778e-11  3471933.3      102182.01      1.1304794e+09  7.2635244e-05  5.1736218e-07  7.2117882e-05  2.8589851e+09
   4050000   3.5718597e-11  3471932.4      102184.88      1.1304781e+09  7.2635246e-05  5.1738447e-07  7.2117861e-05  2.8589854e+09
   4051000   3.5727417e-11  3471939.1      102187.89      1.1304794e+09  7.2635243e-05  5.1724089e-07  7.2118002e-05  2.8589877e+09
   4052000   3.5736236e-11  3471932.9      102185.41      1.1304781e+09  7.2635247e-05  5.1737475e-07  7.2117873e-05  2.8589852e+09
   4053000   3.5745056e-11  3471941.1      102190.24      1.1304793e+09  7.2635242e-05  5.1719859e-07  7.2118044e-05  2.8589875e+09
   4054000   3.5753875e-11  3471937.6      102190.51      1.130478e+09   7.2635239e-05  5.1726749e-07  7.2117971e-05  2.8589856e+09
   4055000   3.5762694e-11  3471930.6      102186.42      1.130477e+09   7.2635236e-05  5.1741071e-07  7.2117825e-05  2.8589823e+09
   4056000   3.5771514e-11  3471934.6      102190.53      1.130477e+09   7.2635235e-05  5.1732584e-07  7.2117909e-05  2.8589838e+09
   4057000   3.5780333e-11  3471940.1      102193.95      1.1304777e+09  7.2635247e-05  5.1722475e-07  7.2118023e-05  2.8589874e+09
   4058000   3.5789153e-11  3471941        102193.85      1.130478e+09   7.263525e-05   5.1720966e-07  7.211804e-05   2.8589881e+09
   4059000   3.5797972e-11  3471935.2      102194.89      1.1304757e+09  7.263525e-05   5.1733015e-07  7.211792e-05   2.8589864e+09
   4060000   3.5806791e-11  3471938        102191.1       1.1304779e+09  7.2635246e-05  5.1726672e-07  7.2117979e-05  2.8589866e+09
   4061000   3.5815611e-11  3471931.6      102185.71      1.1304776e+09  7.2635243e-05  5.1739733e-07  7.2117846e-05  2.8589835e+09
   4062000   3.582443e-11   3471933.5      102181.74      1.1304795e+09  7.2635241e-05  5.1735621e-07  7.2117884e-05  2.858984e+09 
   4063000   3.583325e-11   3471922.1      102178.27      1.1304769e+09  7.2635245e-05  5.1759643e-07  7.2117649e-05  2.8589812e+09
   4064000   3.5842069e-11  3471921.7      102179.88      1.1304762e+09  7.2635251e-05  5.1761179e-07  7.211764e-05   2.858982e+09 
   4065000   3.5850888e-11  3471927.5      102181.19      1.1304777e+09  7.2635256e-05  5.1749465e-07  7.2117761e-05  2.8589844e+09
   4066000   3.5859708e-11  3471929.1      102182.48      1.1304778e+09  7.2635257e-05  5.1746325e-07  7.2117794e-05  2.8589854e+09
   4067000   3.5868527e-11  3471920.6      102182.49      1.130475e+09   7.2635249e-05  5.1763217e-07  7.2117617e-05  2.8589823e+09
   4068000   3.5877347e-11  3471928.9      102184.19      1.1304772e+09  7.2635258e-05  5.174684e-07   7.211779e-05   2.8589867e+09
   4069000   3.5886166e-11  3471921.7      102183.98      1.1304749e+09  7.2635268e-05  5.1762747e-07  7.2117641e-05  2.8589847e+09
   4070000   3.5894986e-11  3471920.8      102182.42      1.130475e+09   7.2635269e-05  5.1764806e-07  7.211762e-05   2.858985e+09 
   4071000   3.5903805e-11  3471921.3      102180.17      1.130476e+09   7.2635265e-05  5.1763361e-07  7.2117631e-05  2.8589849e+09
   4072000   3.5912624e-11  3471923.9      102177.87      1.1304776e+09  7.2635263e-05  5.1757656e-07  7.2117686e-05  2.8589855e+09
   4073000   3.5921444e-11  3471920.4      102182.15      1.130475e+09   7.2635261e-05  5.1764848e-07  7.2117613e-05  2.8589842e+09
   4074000   3.5930263e-11  3471927.4      102185.05      1.1304764e+09  7.2635263e-05  5.1750474e-07  7.2117758e-05  2.8589863e+09
   4075000   3.5939083e-11  3471931.8      102183.94      1.1304782e+09  7.2635263e-05  5.1741374e-07  7.2117849e-05  2.8589873e+09
   4076000   3.5947902e-11  3471932.9      102184.08      1.1304786e+09  7.263526e-05   5.1738669e-07  7.2117873e-05  2.8589876e+09
   4077000   3.5956721e-11  3471924.3      102180.94      1.1304767e+09  7.2635257e-05  5.1756325e-07  7.2117694e-05  2.8589846e+09
   4078000   3.5965541e-11  3471918.9      102177.93      1.1304759e+09  7.2635258e-05  5.1767617e-07  7.2117582e-05  2.8589828e+09
   4079000   3.597436e-11   3471918.8      102178.66      1.1304756e+09  7.2635256e-05  5.1767653e-07  7.2117579e-05  2.8589823e+09
   4080000   3.598318e-11   3471922.4      102178.7       1.1304768e+09  7.2635247e-05  5.1759272e-07  7.2117654e-05  2.858982e+09 
   4081000   3.5991999e-11  3471921.6      102174.45      1.130478e+09   7.2635238e-05  5.17601e-07    7.2117637e-05  2.8589805e+09
   4082000   3.6000818e-11  3471922.2      102179.13      1.1304766e+09  7.2635242e-05  5.1759267e-07  7.211765e-05   2.8589816e+09
   4083000   3.6009638e-11  3471928.6      102186.37      1.1304764e+09  7.2635237e-05  5.1745349e-07  7.2117784e-05  2.8589841e+09
   4084000   3.6018457e-11  3471927.6      102189.26      1.130475e+09   7.263525e-05   5.174883e-07   7.2117762e-05  2.8589851e+09
   4085000   3.6027277e-11  3471924.9      102187.35      1.1304748e+09  7.263525e-05   5.1754335e-07  7.2117707e-05  2.8589845e+09
   4086000   3.6036096e-11  3471921.9      102186.33      1.1304741e+09  7.2635253e-05  5.1760726e-07  7.2117645e-05  2.8589838e+09
   4087000   3.6044915e-11  3471926        102188.31      1.1304748e+09  7.2635252e-05  5.1752234e-07  7.211773e-05   2.8589852e+09
   4088000   3.6053735e-11  3471930.3      102186.95      1.1304767e+09  7.2635254e-05  5.1743506e-07  7.2117819e-05  2.858986e+09 
   4089000   3.6062554e-11  3471933.4      102187.15      1.1304777e+09  7.263525e-05   5.1736682e-07  7.2117883e-05  2.8589866e+09
   4090000   3.6071374e-11  3471929.6      102189.08      1.1304758e+09  7.2635254e-05  5.1745064e-07  7.2117803e-05  2.8589856e+09
   4091000   3.6080193e-11  3471940        102192.2       1.1304783e+09  7.2635255e-05  5.1723327e-07  7.2118021e-05  2.8589895e+09
   4092000   3.6089012e-11  3471938.9      102190.39      1.1304785e+09  7.2635253e-05  5.1725447e-07  7.2117998e-05  2.858989e+09 
   4093000   3.6097832e-11  3471919.7      102177.45      1.1304763e+09  7.2635257e-05  5.1765933e-07  7.2117598e-05  2.8589826e+09
   4094000   3.6106651e-11  3471915.7      102176.04      1.1304755e+09  7.2635265e-05  5.1774852e-07  7.2117516e-05  2.8589826e+09
   4095000   3.6115471e-11  3471919        102179.55      1.1304754e+09  7.2635272e-05  5.1768756e-07  7.2117585e-05  2.8589845e+09
   4096000   3.612429e-11   3471927        102183.43      1.1304768e+09  7.2635269e-05  5.1751825e-07  7.2117751e-05  2.8589866e+09
   4097000   3.6133109e-11  3471931.8      102185.08      1.1304779e+09  7.2635255e-05  5.174054e-07   7.211785e-05   2.8589865e+09
   4098000   3.6141929e-11  3471932.1      102185.86      1.1304777e+09  7.2635259e-05  5.1740349e-07  7.2117856e-05  2.8589867e+09
   4099000   3.6150748e-11  3471922.9      102180.4       1.1304764e+09  7.2635266e-05  5.1760181e-07  7.2117665e-05  2.8589837e+09
   4100000   3.6159568e-11  3471928        102181.07      1.1304779e+09  7.2635271e-05  5.1750001e-07  7.2117771e-05  2.8589865e+09
   4101000   3.6168387e-11  3471924.8      102189.1       1.1304742e+09  7.2635271e-05  5.1756706e-07  7.2117704e-05  2.8589866e+09
   4102000   3.6177207e-11  3471924.4      102192.08      1.130473e+09   7.2635266e-05  5.1757078e-07  7.2117695e-05  2.8589868e+09
   4103000   3.6186026e-11  3471927.7      102190.6       1.1304746e+09  7.2635271e-05  5.1750552e-07  7.2117765e-05  2.8589882e+09
   4104000   3.6194845e-11  3471926.5      102185.81      1.1304758e+09  7.2635269e-05  5.1753028e-07  7.2117739e-05  2.8589867e+09
   4105000   3.6203665e-11  3471931.9      102183.43      1.1304785e+09  7.263527e-05   5.1741676e-07  7.2117853e-05  2.858988e+09 
   4106000   3.6212484e-11  3471930.4      102181.34      1.1304786e+09  7.2635267e-05  5.1744658e-07  7.211782e-05   2.8589865e+09
   4107000   3.6221304e-11  3471921.8      102178.92      1.1304766e+09  7.2635271e-05  5.17629e-07    7.2117642e-05  2.8589832e+09
   4108000   3.6230123e-11  3471923.9      102181.08      1.1304765e+09  7.2635276e-05  5.1759082e-07  7.2117685e-05  2.8589845e+09
   4109000   3.6238942e-11  3471919.9      102178.95      1.1304759e+09  7.2635276e-05  5.1767341e-07  7.2117602e-05  2.8589831e+09
   4110000   3.6247762e-11  3471920.7      102178.45      1.1304764e+09  7.2635279e-05  5.1765943e-07  7.211762e-05   2.8589843e+09
   4111000   3.6256581e-11  3471921.3      102185.57      1.1304742e+09  7.2635269e-05  5.1763692e-07  7.2117632e-05  2.8589842e+09
   4112000   3.6265401e-11  3471923        102182.77      1.1304757e+09  7.2635269e-05  5.1760168e-07  7.2117667e-05  2.8589841e+09
   4113000   3.627422e-11   3471925.3      102180.48      1.1304772e+09  7.2635261e-05  5.1754641e-07  7.2117715e-05  2.8589835e+09
   4114000   3.6283039e-11  3471922.9      102179.46      1.1304767e+09  7.2635254e-05  5.1758942e-07  7.2117664e-05  2.8589816e+09
   4115000   3.6291859e-11  3471915.1      102173.94      1.130476e+09   7.2635255e-05  5.1775189e-07  7.2117503e-05  2.8589787e+09
   4116000   3.6300678e-11  3471914        102174.5       1.1304754e+09  7.2635257e-05  5.1777596e-07  7.2117481e-05  2.8589792e+09
   4117000   3.6309498e-11  3471909.5      102172.47      1.1304746e+09  7.2635253e-05  5.1786647e-07  7.2117386e-05  2.8589777e+09
   4118000   3.6318317e-11  3471909.3      102170.29      1.1304753e+09  7.2635259e-05  5.1787572e-07  7.2117384e-05  2.8589787e+09
   4119000   3.6327136e-11  3471901.1      102168.43      1.1304731e+09  7.2635251e-05  5.1803771e-07  7.2117213e-05  2.8589746e+09
   4120000   3.6335956e-11  3471898.9      102167.52      1.1304727e+09  7.2635265e-05  5.1809869e-07  7.2117166e-05  2.8589746e+09
   4121000   3.6344775e-11  3471913.2      102169.81      1.1304767e+09  7.2635253e-05  5.1778903e-07  7.2117464e-05  2.8589785e+09
   4122000   3.6353595e-11  3471916.1      102174         1.1304763e+09  7.2635262e-05  5.1773739e-07  7.2117524e-05  2.858981e+09 
   4123000   3.6362414e-11  3471913.3      102178.73      1.1304738e+09  7.2635268e-05  5.1780254e-07  7.2117465e-05  2.8589814e+09
   4124000   3.6371233e-11  3471915.8      102181.39      1.1304737e+09  7.2635264e-05  5.1774595e-07  7.2117518e-05  2.8589823e+09
   4125000   3.6380053e-11  3471917.2      102183.57      1.1304735e+09  7.2635267e-05  5.1771978e-07  7.2117547e-05  2.8589829e+09
   4126000   3.6388872e-11  3471921.8      102188.18      1.1304735e+09  7.2635274e-05  5.1763133e-07  7.2117642e-05  2.8589848e+09
   4127000   3.6397692e-11  3471918.3      102187.29      1.1304726e+09  7.2635283e-05  5.177148e-07   7.2117569e-05  2.858984e+09 
   4128000   3.6406511e-11  3471915.8      102186.61      1.130472e+09   7.2635282e-05  5.1776366e-07  7.2117518e-05  2.8589832e+09
   4129000   3.6415331e-11  3471919.1      102190.51      1.1304718e+09  7.2635284e-05  5.1769857e-07  7.2117585e-05  2.8589851e+09
   4130000   3.642415e-11   3471922        102193.71      1.1304717e+09  7.2635285e-05  5.1763751e-07  7.2117647e-05  2.8589865e+09
   4131000   3.6432969e-11  3471923        102190.29      1.1304732e+09  7.263528e-05   5.1761393e-07  7.2117667e-05  2.8589868e+09
   4132000   3.6441789e-11  3471922.7      102191.37      1.1304727e+09  7.2635285e-05  5.1762303e-07  7.2117662e-05  2.858987e+09 
   4133000   3.6450608e-11  3471919.1      102194.89      1.1304703e+09  7.2635282e-05  5.1769601e-07  7.2117586e-05  2.8589854e+09
   4134000   3.6459428e-11  3471930.1      102193.53      1.1304745e+09  7.2635281e-05  5.1746642e-07  7.2117815e-05  2.8589888e+09
   4135000   3.6468247e-11  3471925.7      102193.7       1.1304729e+09  7.2635286e-05  5.1756267e-07  7.2117724e-05  2.8589878e+09
   4136000   3.6477066e-11  3471928.1      102198.39      1.1304722e+09  7.2635277e-05  5.175026e-07   7.2117774e-05  2.8589888e+09
   4137000   3.6485886e-11  3471932.9      102203.14      1.1304722e+09  7.2635281e-05  5.1740901e-07  7.2117872e-05  2.8589916e+09
   4138000   3.6494705e-11  3471932.3      102205.08      1.1304714e+09  7.2635275e-05  5.1741402e-07  7.2117861e-05  2.858991e+09 
   4139000   3.6503525e-11  3471928.5      102203.28      1.1304707e+09  7.2635272e-05  5.1749077e-07  7.2117782e-05  2.8589893e+09
   4140000   3.6512344e-11  3471920        102197.93      1.1304696e+09  7.2635271e-05  5.1766666e-07  7.2117605e-05  2.8589865e+09
   4141000   3.6521163e-11  3471916.4      102195.69      1.1304692e+09  7.2635277e-05  5.1774652e-07  7.211753e-05   2.8589862e+09
   4142000   3.6529983e-11  3471917.5      102196.22      1.1304693e+09  7.2635279e-05  5.1772534e-07  7.2117553e-05  2.8589873e+09
   4143000   3.6538802e-11  3471922.2      102198.39      1.1304702e+09  7.2635279e-05  5.1762762e-07  7.2117652e-05  2.8589886e+09
   4144000   3.6547622e-11  3471926.9      102201.8       1.1304706e+09  7.2635281e-05  5.1753217e-07  7.2117749e-05  2.8589899e+09
   4145000   3.6556441e-11  3471925.2      102202.34      1.1304699e+09  7.2635269e-05  5.1755523e-07  7.2117713e-05  2.8589883e+09
   4146000   3.656526e-11   3471925.1      102200.82      1.1304704e+09  7.2635257e-05  5.175455e-07   7.2117711e-05  2.858987e+09 
   4147000   3.657408e-11   3471926.8      102204.45      1.1304697e+09  7.2635254e-05  5.1750717e-07  7.2117746e-05  2.8589868e+09
   4148000   3.6582899e-11  3471930.9      102202.19      1.1304718e+09  7.2635249e-05  5.1741794e-07  7.2117831e-05  2.858988e+09 
   4149000   3.6591719e-11  3471915.5      102192.86      1.1304698e+09  7.2635256e-05  5.1774414e-07  7.2117511e-05  2.8589823e+09
   4150000   3.6600538e-11  3471920.5      102193.01      1.1304714e+09  7.2635262e-05  5.1764692e-07  7.2117615e-05  2.8589842e+09
   4151000   3.6609357e-11  3471923.9      102201.6       1.1304697e+09  7.263527e-05   5.17583e-07    7.2117687e-05  2.8589869e+09
   4152000   3.6618177e-11  3471920.2      102201.69      1.1304684e+09  7.2635271e-05  5.1766248e-07  7.2117608e-05  2.858987e+09 
   4153000   3.6626996e-11  3471918.7      102197.45      1.1304693e+09  7.2635281e-05  5.1770269e-07  7.2117579e-05  2.8589876e+09
   4154000   3.6635816e-11  3471917.6      102194.43      1.13047e+09    7.2635287e-05  5.1773189e-07  7.2117555e-05  2.8589871e+09
   4155000   3.6644635e-11  3471918.5      102191.25      1.1304713e+09  7.2635285e-05  5.1771217e-07  7.2117573e-05  2.8589866e+09
   4156000   3.6653454e-11  3471924.7      102192.9       1.1304729e+09  7.2635276e-05  5.1757478e-07  7.2117702e-05  2.8589879e+09
   4157000   3.6662274e-11  3471913.7      102191.03      1.1304698e+09  7.2635269e-05  5.1779462e-07  7.2117474e-05  2.8589834e+09
   4158000   3.6671093e-11  3471907        102187.34      1.1304688e+09  7.2635269e-05  5.1793396e-07  7.2117336e-05  2.8589806e+09
   4159000   3.6679913e-11  3471905.3      102184.95      1.130469e+09   7.2635273e-05  5.1797245e-07  7.21173e-05    2.8589793e+09
   4160000   3.6688732e-11  3471915.9      102188.61      1.1304713e+09  7.2635279e-05  5.1776055e-07  7.2117519e-05  2.8589835e+09
   4161000   3.6697552e-11  3471917.8      102195.91      1.1304695e+09  7.2635274e-05  5.1771583e-07  7.2117559e-05  2.8589835e+09
   4162000   3.6706371e-11  3471922.8      102193.06      1.1304722e+09  7.2635271e-05  5.1760782e-07  7.2117663e-05  2.8589844e+09
   4163000   3.671519e-11   3471921.9      102196.81      1.1304706e+09  7.2635267e-05  5.1762344e-07  7.2117644e-05  2.8589841e+09
   4164000   3.672401e-11   3471925.1      102201.11      1.1304702e+09  7.2635271e-05  5.1756147e-07  7.211771e-05   2.8589863e+09
   4165000   3.6732829e-11  3471917.6      102197.91      1.1304688e+09  7.2635274e-05  5.1772016e-07  7.2117554e-05  2.8589843e+09
   4166000   3.6741649e-11  3471918.8      102198.06      1.1304692e+09  7.2635271e-05  5.1768967e-07  7.2117581e-05  2.858985e+09 
   4167000   3.6750468e-11  3471924.8      102200.36      1.1304704e+09  7.2635265e-05  5.1756069e-07  7.2117705e-05  2.858986e+09 
   4168000   3.6759287e-11  3471921.9      102198.21      1.1304702e+09  7.263527e-05   5.176259e-07   7.2117645e-05  2.8589835e+09
   4169000   3.6768107e-11  3471928.9      102198.4       1.1304724e+09  7.2635265e-05  5.1747535e-07  7.211779e-05   2.8589846e+09
   4170000   3.6776926e-11  3471922.8      102194.23      1.1304718e+09  7.2635255e-05  5.1759296e-07  7.2117662e-05  2.8589817e+09
   4171000   3.6785746e-11  3471917.6      102190.01      1.1304715e+09  7.2635263e-05  5.1770801e-07  7.2117555e-05  2.8589816e+09
   4172000   3.6794565e-11  3471909.5      102187         1.1304697e+09  7.263528e-05   5.1789353e-07  7.2117386e-05  2.8589807e+09
   4173000   3.6803384e-11  3471907.6      102189.06      1.1304684e+09  7.2635285e-05  5.1793764e-07  7.2117347e-05  2.8589807e+09
   4174000   3.6812204e-11  3471919.9      102191.27      1.1304718e+09  7.2635281e-05  5.1767747e-07  7.2117603e-05  2.8589848e+09
   4175000   3.6821023e-11  3471924.3      102195.96      1.1304717e+09  7.2635279e-05  5.1758444e-07  7.2117694e-05  2.8589866e+09
   4176000   3.6829843e-11  3471913.9      102187.87      1.1304709e+09  7.2635277e-05  5.1779852e-07  7.2117479e-05  2.8589832e+09
   4177000   3.6838662e-11  3471912.9      102187.13      1.1304708e+09  7.2635275e-05  5.1781778e-07  7.2117458e-05  2.858983e+09 
   4178000   3.6847481e-11  3471911.2      102186.81      1.1304704e+09  7.2635284e-05  5.178625e-07   7.2117421e-05  2.8589831e+09
   4179000   3.6856301e-11  3471904.4      102184.81      1.1304688e+09  7.2635282e-05  5.1799982e-07  7.2117282e-05  2.8589798e+09
   4180000   3.686512e-11   3471911.9      102181.55      1.1304724e+09  7.2635277e-05  5.178414e-07   7.2117436e-05  2.8589818e+09
   4181000   3.687394e-11   3471913.3      102182.49      1.1304725e+09  7.2635273e-05  5.1780711e-07  7.2117466e-05  2.8589819e+09
   4182000   3.6882759e-11  3471924.1      102192.28      1.1304729e+09  7.2635278e-05  5.1758763e-07  7.2117691e-05  2.8589868e+09
   4183000   3.6891578e-11  3471922.3      102193.73      1.1304718e+09  7.2635274e-05  5.1762139e-07  7.2117653e-05  2.8589858e+09
   4184000   3.6900398e-11  3471921.8      102193.13      1.1304718e+09  7.2635274e-05  5.1763105e-07  7.2117643e-05  2.8589857e+09
   4185000   3.6909217e-11  3471920.6      102192.8       1.1304715e+09  7.2635275e-05  5.1765663e-07  7.2117618e-05  2.8589859e+09
   4186000   3.6918037e-11  3471907.2      102191.85      1.1304674e+09  7.2635268e-05  5.1792803e-07  7.211734e-05   2.8589813e+09
   4187000   3.6926856e-11  3471914.1      102193.64      1.1304691e+09  7.2635273e-05  5.177915e-07   7.2117482e-05  2.8589848e+09
   4188000   3.6935676e-11  3471912.2      102191.94      1.130469e+09   7.2635273e-05  5.1782969e-07  7.2117443e-05  2.8589834e+09
   4189000   3.6944495e-11  3471910.2      102186.29      1.1304702e+09  7.2635278e-05  5.1787632e-07  7.2117402e-05  2.8589823e+09
   4190000   3.6953314e-11  3471910.5      102185.26      1.1304706e+09  7.2635275e-05  5.1786828e-07  7.2117407e-05  2.8589817e+09
   4191000   3.6962134e-11  3471909.4      102187.58      1.1304695e+09  7.263527e-05   5.1788437e-07  7.2117385e-05  2.8589815e+09
   4192000   3.6970953e-11  3471904.7      102183.94      1.1304692e+09  7.2635272e-05  5.1798477e-07  7.2117287e-05  2.8589805e+09
   4193000   3.6979773e-11  3471912.2      102192.36      1.1304689e+09  7.2635269e-05  5.1782629e-07  7.2117443e-05  2.8589833e+09
   4194000   3.6988592e-11  3471914.4      102192.39      1.1304696e+09  7.2635278e-05  5.1778912e-07  7.2117489e-05  2.858984e+09 
   4195000   3.6997411e-11  3471924.2      102198.88      1.1304707e+09  7.2635282e-05  5.1758974e-07  7.2117693e-05  2.8589884e+09
   4196000   3.7006231e-11  3471924.4      102204.94      1.1304688e+09  7.2635273e-05  5.1757585e-07  7.2117697e-05  2.8589884e+09
   4197000   3.701505e-11   3471923.3      102209.24      1.1304669e+09  7.2635265e-05  5.1759226e-07  7.2117673e-05  2.8589876e+09
   4198000   3.702387e-11   3471928.2      102210.91      1.130468e+09   7.2635269e-05  5.174929e-07   7.2117776e-05  2.8589886e+09
   4199000   3.7032689e-11  3471931.7      102212.63      1.1304686e+09  7.2635271e-05  5.1742349e-07  7.2117848e-05  2.8589893e+09
   4200000   3.7041508e-11  3471934.9      102211.43      1.1304701e+09  7.2635266e-05  5.1735199e-07  7.2117914e-05  2.8589899e+09
   4201000   3.7050328e-11  3471935        102214.44      1.1304691e+09  7.2635269e-05  5.1735218e-07  7.2117917e-05  2.8589905e+09
   4202000   3.7059147e-11  3471925        102212.33      1.1304665e+09  7.2635274e-05  5.175654e-07   7.2117709e-05  2.8589876e+09
   4203000   3.7067967e-11  3471917.4      102208.94      1.130465e+09   7.2635273e-05  5.1772231e-07  7.2117551e-05  2.8589852e+09
   4204000   3.7076786e-11  3471924.7      102206.04      1.1304685e+09  7.2635269e-05  5.1756628e-07  7.2117703e-05  2.8589875e+09
   4205000   3.7085605e-11  3471926.2      102203.71      1.1304698e+09  7.2635282e-05  5.1754855e-07  7.2117734e-05  2.8589888e+09
   4206000   3.7094425e-11  3471915.4      102197.34      1.1304683e+09  7.2635282e-05  5.1777228e-07  7.211751e-05   2.8589844e+09
   4207000   3.7103244e-11  3471911.3      102197.1       1.130467e+09   7.2635283e-05  5.1785873e-07  7.2117424e-05  2.8589834e+09
   4208000   3.7112064e-11  3471905.3      102192.51      1.1304665e+09  7.2635281e-05  5.1798101e-07  7.21173e-05    2.8589811e+09
   4209000   3.7120883e-11  3471910.2      102195.81      1.130467e+09   7.2635279e-05  5.1787833e-07  7.2117401e-05  2.8589829e+09
   4210000   3.7129702e-11  3471915.3      102201.67      1.1304668e+09  7.2635277e-05  5.1776991e-07  7.2117507e-05  2.8589847e+09
   4211000   3.7138522e-11  3471920.5      102204.8       1.1304675e+09  7.2635274e-05  5.1765872e-07  7.2117616e-05  2.8589859e+09
   4212000   3.7147341e-11  3471923.3      102205.32      1.1304682e+09  7.2635267e-05  5.1759433e-07  7.2117673e-05  2.8589856e+09
   4213000   3.7156161e-11  3471920.6      102206.25      1.130467e+09   7.2635262e-05  5.1764397e-07  7.2117618e-05  2.8589841e+09
   4214000   3.716498e-11   3471915.3      102200.8       1.1304671e+09  7.263527e-05   5.1776296e-07  7.2117507e-05  2.8589831e+09
   4215000   3.7173799e-11  3471916.6      102201.53      1.1304673e+09  7.2635275e-05  5.1774123e-07  7.2117534e-05  2.8589843e+09
   4216000   3.7182619e-11  3471892.8      102224.1       1.1304517e+09  7.2634902e-05  5.1786154e-07  7.211704e-05   2.8589682e+09
   4217000   3.7191438e-11  3471889.5      102226.16      1.1304499e+09  7.2634908e-05  5.1793611e-07  7.2116971e-05  2.8589686e+09
   4218000   3.7200258e-11  3471883.2      102222.76      1.130449e+09   7.2634907e-05  5.1806595e-07  7.2116841e-05  2.8589668e+09
   4219000   3.7209077e-11  3471893.5      102226.32      1.1304512e+09  7.2634905e-05  5.1784973e-07  7.2117055e-05  2.8589708e+09
   4220000   3.7217897e-11  3471886.5      102222.49      1.1304502e+09  7.2634909e-05  5.1799958e-07  7.2116909e-05  2.8589678e+09
   4221000   3.7226716e-11  3471882.9      102219.86      1.1304498e+09  7.2634908e-05  5.180736e-07   7.2116834e-05  2.8589658e+09
   4222000   3.7235535e-11  3471894.5      102227.97      1.130451e+09   7.2634903e-05  5.1782859e-07  7.2117075e-05  2.8589698e+09
   4223000   3.7244355e-11  3471893.2      102230.51      1.1304497e+09  7.2634901e-05  5.1785392e-07  7.2117047e-05  2.8589694e+09
   4224000   3.7253174e-11  3471897.5      102233.47      1.1304502e+09  7.2634914e-05  5.1777584e-07  7.2117138e-05  2.8589722e+09
   4225000   3.7261994e-11  3471891.7      102232.61      1.1304485e+09  7.2634907e-05  5.1789072e-07  7.2117017e-05  2.8589696e+09
   4226000   3.7270813e-11  3471896.9      102235.25      1.1304494e+09  7.2634907e-05  5.1778103e-07  7.2117126e-05  2.8589714e+09
   4227000   3.7279632e-11  3471898.5      102237.93      1.130449e+09   7.2634911e-05  5.1775297e-07  7.2117158e-05  2.8589726e+09
   4228000   3.7288452e-11  3471891        102231.94      1.1304485e+09  7.2634911e-05  5.1790927e-07  7.2117002e-05  2.85897e+09  
   4229000   3.7297271e-11  3471891.1      102239.34      1.1304461e+09  7.2634908e-05  5.179032e-07   7.2117005e-05  2.8589702e+09
   4230000   3.7306091e-11  3471890        102236.01      1.1304468e+09  7.2634916e-05  5.1793338e-07  7.2116982e-05  2.8589705e+09
   4231000   3.731491e-11   3471884.5      102232.85      1.130446e+09   7.2634905e-05  5.1803684e-07  7.2116868e-05  2.8589672e+09
   4232000   3.7323729e-11  3471885.2      102230.15      1.1304472e+09  7.2634903e-05  5.1802039e-07  7.2116882e-05  2.8589666e+09
   4233000   3.7332549e-11  3471897.7      102235.13      1.1304497e+09  7.2634902e-05  5.1776112e-07  7.2117141e-05  2.8589709e+09
   4234000   3.7341368e-11  3471902        102242.58      1.1304486e+09  7.2634908e-05  5.1767811e-07  7.211723e-05   2.8589732e+09
   4235000   3.7350188e-11  3471901.2      102242.85      1.1304483e+09  7.2634906e-05  5.1769063e-07  7.2117215e-05  2.858973e+09 
   4236000   3.7359007e-11  3471910        102246.21      1.1304501e+09  7.2634908e-05  5.1751164e-07  7.2117396e-05  2.8589768e+09
   4237000   3.7367826e-11  3471897.9      102243.56      1.1304469e+09  7.2634906e-05  5.1775972e-07  7.2117146e-05  2.8589718e+09
   4238000   3.7376646e-11  3471906.1      102245.14      1.1304491e+09  7.26349e-05    5.1758511e-07  7.2117315e-05  2.8589737e+09
   4239000   3.7385465e-11  3471915.2      102246.17      1.1304519e+09  7.2634895e-05  5.1738891e-07  7.2117506e-05  2.8589765e+09
   4240000   3.7394285e-11  3471904        102245.55      1.1304483e+09  7.2634898e-05  5.1762566e-07  7.2117272e-05  2.858973e+09 
   4241000   3.7403104e-11  3471900.7      102245.01      1.1304474e+09  7.2634885e-05  5.1767966e-07  7.2117205e-05  2.8589714e+09
   4242000   3.7411923e-11  3471903.3      102248.21      1.1304472e+09  7.2634894e-05  5.176371e-07   7.2117257e-05  2.8589732e+09
   4243000   3.7420743e-11  3471905.6      102251.86      1.1304467e+09  7.2634897e-05  5.1759113e-07  7.2117306e-05  2.8589741e+09
   4244000   3.7429562e-11  3471906.1      102251.68      1.130447e+09   7.2634898e-05  5.175826e-07   7.2117316e-05  2.8589742e+09
   4245000   3.7438382e-11  3471912.9      102253.26      1.1304487e+09  7.2634901e-05  5.1744345e-07  7.2117458e-05  2.8589773e+09
   4246000   3.7447201e-11  3471903.9      102252.48      1.130446e+09   7.2634891e-05  5.1762035e-07  7.2117271e-05  2.8589739e+09
   4247000   3.7456021e-11  3471903.5      102249.8       1.1304467e+09  7.2634882e-05  5.1761955e-07  7.2117263e-05  2.8589728e+09
   4248000   3.746484e-11   3471897.2      102244.62      1.1304464e+09  7.2634885e-05  5.1775362e-07  7.2117132e-05  2.8589698e+09
   4249000   3.7473659e-11  3471904.6      102244.29      1.1304489e+09  7.2634897e-05  5.1761258e-07  7.2117284e-05  2.8589729e+09
   4250000   3.7482479e-11  3471893.3      102242.88      1.1304456e+09  7.2634893e-05  5.1784238e-07  7.2117051e-05  2.8589683e+09
   4251000   3.7491298e-11  3471890.9      102241.32      1.1304453e+09  7.2634896e-05  5.1789603e-07  7.2117e-05     2.8589681e+09
   4252000   3.7500118e-11  3471896.8      102243.55      1.1304466e+09  7.2634898e-05  5.177765e-07   7.2117122e-05  2.8589705e+09
   4253000   3.7508937e-11  3471904        102249.15      1.1304471e+09  7.2634898e-05  5.1762582e-07  7.2117272e-05  2.858973e+09 
   4254000   3.7517756e-11  3471899.5      102248.81      1.1304457e+09  7.2634901e-05  5.1772292e-07  7.2117178e-05  2.8589715e+09
   4255000   3.7526576e-11  3471891.8      102247.2       1.1304437e+09  7.2634895e-05  5.1787574e-07  7.2117019e-05  2.8589681e+09
   4256000   3.7535395e-11  3471890.3      102244.56      1.130444e+09   7.2634892e-05  5.1790523e-07  7.2116987e-05  2.8589676e+09
   4257000   3.7544215e-11  3471894.7      102248.14      1.1304443e+09  7.2634888e-05  5.1780974e-07  7.2117078e-05  2.858969e+09 
   4258000   3.7553034e-11  3471900.2      102249.46      1.1304457e+09  7.2634885e-05  5.176911e-07   7.2117193e-05  2.8589705e+09
   4259000   3.7561853e-11  3471900.2      102252.59      1.1304447e+09  7.2634884e-05  5.1769093e-07  7.2117193e-05  2.8589697e+09
   4260000   3.7570673e-11  3471903.7      102255.19      1.130445e+09   7.2634886e-05  5.1761991e-07  7.2117266e-05  2.8589701e+09
   4261000   3.7579492e-11  3471906.9      102252.79      1.1304469e+09  7.263489e-05   5.1755852e-07  7.2117332e-05  2.8589712e+09
   4262000   3.7588312e-11  3471899.1      102250.19      1.1304451e+09  7.2634895e-05  5.177237e-07   7.2117172e-05  2.8589693e+09
   4263000   3.7597131e-11  3471900.8      102249.63      1.1304459e+09  7.2634898e-05  5.1769147e-07  7.2117206e-05  2.8589708e+09
   4264000   3.760595e-11   3471897.7      102249.54      1.1304449e+09  7.2634906e-05  5.1776352e-07  7.2117143e-05  2.8589707e+09
   4265000   3.761477e-11   3471903.4      102255.05      1.1304449e+09  7.263491e-05   5.1765001e-07  7.211726e-05   2.8589733e+09
   4266000   3.7623589e-11  3471897.5      102255.22      1.1304429e+09  7.2634916e-05  5.1777721e-07  7.2117139e-05  2.8589711e+09
   4267000   3.7632409e-11  3471905.2      102257.68      1.1304447e+09  7.2634904e-05  5.1760708e-07  7.2117297e-05  2.8589723e+09
   4268000   3.7641228e-11  3471911.9      102260.01      1.1304461e+09  7.2634901e-05  5.1746393e-07  7.2117438e-05  2.858974e+09 
   4269000   3.7650047e-11  3471913.3      102258.29      1.1304472e+09  7.2634899e-05  5.1743416e-07  7.2117465e-05  2.8589739e+09
   4270000   3.7658867e-11  3471910.2      102260.25      1.1304455e+09  7.2634907e-05  5.1750612e-07  7.2117401e-05  2.8589737e+09
   4271000   3.7667686e-11  3471907.4      102263.81      1.1304433e+09  7.2634906e-05  5.175634e-07   7.2117342e-05  2.858973e+09 
   4272000   3.7676506e-11  3471916        102269.59      1.1304443e+09  7.2634897e-05  5.1737611e-07  7.2117521e-05  2.858976e+09 
   4273000   3.7685325e-11  3471919        102266.43      1.1304464e+09  7.2634889e-05  5.1730365e-07  7.2117585e-05  2.8589759e+09
   4274000   3.7694144e-11  3471915.9      102268.03      1.1304448e+09  7.2634881e-05  5.1736143e-07  7.2117519e-05  2.858974e+09 
   4275000   3.7702964e-11  3471909.8      102265.56      1.1304436e+09  7.2634875e-05  5.1748071e-07  7.2117394e-05  2.8589708e+09
   4276000   3.7711783e-11  3471921.7      102269.61      1.1304462e+09  7.2634871e-05  5.1723105e-07  7.211764e-05   2.8589746e+09
   4277000   3.7720603e-11  3471914.7      102268.41      1.1304443e+09  7.263487e-05   5.1737575e-07  7.2117495e-05  2.8589721e+09
   4278000   3.7729422e-11  3471915.6      102269.07      1.1304443e+09  7.2634872e-05  5.1735974e-07  7.2117512e-05  2.8589728e+09
   4279000   3.7738242e-11  3471923.8      102270.3       1.1304467e+09  7.263487e-05   5.1718656e-07  7.2117683e-05  2.8589753e+09
   4280000   3.7747061e-11  3471918.2      102270.82      1.1304446e+09  7.2634875e-05  5.17308e-07    7.2117567e-05  2.8589731e+09
   4281000   3.775588e-11   3471928        102274.41      1.1304467e+09  7.2634874e-05  5.1710401e-07  7.211777e-05   2.8589769e+09
   4282000   3.77647e-11    3471921.4      102270.6       1.1304458e+09  7.263487e-05   5.1723542e-07  7.2117634e-05  2.858974e+09 
   4283000   3.7773519e-11  3471923.3      102271.85      1.130446e+09   7.2634877e-05  5.1720393e-07  7.2117673e-05  2.8589756e+09
   4284000   3.7782339e-11  3471917.1      102268.67      1.130445e+09   7.2634881e-05  5.1733614e-07  7.2117544e-05  2.8589736e+09
   4285000   3.7791158e-11  3471912        102268.82      1.1304432e+09  7.263488e-05   5.1744105e-07  7.2117439e-05  2.8589717e+09
   4286000   3.7799977e-11  3471910.7      102265.76      1.1304438e+09  7.2634891e-05  5.1747898e-07  7.2117412e-05  2.8589717e+09
   4287000   3.7808797e-11  3471906.8      102256.59      1.1304456e+09  7.2634886e-05  5.1755461e-07  7.2117332e-05  2.8589698e+09
   4288000   3.7817616e-11  3471904.6      102259.15      1.130444e+09   7.2634878e-05  5.1759364e-07  7.2117285e-05  2.8589697e+09
   4289000   3.7826436e-11  3471895.8      102255.57      1.1304422e+09  7.2634881e-05  5.1777976e-07  7.2117102e-05  2.8589669e+09
   4290000   3.7835255e-11  3471902.1      102256.42      1.130444e+09   7.2634882e-05  5.1764865e-07  7.2117233e-05  2.8589686e+09
   4291000   3.7844074e-11  3471903.8      102262.76      1.1304425e+09  7.2634876e-05  5.1760873e-07  7.2117268e-05  2.8589684e+09
   4292000   3.7852894e-11  3471904.4      102265.02      1.1304419e+09  7.2634876e-05  5.1759447e-07  7.2117282e-05  2.8589688e+09
   4293000   3.7861713e-11  3471907.4      102261.09      1.1304443e+09  7.2634876e-05  5.1753287e-07  7.2117343e-05  2.8589696e+09
   4294000   3.7870533e-11  3471899.7      102258.17      1.1304427e+09  7.2634875e-05  5.1769049e-07  7.2117184e-05  2.8589664e+09
   4295000   3.7879352e-11  3471904.6      102264.17      1.1304423e+09  7.263488e-05   5.1759462e-07  7.2117285e-05  2.858969e+09 
   4296000   3.7888171e-11  3471908.1      102261.82      1.1304443e+09  7.2634882e-05  5.1752392e-07  7.2117358e-05  2.8589708e+09
   4297000   3.7896991e-11  3471903.1      102263.23      1.1304421e+09  7.2634892e-05  5.1763791e-07  7.2117255e-05  2.8589698e+09
   4298000   3.790581e-11   3471903        102263.75      1.1304419e+09  7.2634889e-05  5.1763771e-07  7.2117252e-05  2.8589693e+09
   4299000   3.791463e-11   3471905.2      102267.27      1.1304415e+09  7.263489e-05   5.1759207e-07  7.2117298e-05  2.8589702e+09
   4300000   3.7923449e-11  3471910.1      102270.81      1.1304419e+09  7.2634894e-05  5.1749476e-07  7.2117399e-05  2.8589723e+09
   4301000   3.7932268e-11  3471919.2      102273.74      1.130444e+09   7.26349e-05    5.1731175e-07  7.2117588e-05  2.858976e+09 
   4302000   3.7941088e-11  3471923        102278.59      1.1304436e+09  7.2634899e-05  5.1723242e-07  7.2117666e-05  2.8589775e+09
   4303000   3.7949907e-11  3471919.1      102277.96      1.1304425e+09  7.2634894e-05  5.1730859e-07  7.2117586e-05  2.8589754e+09
   4304000   3.7958727e-11  3471922.4      102282.05      1.1304423e+09  7.2634884e-05  5.1722993e-07  7.2117654e-05  2.8589756e+09
   4305000   3.7967546e-11  3471922.9      102282.43      1.1304423e+09  7.2634882e-05  5.1721666e-07  7.2117665e-05  2.8589756e+09
   4306000   3.7976366e-11  3471918.2      102281.9       1.1304409e+09  7.263488e-05   5.1731167e-07  7.2117568e-05  2.8589739e+09
   4307000   3.7985185e-11  3471920.8      102281.11      1.1304421e+09  7.2634886e-05  5.1726368e-07  7.2117622e-05  2.8589753e+09
   4308000   3.7994004e-11  3471915.4      102278.87      1.130441e+09   7.2634884e-05  5.1737483e-07  7.2117509e-05  2.8589726e+09
   4309000   3.8002824e-11  3471922.3      102281.18      1.1304425e+09  7.2634884e-05  5.1723123e-07  7.2117653e-05  2.8589749e+09
   4310000   3.8011643e-11  3471923.9      102284.53      1.1304419e+09  7.2634883e-05  5.1719818e-07  7.2117685e-05  2.8589749e+09
   4311000   3.8020463e-11  3471930.5      102284.02      1.1304444e+09  7.2634881e-05  5.1705731e-07  7.2117824e-05  2.8589768e+09
   4312000   3.8029282e-11  3471925.1      102284.87      1.1304422e+09  7.2634881e-05  5.1717167e-07  7.211771e-05   2.8589751e+09
   4313000   3.8038101e-11  3471924.4      102286.43      1.1304415e+09  7.2634881e-05  5.1718493e-07  7.2117696e-05  2.8589756e+09
   4314000   3.8046921e-11  3471921.4      102290.06      1.1304393e+09  7.2634872e-05  5.1723845e-07  7.2117634e-05  2.8589742e+09
   4315000   3.805574e-11   3471928.6      102286.78      1.1304428e+09  7.2634873e-05  5.1709029e-07  7.2117783e-05  2.8589772e+09
   4316000   3.806456e-11   3471925.8      102290.07      1.1304407e+09  7.2634864e-05  5.1713935e-07  7.2117725e-05  2.8589756e+09
   4317000   3.8073379e-11  3471927.1      102291.92      1.1304406e+09  7.263487e-05   5.1711631e-07  7.2117753e-05  2.8589768e+09
   4318000   3.8082198e-11  3471924.7      102288.82      1.1304408e+09  7.2634867e-05  5.1716513e-07  7.2117702e-05  2.858975e+09 
   4319000   3.8091018e-11  3471929.9      102286.7       1.1304432e+09  7.2634861e-05  5.1705133e-07  7.211781e-05   2.8589756e+09
   4320000   3.8099837e-11  3471929.1      102283.03      1.1304442e+09  7.2634859e-05  5.1706446e-07  7.2117794e-05  2.8589747e+09
   4321000   3.8108657e-11  3471927.7      102282.64      1.1304439e+09  7.2634862e-05  5.170968e-07   7.2117766e-05  2.8589751e+09
   4322000   3.8117476e-11  3471918.8      102282.7       1.1304409e+09  7.2634866e-05  5.1728548e-07  7.211758e-05   2.8589732e+09
   4323000   3.8126295e-11  3471911.6      102279.98      1.1304394e+09  7.2634876e-05  5.1744535e-07  7.2117431e-05  2.8589721e+09
   4324000   3.8135115e-11  3471911.4      102282.03      1.1304386e+09  7.2634883e-05  5.1745658e-07  7.2117426e-05  2.8589732e+09
   4325000   3.8143934e-11  3471914.9      102284.6       1.1304389e+09  7.2634878e-05  5.1737876e-07  7.2117499e-05  2.8589744e+09
   4326000   3.8152754e-11  3471922.4      102282.42      1.1304422e+09  7.2634881e-05  5.1722542e-07  7.2117655e-05  2.8589768e+09
   4327000   3.8161573e-11  3471921.9      102280.5       1.1304426e+09  7.2634878e-05  5.1723462e-07  7.2117643e-05  2.8589762e+09
   4328000   3.8170392e-11  3471915.1      102282.12      1.1304398e+09  7.2634873e-05  5.1736944e-07  7.2117504e-05  2.8589738e+09
   4329000   3.8179212e-11  3471915.1      102279.77      1.1304406e+09  7.2634874e-05  5.1737149e-07  7.2117502e-05  2.8589742e+09
   4330000   3.8188031e-11  3471907.8      102279.18      1.1304383e+09  7.2634872e-05  5.1752139e-07  7.2117351e-05  2.8589708e+09
   4331000   3.8196851e-11  3471909.7      102272.18      1.1304413e+09  7.2634876e-05  5.1748573e-07  7.2117391e-05  2.8589715e+09
   4332000   3.820567e-11   3471897.9      102267.79      1.1304388e+09  7.263487e-05   5.1772527e-07  7.2117145e-05  2.858967e+09 
   4333000   3.8214489e-11  3471895.5      102261.32      1.1304402e+09  7.2634862e-05  5.1776515e-07  7.2117096e-05  2.8589653e+09
   4334000   3.8223309e-11  3471892.3      102257.81      1.1304403e+09  7.2634873e-05  5.1784289e-07  7.211703e-05   2.8589645e+09
   4335000   3.8232128e-11  3471896.3      102264.02      1.1304396e+09  7.263487e-05   5.1775689e-07  7.2117113e-05  2.8589655e+09
   4336000   3.8240948e-11  3471906.9      102267.88      1.1304418e+09  7.2634873e-05  5.1753972e-07  7.2117333e-05  2.8589697e+09
   4337000   3.8249767e-11  3471906.9      102270.46      1.1304409e+09  7.263488e-05   5.1754786e-07  7.2117332e-05  2.8589704e+09
   4338000   3.8258587e-11  3471901.2      102269.85      1.1304393e+09  7.2634882e-05  5.1766687e-07  7.2117215e-05  2.8589682e+09
   4339000   3.8267406e-11  3471898.9      102271.16      1.130438e+09   7.2634877e-05  5.1771068e-07  7.2117167e-05  2.8589674e+09
   4340000   3.8276225e-11  3471903.2      102272.32      1.1304391e+09  7.2634877e-05  5.1762115e-07  7.2117256e-05  2.8589694e+09
   4341000   3.8285045e-11  3471902.5      102267.36      1.1304405e+09  7.263488e-05   5.1763822e-07  7.2117242e-05  2.8589693e+09
   4342000   3.8293864e-11  3471901.2      102268.27      1.1304398e+09  7.2634882e-05  5.1766642e-07  7.2117215e-05  2.858969e+09 
   4343000   3.8302684e-11  3471903.9      102267.97      1.1304408e+09  7.2634887e-05  5.1761781e-07  7.2117269e-05  2.8589704e+09
   4344000   3.8311503e-11  3471904.6      102271.43      1.1304399e+09  7.263489e-05   5.1760519e-07  7.2117284e-05  2.858971e+09 
   4345000   3.8320322e-11  3471902.6      102275.72      1.1304378e+09  7.2634895e-05  5.1765068e-07  7.2117244e-05  2.8589711e+09
   4346000   3.8329142e-11  3471904        102278.95      1.1304371e+09  7.2634892e-05  5.1761952e-07  7.2117272e-05  2.8589716e+09
   4347000   3.8337961e-11  3471911.7      102279.79      1.1304394e+09  7.2634896e-05  5.1746503e-07  7.2117431e-05  2.8589748e+09
   4348000   3.8346781e-11  3471912.7      102283.06      1.1304387e+09  7.2634898e-05  5.1744417e-07  7.2117454e-05  2.8589756e+09
   4349000   3.83556e-11    3471914        102284.32      1.1304387e+09  7.2634898e-05  5.1741885e-07  7.2117479e-05  2.8589761e+09
   4350000   3.8364419e-11  3471919.5      102285.36      1.1304402e+09  7.2634898e-05  5.1730353e-07  7.2117594e-05  2.8589774e+09
   4351000   3.8373239e-11  3471913.7      102283.37      1.1304389e+09  7.2634896e-05  5.1742323e-07  7.2117473e-05  2.858975e+09 
   4352000   3.8382058e-11  3471904        102280.14      1.1304368e+09  7.263489e-05   5.1761671e-07  7.2117273e-05  2.8589715e+09
   4353000   3.8390878e-11  3471907.9      102278.94      1.1304385e+09  7.2634892e-05  5.1753824e-07  7.2117354e-05  2.8589737e+09
   4354000   3.8399697e-11  3471908.8      102278.14      1.130439e+09   7.2634888e-05  5.1751523e-07  7.2117373e-05  2.8589736e+09
   4355000   3.8408516e-11  3471905.5      102272.17      1.1304399e+09  7.2634892e-05  5.1758811e-07  7.2117303e-05  2.858972e+09 
   4356000   3.8417336e-11  3471898.6      102265.67      1.1304398e+09  7.2634886e-05  5.1772546e-07  7.2117161e-05  2.8589685e+09
   4357000   3.8426155e-11  3471899.4      102263.96      1.1304406e+09  7.2634886e-05  5.1770797e-07  7.2117178e-05  2.8589689e+09
   4358000   3.8434975e-11  3471897.3      102267.8       1.1304386e+09  7.2634884e-05  5.1775063e-07  7.2117133e-05  2.8589687e+09
   4359000   3.8443794e-11  3471900.6      102269.17      1.1304393e+09  7.2634882e-05  5.1768136e-07  7.2117201e-05  2.85897e+09  
   4360000   3.8452613e-11  3471906.6      102274.97      1.1304394e+09  7.2634892e-05  5.1756459e-07  7.2117327e-05  2.8589729e+09
   4361000   3.8461433e-11  3471904.2      102277.7       1.1304376e+09  7.2634902e-05  5.1762613e-07  7.2117276e-05  2.8589731e+09
   4362000   3.8470252e-11  3471908.7      102279.19      1.1304386e+09  7.2634888e-05  5.1751775e-07  7.2117371e-05  2.8589738e+09
   4363000   3.8479072e-11  3471912.1      102278.58      1.13044e+09    7.2634883e-05  5.1744266e-07  7.2117441e-05  2.858974e+09 
   4364000   3.8487891e-11  3471912.9      102279.33      1.13044e+09    7.263488e-05   5.1742203e-07  7.2117458e-05  2.8589737e+09
   4365000   3.8496711e-11  3471910.5      102278.63      1.1304394e+09  7.2634872e-05  5.1746426e-07  7.2117408e-05  2.8589722e+09
   4366000   3.850553e-11   3471912.5      102282.83      1.1304387e+09  7.2634877e-05  5.1742713e-07  7.211745e-05   2.8589735e+09
   4367000   3.8514349e-11  3471910.2      102281.17      1.1304385e+09  7.2634874e-05  5.1747355e-07  7.21174e-05    2.8589724e+09
   4368000   3.8523169e-11  3471915.6      102285.68      1.1304388e+09  7.2634879e-05  5.173668e-07   7.2117513e-05  2.8589755e+09
   4369000   3.8531988e-11  3471908.8      102283.89      1.1304371e+09  7.2634875e-05  5.1750217e-07  7.2117373e-05  2.8589726e+09
   4370000   3.8540808e-11  3471917.4      102285.06      1.1304396e+09  7.2634877e-05  5.1732743e-07  7.211755e-05   2.8589758e+09
   4371000   3.8549627e-11  3471910.8      102284.36      1.1304376e+09  7.2634882e-05  5.1746806e-07  7.2117414e-05  2.8589732e+09
   4372000   3.8558446e-11  3471906.8      102279.29      1.130438e+09   7.2634875e-05  5.1754439e-07  7.2117331e-05  2.8589708e+09
   4373000   3.8567266e-11  3471905.2      102277.16      1.1304381e+09  7.2634882e-05  5.1758483e-07  7.2117297e-05  2.8589711e+09
   4374000   3.8576085e-11  3471903.5      102275.49      1.1304381e+09  7.2634879e-05  5.1761626e-07  7.2117263e-05  2.8589702e+09
   4375000   3.8584905e-11  3471901.4      102274.52      1.1304377e+09  7.2634886e-05  5.1766863e-07  7.2117218e-05  2.8589698e+09
   4376000   3.8593724e-11  3471907.6      102278.05      1.1304386e+09  7.2634898e-05  5.1755128e-07  7.2117347e-05  2.8589734e+09
   4377000   3.8602543e-11  3471903.2      102277.49      1.1304374e+09  7.2634899e-05  5.1764369e-07  7.2117256e-05  2.8589727e+09
   4378000   3.8611363e-11  3471899.8      102276.47      1.1304366e+09  7.2634899e-05  5.1771332e-07  7.2117186e-05  2.8589723e+09
   4379000   3.8620182e-11  3471900.8      102278.83      1.1304361e+09  7.2634897e-05  5.17691e-07    7.2117206e-05  2.8589729e+09
   4380000   3.8629002e-11  3471905.9      102277.74      1.1304382e+09  7.26349e-05    5.1758759e-07  7.2117313e-05  2.8589738e+09
   4381000   3.8637821e-11  3471911.5      102275.55      1.1304408e+09  7.2634897e-05  5.1746729e-07  7.2117429e-05  2.8589743e+09
   4382000   3.864664e-11   3471902.2      102275.87      1.1304376e+09  7.2634892e-05  5.1765647e-07  7.2117235e-05  2.8589704e+09
   4383000   3.865546e-11   3471904.6      102272.25      1.1304396e+09  7.2634896e-05  5.1761149e-07  7.2117284e-05  2.8589719e+09
   4384000   3.8664279e-11  3471905.3      102278.53      1.1304377e+09  7.2634892e-05  5.175922e-07   7.2117299e-05  2.8589729e+09
   4385000   3.8673099e-11  3471905.5      102283.66      1.1304361e+09  7.2634888e-05  5.1758535e-07  7.2117303e-05  2.8589731e+09
   4386000   3.8681918e-11  3471904.6      102282.07      1.1304363e+09  7.2634893e-05  5.1760819e-07  7.2117285e-05  2.8589727e+09
   4387000   3.8690737e-11  3471901.5      102279.87      1.130436e+09   7.263489e-05   5.1767043e-07  7.211722e-05   2.8589713e+09
   4388000   3.8699557e-11  3471911.5      102285.1       1.1304376e+09  7.2634885e-05  5.174575e-07   7.2117427e-05  2.8589747e+09
   4389000   3.8708376e-11  3471912.5      102286.03      1.1304376e+09  7.2634896e-05  5.1744709e-07  7.2117449e-05  2.8589759e+09
   4390000   3.8717196e-11  3471904        102288.84      1.1304339e+09  7.2634896e-05  5.1762285e-07  7.2117273e-05  2.8589725e+09
   4391000   3.8726015e-11  3471904.9      102284.55      1.1304356e+09  7.2634888e-05  5.1759669e-07  7.2117291e-05  2.8589727e+09
   4392000   3.8734834e-11  3471908.2      102284.04      1.1304368e+09  7.2634897e-05  5.1753854e-07  7.2117359e-05  2.8589746e+09
   4393000   3.8743654e-11  3471901.9      102284.26      1.1304347e+09  7.2634899e-05  5.1766923e-07  7.2117229e-05  2.8589721e+09
   4394000   3.8752473e-11  3471911.5      102288.25      1.1304366e+09  7.2634897e-05  5.1746787e-07  7.2117429e-05  2.858976e+09 
   4395000   3.8761293e-11  3471900.2      102287.01      1.1304332e+09  7.2634893e-05  5.1769965e-07  7.2117194e-05  2.8589717e+09
   4396000   3.8770112e-11  3471897.1      102283.97      1.1304331e+09  7.2634889e-05  5.1776037e-07  7.2117129e-05  2.8589697e+09
   4397000   3.8778932e-11  3471901.5      102277.76      1.1304367e+09  7.2634894e-05  5.1767332e-07  7.2117221e-05  2.8589708e+09
   4398000   3.8787751e-11  3471905        102280.16      1.1304371e+09  7.2634889e-05  5.1759626e-07  7.2117293e-05  2.8589712e+09
   4399000   3.879657e-11   3471906.3      102278.98      1.1304379e+09  7.2634892e-05  5.1757278e-07  7.2117319e-05  2.8589722e+09
   4400000   3.880539e-11   3471897.1      102277.34      1.1304354e+09  7.2634896e-05  5.1776666e-07  7.211713e-05   2.8589693e+09
   4401000   3.8814209e-11  3471889.3      102274.25      1.1304338e+09  7.26349e-05    5.1793206e-07  7.2116968e-05  2.8589665e+09
   4402000   3.8823029e-11  3471902.6      102276.57      1.1304375e+09  7.2634901e-05  5.1765698e-07  7.2117244e-05  2.8589714e+09
   4403000   3.8831848e-11  3471895.9      102276.65      1.1304352e+09  7.2634895e-05  5.1779157e-07  7.2117104e-05  2.8589687e+09
   4404000   3.8840667e-11  3471892.1      102277.74      1.1304335e+09  7.2634894e-05  5.1786947e-07  7.2117024e-05  2.8589678e+09
   4405000   3.8849487e-11  3471894.6      102277.84      1.1304344e+09  7.2634896e-05  5.1781852e-07  7.2117077e-05  2.8589699e+09
   4406000   3.8858306e-11  3471889.2      102277.85      1.1304325e+09  7.2634899e-05  5.1793505e-07  7.2116964e-05  2.8589684e+09
   4407000   3.8867126e-11  3471895.7      102278.26      1.1304346e+09  7.2634892e-05  5.177915e-07   7.2117101e-05  2.8589693e+09
   4408000   3.8875945e-11  3471897        102278.35      1.130435e+09   7.2634891e-05  5.1776473e-07  7.2117126e-05  2.8589685e+09
   4409000   3.8884764e-11  3471900        102284.94      1.1304338e+09  7.263489e-05   5.1769961e-07  7.211719e-05   2.8589699e+09
   4410000   3.8893584e-11  3471896.6      102286.05      1.1304323e+09  7.263489e-05   5.1777106e-07  7.2117119e-05  2.8589698e+09
   4411000   3.8902403e-11  3471889.2      102284.24      1.1304304e+09  7.2634894e-05  5.1792901e-07  7.2116965e-05  2.8589679e+09
   4412000   3.8911223e-11  3471891.7      102281.17      1.1304323e+09  7.2634893e-05  5.178753e-07   7.2117018e-05  2.8589687e+09
   4413000   3.8920042e-11  3471890.2      102282.59      1.1304313e+09  7.2634885e-05  5.1789932e-07  7.2116986e-05  2.8589667e+09
   4414000   3.8928861e-11  3471903.8      102284.36      1.1304353e+09  7.2634883e-05  5.17614e-07    7.2117269e-05  2.8589708e+09
   4415000   3.8937681e-11  3471900.3      102284.01      1.1304342e+09  7.2634884e-05  5.176875e-07   7.2117196e-05  2.8589695e+09
   4416000   3.89465e-11    3471892.4      102279.2       1.1304332e+09  7.2634882e-05  5.1785105e-07  7.2117031e-05  2.858967e+09 
   4417000   3.895532e-11   3471895.7      102278.89      1.1304344e+09  7.2634885e-05  5.177858e-07   7.2117099e-05  2.8589689e+09
   4418000   3.8964139e-11  3471897.1      102284.23      1.1304331e+09  7.2634881e-05  5.1775135e-07  7.211713e-05   2.8589695e+09
   4419000   3.8972958e-11  3471897.7      102290.89      1.130431e+09   7.2634879e-05  5.1773749e-07  7.2117142e-05  2.8589696e+09
   4420000   3.8981778e-11  3471908.4      102289.9       1.130435e+09   7.2634879e-05  5.1751474e-07  7.2117364e-05  2.8589732e+09
   4421000   3.8990597e-11  3471897.7      102283.81      1.1304334e+09  7.2634878e-05  5.1773691e-07  7.2117141e-05  2.8589689e+09
   4422000   3.8999417e-11  3471890.3      102281.53      1.1304317e+09  7.263488e-05   5.1789187e-07  7.2116988e-05  2.8589663e+09
   4423000   3.9008236e-11  3471899.9      102285.11      1.1304337e+09  7.2634876e-05  5.1768796e-07  7.2117188e-05  2.8589696e+09
   4424000   3.9017056e-11  3471885.9      102279.82      1.1304308e+09  7.2634881e-05  5.1798412e-07  7.2116897e-05  2.8589648e+09
   4425000   3.9025875e-11  3471886.8      102278.8       1.1304314e+09  7.2634881e-05  5.1796599e-07  7.2116915e-05  2.8589652e+09
   4426000   3.9034694e-11  3471886.2      102276.61      1.130432e+09   7.2634879e-05  5.1797552e-07  7.2116903e-05  2.8589653e+09
   4427000   3.9043514e-11  3471884.7      102279.28      1.1304306e+09  7.2634875e-05  5.1800284e-07  7.2116872e-05  2.8589649e+09
   4428000   3.9052333e-11  3471890.7      102282.97      1.1304313e+09  7.2634882e-05  5.1788607e-07  7.2116995e-05  2.8589674e+09
   4429000   3.9061153e-11  3471897.7      102283.46      1.1304335e+09  7.2634874e-05  5.1773114e-07  7.2117143e-05  2.858969e+09 
   4430000   3.9069972e-11  3471895.8      102285.72      1.1304321e+09  7.263488e-05   5.1777861e-07  7.2117102e-05  2.8589687e+09
   4431000   3.9078791e-11  3471900.3      102287.32      1.1304331e+09  7.263488e-05   5.176844e-07   7.2117196e-05  2.8589704e+09
   4432000   3.9087611e-11  3471899.1      102290.22      1.1304317e+09  7.2634882e-05  5.1771036e-07  7.2117171e-05  2.8589708e+09
   4433000   3.909643e-11   3471900.6      102290.42      1.1304322e+09  7.2634881e-05  5.1767899e-07  7.2117202e-05  2.8589719e+09
   4434000   3.910525e-11   3471891.9      102290.22      1.1304293e+09  7.2634885e-05  5.1786378e-07  7.2117021e-05  2.8589686e+09
   4435000   3.9114069e-11  3471895.7      102291.67      1.1304301e+09  7.2634884e-05  5.1778344e-07  7.21171e-05    2.8589691e+09
   4436000   3.9122888e-11  3471901.8      102294.52      1.1304312e+09  7.2634876e-05  5.1765021e-07  7.2117226e-05  2.8589702e+09
   4437000   3.9131708e-11  3471907.8      102296.7       1.1304325e+09  7.2634879e-05  5.1752899e-07  7.211735e-05   2.8589723e+09
   4438000   3.9140527e-11  3471910.2      102300.32      1.1304321e+09  7.2634878e-05  5.174772e-07   7.2117401e-05  2.858973e+09 
   4439000   3.9149347e-11  3471904.6      102298.23      1.1304309e+09  7.2634872e-05  5.1758672e-07  7.2117285e-05  2.858971e+09 
   4440000   3.9158166e-11  3471905.1      102299.94      1.1304305e+09  7.2634876e-05  5.1757952e-07  7.2117296e-05  2.8589719e+09
   4441000   3.9166985e-11  3471898        102296.38      1.1304293e+09  7.2634882e-05  5.1773531e-07  7.2117147e-05  2.8589693e+09
   4442000   3.9175805e-11  3471904        102293.87      1.1304321e+09  7.2634878e-05  5.1760659e-07  7.2117272e-05  2.8589702e+09
   4443000   3.9184624e-11  3471896.2      102290.57      1.1304306e+09  7.2634868e-05  5.1775852e-07  7.211711e-05   2.8589656e+09
   4444000   3.9193444e-11  3471899.6      102289.88      1.130432e+09   7.2634866e-05  5.176844e-07   7.2117182e-05  2.8589664e+09
   4445000   3.9202263e-11  3471897.2      102292.62      1.1304303e+09  7.2634866e-05  5.177341e-07   7.2117132e-05  2.8589662e+09
   4446000   3.9211082e-11  3471901.9      102296.81      1.1304305e+09  7.263487e-05   5.1764161e-07  7.2117228e-05  2.8589692e+09
   4447000   3.9219902e-11  3471901.2      102300.86      1.1304289e+09  7.2634879e-05  5.1766422e-07  7.2117215e-05  2.8589699e+09
   4448000   3.9228721e-11  3471910.9      102303.77      1.1304311e+09  7.2634868e-05  5.1745251e-07  7.2117415e-05  2.8589728e+09
   4449000   3.9237541e-11  3471905.1      102303.63      1.1304293e+09  7.2634862e-05  5.1756655e-07  7.2117296e-05  2.8589708e+09
   4450000   3.924636e-11   3471894.9      102299.14      1.1304274e+09  7.2634873e-05  5.1778802e-07  7.2117085e-05  2.8589679e+09
   4451000   3.9255179e-11  3471900.6      102298.36      1.1304295e+09  7.2634873e-05  5.1767036e-07  7.2117203e-05  2.8589691e+09
   4452000   3.9263999e-11  3471905.2      102299.31      1.1304307e+09  7.2634871e-05  5.1757384e-07  7.2117297e-05  2.8589705e+09
   4453000   3.9272818e-11  3471906.5      102302.16      1.1304302e+09  7.2634863e-05  5.175385e-07   7.2117325e-05  2.8589705e+09
   4454000   3.9281638e-11  3471900.5      102303.66      1.1304277e+09  7.2634862e-05  5.1766133e-07  7.21172e-05    2.8589679e+09
   4455000   3.9290457e-11  3471906.7      102301.84      1.1304304e+09  7.263486e-05   5.1753088e-07  7.2117329e-05  2.858969e+09 
   4456000   3.9299277e-11  3471909.6      102302.38      1.1304312e+09  7.2634868e-05  5.1747829e-07  7.211739e-05   2.8589697e+09
   4457000   3.9308096e-11  3471899.6      102296.26      1.1304299e+09  7.2634874e-05  5.1769373e-07  7.211718e-05   2.858966e+09 
   4458000   3.9316915e-11  3471898.1      102294.94      1.1304298e+09  7.2634875e-05  5.1772582e-07  7.2117149e-05  2.8589662e+09
   4459000   3.9325735e-11  3471902.8      102298.29      1.1304303e+09  7.2634877e-05  5.1762862e-07  7.2117249e-05  2.8589689e+09
   4460000   3.9334554e-11  3471897.3      102297.19      1.1304288e+09  7.263488e-05   5.1774575e-07  7.2117134e-05  2.8589677e+09
   4461000   3.9343374e-11  3471891.9      102290.84      1.1304291e+09  7.2634881e-05  5.1785949e-07  7.2117022e-05  2.8589657e+09
   4462000   3.9352193e-11  3471890.5      102293.03      1.1304279e+09  7.2634878e-05  5.1788586e-07  7.2116992e-05  2.8589651e+09
   4463000   3.9361012e-11  3471893.3      102294.22      1.1304284e+09  7.2634875e-05  5.1782566e-07  7.2117049e-05  2.8589657e+09
   4464000   3.9369832e-11  3471898.4      102298.18      1.1304288e+09  7.2634875e-05  5.1771982e-07  7.2117155e-05  2.8589676e+09
   4465000   3.9378651e-11  3471899.8      102300.77      1.1304284e+09  7.2634877e-05  5.1769168e-07  7.2117185e-05  2.858968e+09 
   4466000   3.9387471e-11  3471901.7      102303.88      1.130428e+09   7.2634874e-05  5.1765008e-07  7.2117224e-05  2.8589678e+09
   4467000   3.939629e-11   3471903.7      102303.06      1.130429e+09   7.2634875e-05  5.1760982e-07  7.2117265e-05  2.8589678e+09
   4468000   3.9405109e-11  3471904.6      102307.52      1.1304278e+09  7.2634877e-05  5.1759139e-07  7.2117285e-05  2.8589684e+09
   4469000   3.9413929e-11  3471907.4      102311.43      1.1304274e+09  7.2634875e-05  5.1753255e-07  7.2117343e-05  2.8589699e+09
   4470000   3.9422748e-11  3471902.4      102311.63      1.1304257e+09  7.2634874e-05  5.176341e-07   7.2117239e-05  2.8589684e+09
   4471000   3.9431568e-11  3471908.2      102316.79      1.1304259e+09  7.2634871e-05  5.1751131e-07  7.211736e-05   2.8589705e+09
   4472000   3.9440387e-11  3471907.8      102313.53      1.1304268e+09  7.2634871e-05  5.1751981e-07  7.2117351e-05  2.8589695e+09
   4473000   3.9449206e-11  3471906.1      102314.61      1.1304259e+09  7.2634861e-05  5.1754548e-07  7.2117316e-05  2.8589678e+09
   4474000   3.9458026e-11  3471912.7      102319.05      1.1304267e+09  7.2634863e-05  5.1740944e-07  7.2117454e-05  2.858971e+09 
   4475000   3.9466845e-11  3471902.7      102317.63      1.1304238e+09  7.2634862e-05  5.1761703e-07  7.2117245e-05  2.8589673e+09
   4476000   3.9475665e-11  3471915.6      102322.82      1.1304264e+09  7.2634865e-05  5.1735069e-07  7.2117514e-05  2.858972e+09 
   4477000   3.9484484e-11  3471923.1      102325.02      1.1304282e+09  7.2634864e-05  5.1719322e-07  7.211767e-05   2.8589745e+09
   4478000   3.9493303e-11  3471922.2      102329.22      1.1304265e+09  7.2634857e-05  5.1720507e-07  7.2117652e-05  2.8589738e+09
   4479000   3.9502123e-11  3471914.5      102323.95      1.1304256e+09  7.2634862e-05  5.1737182e-07  7.211749e-05   2.858971e+09 
   4480000   3.9510942e-11  3471914        102321.02      1.1304264e+09  7.2634868e-05  5.1738671e-07  7.2117481e-05  2.8589708e+09
   4481000   3.9519762e-11  3471912.6      102319.97      1.1304263e+09  7.2634878e-05  5.1742727e-07  7.2117451e-05  2.8589708e+09
   4482000   3.9528581e-11  3471912.4      102315.99      1.1304276e+09  7.263488e-05   5.1743235e-07  7.2117447e-05  2.8589711e+09
   4483000   3.95374e-11    3471909.7      102317.37      1.1304262e+09  7.2634883e-05  5.1749204e-07  7.2117391e-05  2.8589709e+09
   4484000   3.954622e-11   3471903.7      102315.18      1.1304249e+09  7.263488e-05   5.1761491e-07  7.2117265e-05  2.8589688e+09
   4485000   3.9555039e-11  3471905        102315.14      1.1304254e+09  7.2634883e-05  5.1759026e-07  7.2117293e-05  2.8589694e+09
   4486000   3.9563859e-11  3471905.2      102318.21      1.1304244e+09  7.2634873e-05  5.1757546e-07  7.2117298e-05  2.8589682e+09
   4487000   3.9572678e-11  3471904.1      102314.92      1.1304252e+09  7.2634881e-05  5.176054e-07   7.2117275e-05  2.8589671e+09
   4488000   3.9581498e-11  3471910        102316.32      1.1304267e+09  7.2634873e-05  5.1747595e-07  7.2117397e-05  2.8589678e+09
   4489000   3.9590317e-11  3471905.5      102316.92      1.1304249e+09  7.2634871e-05  5.1756823e-07  7.2117303e-05  2.8589657e+09
   4490000   3.9599136e-11  3471903.9      102317.88      1.1304241e+09  7.2634871e-05  5.1759994e-07  7.2117271e-05  2.8589663e+09
   4491000   3.9607956e-11  3471900.7      102316.69      1.1304234e+09  7.2634873e-05  5.176683e-07   7.2117204e-05  2.8589659e+09
   4492000   3.9616775e-11  3471895.4      102319.42      1.1304207e+09  7.2634879e-05  5.1778565e-07  7.2117093e-05  2.8589641e+09
   4493000   3.9625595e-11  3471907.8      102322.64      1.1304238e+09  7.2634871e-05  5.1751932e-07  7.2117352e-05  2.8589672e+09
   4494000   3.9634414e-11  3471915.4      102324.2       1.1304258e+09  7.2634875e-05  5.1736476e-07  7.211751e-05   2.8589698e+09
   4495000   3.9643233e-11  3471912.2      102325.18      1.1304244e+09  7.2634874e-05  5.174302e-07   7.2117444e-05  2.8589688e+09
   4496000   3.9652053e-11  3471909.4      102327.43      1.1304228e+09  7.2634878e-05  5.1749215e-07  7.2117386e-05  2.8589684e+09
   4497000   3.9660872e-11  3471908.2      102327.84      1.1304222e+09  7.2634874e-05  5.1751399e-07  7.211736e-05   2.8589675e+09
   4498000   3.9669692e-11  3471915.6      102325.55      1.1304254e+09  7.2634886e-05  5.1737333e-07  7.2117513e-05  2.8589706e+09
   4499000   3.9678511e-11  3471914.8      102325.23      1.1304253e+09  7.2634879e-05  5.1738216e-07  7.2117497e-05  2.8589693e+09
   4500000   3.968733e-11   3471916.2      102329.7       1.1304243e+09  7.2634876e-05  5.173498e-07   7.2117526e-05  2.8589696e+09
   4501000   3.969615e-11   3471922.1      102336.9       1.1304238e+09  7.2634874e-05  5.1722663e-07  7.2117647e-05  2.8589715e+09
   4502000   3.9704969e-11  3471926.4      102337.8       1.130425e+09   7.2634862e-05  5.171233e-07   7.2117739e-05  2.858972e+09 
   4503000   3.9713789e-11  3471918.6      102335.74      1.130423e+09   7.263487e-05   5.1729462e-07  7.2117575e-05  2.8589697e+09
   4504000   3.9722608e-11  3471923.4      102338.32      1.1304238e+09  7.2634859e-05  5.171837e-07   7.2117675e-05  2.8589708e+09
   4505000   3.9731427e-11  3471932.2      102342.94      1.1304252e+09  7.2634866e-05  5.1700879e-07  7.2117858e-05  2.8589751e+09
   4506000   3.9740247e-11  3471928.6      102341.11      1.1304246e+09  7.2634867e-05  5.1708418e-07  7.2117783e-05  2.8589734e+09
   4507000   3.9749066e-11  3471924.3      102338.33      1.1304241e+09  7.2634862e-05  5.1716719e-07  7.2117695e-05  2.8589712e+09
   4508000   3.9757886e-11  3471925        102337.84      1.1304245e+09  7.2634859e-05  5.1715031e-07  7.2117709e-05  2.8589718e+09
   4509000   3.9766705e-11  3471915        102336.37      1.1304216e+09  7.2634856e-05  5.1735573e-07  7.2117501e-05  2.8589683e+09
   4510000   3.9775524e-11  3471911.7      102335.08      1.1304209e+09  7.2634876e-05  5.1744466e-07  7.2117431e-05  2.8589691e+09
   4511000   3.9784344e-11  3471914.8      102340.29      1.1304203e+09  7.263488e-05   5.1738263e-07  7.2117497e-05  2.8589713e+09
   4512000   3.9793163e-11  3471919.1      102338.75      1.1304222e+09  7.2634879e-05  5.1729239e-07  7.2117587e-05  2.8589729e+09
   4513000   3.9801983e-11  3471914.6      102335.41      1.1304218e+09  7.2634885e-05  5.1739211e-07  7.2117493e-05  2.8589714e+09
   4514000   3.9810802e-11  3471914.8      102335.16      1.130422e+09   7.2634888e-05  5.1739121e-07  7.2117496e-05  2.8589721e+09
   4515000   3.9819622e-11  3471912.4      102334.88      1.1304213e+09  7.2634889e-05  5.1744087e-07  7.2117448e-05  2.8589719e+09
   4516000   3.9828441e-11  3471911.9      102335.5       1.1304209e+09  7.2634892e-05  5.1745543e-07  7.2117436e-05  2.8589723e+09
   4517000   3.983726e-11   3471912.8      102336.77      1.1304208e+09  7.2634897e-05  5.1744098e-07  7.2117456e-05  2.8589734e+09
   4518000   3.984608e-11   3471906.5      102330.53      1.1304207e+09  7.2634892e-05  5.1756766e-07  7.2117325e-05  2.858971e+09 
   4519000   3.9854899e-11  3471899.5      102330.79      1.1304183e+09  7.263489e-05   5.1771094e-07  7.2117179e-05  2.8589684e+09
   4520000   3.9863719e-11  3471903.3      102327.33      1.1304207e+09  7.2634889e-05  5.176317e-07   7.2117257e-05  2.8589689e+09
   4521000   3.9872538e-11  3471907.6      102325.6       1.1304228e+09  7.2634891e-05  5.1754329e-07  7.2117347e-05  2.8589703e+09
   4522000   3.9881357e-11  3471906.6      102325.86      1.1304223e+09  7.2634882e-05  5.1755613e-07  7.2117326e-05  2.8589695e+09
   4523000   3.9890177e-11  3471907.5      102324.62      1.1304231e+09  7.2634884e-05  5.1753818e-07  7.2117346e-05  2.8589699e+09
   4524000   3.9898996e-11  3471905.6      102321.36      1.1304235e+09  7.2634886e-05  5.1758028e-07  7.2117306e-05  2.858969e+09 
   4525000   3.9907816e-11  3471902.9      102323.7       1.1304218e+09  7.2634895e-05  5.1764447e-07  7.211725e-05   2.858969e+09 
   4526000   3.9916635e-11  3471895.3      102321.54      1.13042e+09    7.2634906e-05  5.178143e-07   7.2117091e-05  2.8589683e+09
   4527000   3.9925454e-11  3471906.1      102322.53      1.1304233e+09  7.2634908e-05  5.1759186e-07  7.2117316e-05  2.8589735e+09
   4528000   3.9934274e-11  3471905        102324.28      1.1304223e+09  7.26349e-05    5.1760717e-07  7.2117292e-05  2.8589723e+09
   4529000   3.9943093e-11  3471903.9      102322.62      1.1304225e+09  7.26349e-05    5.176289e-07   7.2117271e-05  2.8589709e+09
   4530000   3.9951913e-11  3471906.9      102321.99      1.1304237e+09  7.2634899e-05  5.1756715e-07  7.2117332e-05  2.8589714e+09
   4531000   3.9960732e-11  3471908.7      102323.53      1.1304238e+09  7.2634894e-05  5.1752266e-07  7.2117371e-05  2.8589721e+09
   4532000   3.9969551e-11  3471904.6      102323.8       1.1304224e+09  7.2634893e-05  5.1760721e-07  7.2117286e-05  2.8589713e+09
   4533000   3.9978371e-11  3471904.9      102323.6       1.1304225e+09  7.2634901e-05  5.1760986e-07  7.2117291e-05  2.858973e+09 
   4534000   3.998719e-11   3471902.3      102327.46      1.1304204e+09  7.2634896e-05  5.176578e-07   7.2117238e-05  2.8589722e+09
   4535000   3.999601e-11   3471899.1      102325.84      1.1304198e+09  7.2634889e-05  5.1771899e-07  7.211717e-05   2.8589709e+09
   4536000   4.0004829e-11  3471894.2      102326.13      1.1304181e+09  7.2634886e-05  5.1781651e-07  7.211707e-05   2.8589691e+09
   4537000   4.0013648e-11  3471897.6      102322.76      1.1304203e+09  7.263489e-05   5.1775061e-07  7.2117139e-05  2.8589701e+09
   4538000   4.0022468e-11  3471903.9      102322.36      1.1304226e+09  7.2634889e-05  5.1761881e-07  7.2117271e-05  2.8589718e+09
   4539000   4.0031287e-11  3471903.2      102327.83      1.1304205e+09  7.2634896e-05  5.1763987e-07  7.2117256e-05  2.8589718e+09
   4540000   4.0040107e-11  3471906.6      102329.38      1.1304212e+09  7.2634892e-05  5.1756439e-07  7.2117327e-05  2.8589731e+09
   4541000   4.0048926e-11  3471901.6      102327.68      1.13042e+09    7.2634877e-05  5.176554e-07   7.2117222e-05  2.8589697e+09
   4542000   4.0057745e-11  3471905.8      102325.29      1.1304222e+09  7.2634873e-05  5.1756308e-07  7.2117309e-05  2.8589701e+09
   4543000   4.0066565e-11  3471911.3      102330.39      1.1304224e+09  7.2634875e-05  5.1745181e-07  7.2117423e-05  2.8589719e+09
   4544000   4.0075384e-11  3471909.1      102328.8       1.1304222e+09  7.2634876e-05  5.1749791e-07  7.2117378e-05  2.858971e+09 
   4545000   4.0084204e-11  3471904.1      102329.6       1.1304202e+09  7.2634875e-05  5.1760026e-07  7.2117275e-05  2.8589695e+09
   4546000   4.0093023e-11  3471899.8      102330.11      1.1304186e+09  7.263488e-05   5.1769406e-07  7.2117186e-05  2.8589682e+09
   4547000   4.0101843e-11  3471912.5      102332.7       1.130422e+09   7.263488e-05   5.1743019e-07  7.211745e-05   2.8589731e+09
   4548000   4.0110662e-11  3471909.4      102334.36      1.1304204e+09  7.2634885e-05  5.1750131e-07  7.2117384e-05  2.8589727e+09
   4549000   4.0119481e-11  3471906.5      102339.27      1.1304178e+09  7.2634893e-05  5.1756932e-07  7.2117324e-05  2.8589727e+09
   4550000   4.0128301e-11  3471912.5      102343.58      1.1304184e+09  7.2634897e-05  5.1744779e-07  7.2117449e-05  2.8589762e+09
   4551000   4.013712e-11   3471913.8      102344.81      1.1304184e+09  7.2634899e-05  5.1742343e-07  7.2117476e-05  2.858977e+09 
   4552000   4.014594e-11   3471914.8      102344.89      1.1304187e+09  7.2634892e-05  5.1739641e-07  7.2117496e-05  2.8589763e+09
   4553000   4.0154759e-11  3471917.4      102343.11      1.1304202e+09  7.2634895e-05  5.1734431e-07  7.211755e-05   2.8589764e+09
   4554000   4.0163578e-11  3471911.2      102339.85      1.1304192e+09  7.2634892e-05  5.1746993e-07  7.2117422e-05  2.8589737e+09
   4555000   4.0172398e-11  3471904.6      102338.38      1.1304175e+09  7.2634894e-05  5.176105e-07   7.2117284e-05  2.858972e+09 
   4556000   4.0181217e-11  3471910        102337.39      1.1304196e+09  7.2634899e-05  5.1750079e-07  7.2117398e-05  2.8589744e+09
   4557000   4.0190037e-11  3471911        102336.96      1.1304201e+09  7.26349e-05    5.1748213e-07  7.2117418e-05  2.8589746e+09
   4558000   4.0198856e-11  3471894.5      102330.84      1.1304166e+09  7.2634895e-05  5.1781994e-07  7.2117075e-05  2.8589679e+09
   4559000   4.0207675e-11  3471896.2      102328.51      1.130418e+09   7.2634902e-05  5.1779102e-07  7.2117111e-05  2.8589693e+09
   4560000   4.0216495e-11  3471903        102334.49      1.1304182e+09  7.2634898e-05  5.1764581e-07  7.2117252e-05  2.8589722e+09
   4561000   4.0225314e-11  3471893.5      102333.75      1.1304153e+09  7.2634887e-05  5.1783262e-07  7.2117055e-05  2.8589681e+09
   4562000   4.0234134e-11  3471896.2      102333.59      1.1304163e+09  7.2634889e-05  5.1777916e-07  7.211711e-05   2.8589687e+09
   4563000   4.0242953e-11  3471900.4      102334.7       1.1304173e+09  7.2634881e-05  5.1768303e-07  7.2117198e-05  2.8589693e+09
   4564000   4.0251772e-11  3471910.9      102342.1       1.1304184e+09  7.2634888e-05  5.1747099e-07  7.2117417e-05  2.8589739e+09
   4565000   4.0260592e-11  3471908.7      102342.42      1.1304175e+09  7.2634881e-05  5.1751183e-07  7.2117369e-05  2.8589722e+09
   4566000   4.0269411e-11  3471913        102342.84      1.1304188e+09  7.2634895e-05  5.1743616e-07  7.2117459e-05  2.8589743e+09
   4567000   4.0278231e-11  3471907        102341.86      1.1304171e+09  7.2634888e-05  5.1755214e-07  7.2117336e-05  2.8589711e+09
   4568000   4.028705e-11   3471908.7      102341.28      1.1304179e+09  7.2634895e-05  5.1752543e-07  7.211737e-05   2.858972e+09 
   4569000   4.0295869e-11  3471905.7      102337.36      1.1304182e+09  7.2634905e-05  5.1759781e-07  7.2117307e-05  2.8589717e+09
   4570000   4.0304689e-11  3471910.3      102346.98      1.1304165e+09  7.2634899e-05  5.1749489e-07  7.2117404e-05  2.8589739e+09
   4571000   4.0313508e-11  3471908.2      102354.34      1.1304133e+09  7.2634908e-05  5.1754833e-07  7.211736e-05   2.858975e+09 
   4572000   4.0322328e-11  3471909.7      102352.35      1.1304145e+09  7.2634908e-05  5.1751783e-07  7.211739e-05   2.8589756e+09
   4573000   4.0331147e-11  3471910.9      102355.17      1.130414e+09   7.2634904e-05  5.1748828e-07  7.2117416e-05  2.8589753e+09
   4574000   4.0339967e-11  3471915.5      102358.19      1.1304145e+09  7.2634902e-05  5.1739181e-07  7.2117511e-05  2.8589761e+09
   4575000   4.0348786e-11  3471920.2      102359.28      1.1304157e+09  7.2634895e-05  5.1728561e-07  7.2117609e-05  2.8589765e+09
   4576000   4.0357605e-11  3471917.8      102357.02      1.1304157e+09  7.2634899e-05  5.1733885e-07  7.211756e-05   2.8589759e+09
   4577000   4.0366425e-11  3471930.1      102366.53      1.1304166e+09  7.2634908e-05  5.1709321e-07  7.2117815e-05  2.8589815e+09
   4578000   4.0375244e-11  3471915.4      102361.96      1.1304132e+09  7.2634912e-05  5.1740228e-07  7.211751e-05   2.8589768e+09
   4579000   4.0384064e-11  3471903.3      102352.86      1.1304122e+09  7.2634914e-05  5.1765565e-07  7.2117258e-05  2.8589729e+09
   4580000   4.0392883e-11  3471902.8      102352.37      1.1304122e+09  7.2634909e-05  5.1766168e-07  7.2117247e-05  2.8589731e+09
   4581000   4.0401702e-11  3471898.7      102352.09      1.1304109e+09  7.2634903e-05  5.1774015e-07  7.2117162e-05  2.8589715e+09
   4582000   4.0410522e-11  3471904.5      102355.98      1.1304115e+09  7.2634899e-05  5.1761722e-07  7.2117282e-05  2.858973e+09 
   4583000   4.0419341e-11  3471904.8      102349.79      1.1304137e+09  7.2634889e-05  5.175995e-07   7.2117289e-05  2.8589704e+09
   4584000   4.0428161e-11  3471901.2      102344.86      1.1304142e+09  7.263489e-05   5.176751e-07   7.2117215e-05  2.8589677e+09
   4585000   4.043698e-11   3471908.1      102349.98      1.1304148e+09  7.2634879e-05  5.1752067e-07  7.2117358e-05  2.8589696e+09
   4586000   4.0445799e-11  3471908.5      102358.74      1.130412e+09   7.2634869e-05  5.1750338e-07  7.2117366e-05  2.8589692e+09
   4587000   4.0454619e-11  3471917.5      102359.36      1.1304148e+09  7.2634876e-05  5.1732324e-07  7.2117553e-05  2.858973e+09 
   4588000   4.0463438e-11  3471916.4      102357.72      1.130415e+09   7.2634882e-05  5.1735262e-07  7.211753e-05   2.8589728e+09
   4589000   4.0472258e-11  3471911.5      102352.77      1.130415e+09   7.2634874e-05  5.1744471e-07  7.2117429e-05  2.8589704e+09
   4590000   4.0481077e-11  3471898.2      102353.07      1.1304104e+09  7.2634876e-05  5.1772308e-07  7.2117153e-05  2.858966e+09 
   4591000   4.0489896e-11  3471906.6      102355.12      1.1304125e+09  7.2634878e-05  5.1755158e-07  7.2117326e-05  2.8589695e+09
   4592000   4.0498716e-11  3471913.1      102359         1.1304134e+09  7.2634885e-05  5.1742418e-07  7.2117461e-05  2.8589729e+09
   4593000   4.0507535e-11  3471900.5      102358.99      1.1304092e+09  7.2634884e-05  5.176848e-07   7.2117199e-05  2.8589682e+09
   4594000   4.0516355e-11  3471905.8      102357.53      1.1304115e+09  7.2634887e-05  5.1757773e-07  7.2117309e-05  2.8589706e+09
   4595000   4.0525174e-11  3471907        102363.62      1.1304098e+09  7.2634888e-05  5.1755275e-07  7.2117335e-05  2.8589715e+09
   4596000   4.0533993e-11  3471914.2      102363.18      1.1304124e+09  7.2634879e-05  5.1739504e-07  7.2117484e-05  2.8589736e+09
   4597000   4.0542813e-11  3471902.7      102360.07      1.1304096e+09  7.2634871e-05  5.1762621e-07  7.2117245e-05  2.8589685e+09
   4598000   4.0551632e-11  3471900        102355.09      1.1304103e+09  7.2634882e-05  5.1769268e-07  7.2117189e-05  2.8589675e+09
   4599000   4.0560452e-11  3471901.9      102354.44      1.1304112e+09  7.2634878e-05  5.1764999e-07  7.2117228e-05  2.8589677e+09
   4600000   4.0569271e-11  3471911.4      102356.69      1.1304136e+09  7.2634875e-05  5.1744948e-07  7.2117426e-05  2.8589708e+09
   4601000   4.057809e-11   3471904        102356.57      1.1304112e+09  7.263488e-05   5.1760708e-07  7.2117273e-05  2.8589684e+09
   4602000   4.058691e-11   3471907.1      102354.34      1.130413e+09   7.2634882e-05  5.1754552e-07  7.2117337e-05  2.8589702e+09
   4603000   4.0595729e-11  3471898.4      102354.28      1.1304101e+09  7.2634888e-05  5.1773113e-07  7.2117157e-05  2.8589675e+09
   4604000   4.0604549e-11  3471909.5      102355.86      1.1304133e+09  7.263489e-05   5.1750398e-07  7.2117386e-05  2.8589718e+09
   4605000   4.0613368e-11  3471904.4      102357.13      1.1304111e+09  7.2634889e-05  5.1760682e-07  7.2117282e-05  2.8589696e+09
   4606000   4.0622188e-11  3471909.1      102360.41      1.1304116e+09  7.2634882e-05  5.1750248e-07  7.2117379e-05  2.8589712e+09
   4607000   4.0631007e-11  3471912.6      102366.23      1.1304108e+09  7.2634885e-05  5.1743455e-07  7.2117451e-05  2.8589733e+09
   4608000   4.0639826e-11  3471915        102366.96      1.1304114e+09  7.2634881e-05  5.1737961e-07  7.2117502e-05  2.8589736e+09
   4609000   4.0648646e-11  3471925.7      102374.72      1.1304124e+09  7.2634874e-05  5.1715062e-07  7.2117724e-05  2.858977e+09 
   4610000   4.0657465e-11  3471928.9      102377.65      1.1304125e+09  7.2634862e-05  5.1707261e-07  7.211779e-05   2.8589767e+09
   4611000   4.0666285e-11  3471934.2      102381.98      1.1304128e+09  7.263486e-05   5.1696055e-07  7.2117899e-05  2.8589775e+09
   4612000   4.0675104e-11  3471933.8      102381.9       1.1304127e+09  7.2634862e-05  5.1697019e-07  7.2117892e-05  2.8589774e+09
   4613000   4.0683923e-11  3471930.2      102380.66      1.1304119e+09  7.2634868e-05  5.1705066e-07  7.2117817e-05  2.8589768e+09
   4614000   4.0692743e-11  3471925.1      102375.71      1.1304119e+09  7.2634866e-05  5.1715463e-07  7.2117712e-05  2.8589757e+09
   4615000   4.0701562e-11  3471911.8      102369.1       1.1304096e+09  7.2634865e-05  5.1743012e-07  7.2117435e-05  2.8589712e+09
   4616000   4.0710382e-11  3471919.9      102368.2       1.1304126e+09  7.2634868e-05  5.1726473e-07  7.2117603e-05  2.8589739e+09
   4617000   4.0719201e-11  3471918.8      102367.6       1.1304125e+09  7.2634872e-05  5.1729208e-07  7.211758e-05   2.858973e+09 
   4618000   4.072802e-11   3471911.3      102364.55      1.130411e+09   7.2634869e-05  5.1744501e-07  7.2117424e-05  2.8589693e+09
   4619000   4.073684e-11   3471907.9      102363.56      1.1304102e+09  7.2634868e-05  5.1751334e-07  7.2117354e-05  2.8589685e+09
   4620000   4.0745659e-11  3471906.5      102364.23      1.1304095e+09  7.2634869e-05  5.1754365e-07  7.2117325e-05  2.8589684e+09
   4621000   4.0754479e-11  3471906.1      102363.98      1.1304094e+09  7.2634867e-05  5.1755198e-07  7.2117315e-05  2.8589681e+09
   4622000   4.0763298e-11  3471910.8      102363.96      1.130411e+09   7.2634868e-05  5.174555e-07   7.2117413e-05  2.8589696e+09
   4623000   4.0772117e-11  3471913.6      102367.84      1.1304106e+09  7.2634858e-05  5.1738661e-07  7.2117472e-05  2.8589692e+09
   4624000   4.0780937e-11  3471926.2      102372.53      1.1304133e+09  7.2634868e-05  5.1713372e-07  7.2117735e-05  2.8589743e+09
   4625000   4.0789756e-11  3471924.8      102373.14      1.1304126e+09  7.2634873e-05  5.1716749e-07  7.2117705e-05  2.8589738e+09
   4626000   4.0798576e-11  3471922.5      102373.33      1.1304118e+09  7.2634868e-05  5.1721097e-07  7.2117657e-05  2.8589725e+09
   4627000   4.0807395e-11  3471924.9      102375.58      1.1304119e+09  7.2634869e-05  5.1716192e-07  7.2117707e-05  2.8589734e+09
   4628000   4.0816214e-11  3471935.2      102376.28      1.1304151e+09  7.2634869e-05  5.1694793e-07  7.2117921e-05  2.8589764e+09
   4629000   4.0825034e-11  3471926.1      102380.01      1.1304108e+09  7.2634864e-05  5.1713258e-07  7.2117732e-05  2.858972e+09 
   4630000   4.0833853e-11  3471929.1      102380.12      1.1304117e+09  7.2634863e-05  5.1706846e-07  7.2117794e-05  2.8589733e+09
   4631000   4.0842673e-11  3471928.8      102380.9       1.1304114e+09  7.2634863e-05  5.1707489e-07  7.2117788e-05  2.8589738e+09
   4632000   4.0851492e-11  3471930.4      102383.97      1.1304109e+09  7.2634866e-05  5.1704444e-07  7.2117822e-05  2.8589744e+09
   4633000   4.0860312e-11  3471923.4      102382.91      1.1304089e+09  7.263487e-05   5.1719374e-07  7.2117676e-05  2.8589714e+09
   4634000   4.0869131e-11  3471935.9      102379.16      1.1304143e+09  7.2634868e-05  5.1693289e-07  7.2117935e-05  2.8589752e+09
   4635000   4.087795e-11   3471921.3      102373.18      1.1304114e+09  7.2634861e-05  5.17228e-07    7.2117633e-05  2.8589694e+09
   4636000   4.088677e-11   3471921.8      102374.38      1.1304112e+09  7.2634866e-05  5.1722457e-07  7.2117642e-05  2.8589702e+09
   4637000   4.0895589e-11  3471921        102373.48      1.1304112e+09  7.2634861e-05  5.1723664e-07  7.2117625e-05  2.8589695e+09
   4638000   4.0904409e-11  3471918.9      102375.12      1.13041e+09    7.2634857e-05  5.172752e-07   7.2117582e-05  2.8589688e+09
   4639000   4.0913228e-11  3471922.4      102378.72      1.1304099e+09  7.2634849e-05  5.171943e-07   7.2117654e-05  2.8589688e+09
   4640000   4.0922047e-11  3471927.3      102378.58      1.1304116e+09  7.263485e-05   5.1709394e-07  7.2117756e-05  2.8589703e+09
   4641000   4.0930867e-11  3471926.4      102385.04      1.1304092e+09  7.2634849e-05  5.171119e-07   7.2117737e-05  2.8589702e+09
   4642000   4.0939686e-11  3471929.7      102383.28      1.1304109e+09  7.2634847e-05  5.1704021e-07  7.2117807e-05  2.8589718e+09
   4643000   4.0948506e-11  3471927.7      102384.25      1.1304099e+09  7.2634849e-05  5.1708447e-07  7.2117764e-05  2.8589714e+09
   4644000   4.0957325e-11  3471925.3      102384.46      1.130409e+09   7.2634857e-05  5.1714172e-07  7.2117715e-05  2.8589709e+09
   4645000   4.0966144e-11  3471928.8      102384.82      1.1304101e+09  7.2634847e-05  5.1705902e-07  7.2117788e-05  2.858972e+09 
   4646000   4.0974964e-11  3471920.2      102385.31      1.130407e+09   7.263485e-05   5.1724026e-07  7.2117609e-05  2.8589698e+09
   4647000   4.0983783e-11  3471926        102385.12      1.130409e+09   7.2634852e-05  5.1712186e-07  7.211773e-05   2.8589723e+09
   4648000   4.0992603e-11  3471923.6      102385.87      1.1304079e+09  7.2634862e-05  5.1718348e-07  7.2117679e-05  2.8589722e+09
   4649000   4.1001422e-11  3471920.8      102384.15      1.1304076e+09  7.2634848e-05  5.1722588e-07  7.2117622e-05  2.8589706e+09
   4650000   4.1010241e-11  3471918.2      102384.1       1.1304068e+09  7.2634848e-05  5.1727934e-07  7.2117568e-05  2.8589696e+09
   4651000   4.1019061e-11  3471924.5      102387.59      1.1304077e+09  7.2634846e-05  5.1714763e-07  7.2117698e-05  2.8589716e+09
   4652000   4.102788e-11   3471920.1      102384.54      1.1304072e+09  7.2634845e-05  5.1723804e-07  7.2117607e-05  2.8589695e+09
   4653000   4.10367e-11    3471920.6      102381.38      1.1304084e+09  7.2634843e-05  5.1722631e-07  7.2117617e-05  2.8589688e+09
   4654000   4.1045519e-11  3471917.5      102372.92      1.1304103e+09  7.2634853e-05  5.1729895e-07  7.2117554e-05  2.8589684e+09
   4655000   4.1054338e-11  3471907.6      102367.59      1.1304087e+09  7.2634854e-05  5.1750776e-07  7.2117347e-05  2.8589656e+09
   4656000   4.1063158e-11  3471896.4      102360.6       1.1304073e+09  7.2634861e-05  5.177474e-07   7.2117114e-05  2.8589622e+09
   4657000   4.1071977e-11  3471900.7      102369.47      1.1304058e+09  7.2634863e-05  5.1765933e-07  7.2117204e-05  2.8589644e+09
   4658000   4.1080797e-11  3471900.5      102374.49      1.130404e+09   7.2634858e-05  5.1765812e-07  7.21172e-05    2.8589644e+09
   4659000   4.1089616e-11  3471905.5      102374.55      1.1304057e+09  7.2634859e-05  5.1755572e-07  7.2117303e-05  2.8589671e+09
   4660000   4.1098435e-11  3471904.5      102376.89      1.1304046e+09  7.2634856e-05  5.1757231e-07  7.2117284e-05  2.8589667e+09
   4661000   4.1107255e-11  3471902.4      102375.69      1.1304043e+09  7.2634864e-05  5.1762452e-07  7.2117239e-05  2.8589663e+09
   4662000   4.1116074e-11  3471911.5      102373.88      1.1304079e+09  7.2634864e-05  5.1743609e-07  7.2117427e-05  2.8589695e+09
   4663000   4.1124894e-11  3471900.4      102368.95      1.1304058e+09  7.263486e-05   5.1766329e-07  7.2117197e-05  2.8589656e+09
   4664000   4.1133713e-11  3471892.8      102364.35      1.1304048e+09  7.2634863e-05  5.1782338e-07  7.211704e-05   2.8589635e+09
   4665000   4.1142533e-11  3471892.5      102367.94      1.1304035e+09  7.2634863e-05  5.1782869e-07  7.2117034e-05  2.8589641e+09
   4666000   4.1151352e-11  3471891.2      102367.75      1.1304031e+09  7.2634863e-05  5.1785666e-07  7.2117006e-05  2.8589641e+09
   4667000   4.1160171e-11  3471901.7      102372.72      1.130405e+09   7.2634865e-05  5.1764027e-07  7.2117225e-05  2.8589681e+09
   4668000   4.1168991e-11  3471915.5      102374.77      1.1304089e+09  7.2634872e-05  5.1736105e-07  7.2117511e-05  2.8589732e+09
   4669000   4.117781e-11   3471911.3      102373.33      1.130408e+09   7.2634876e-05  5.1745119e-07  7.2117424e-05  2.8589715e+09
   4670000   4.118663e-11   3471909.6      102369.9       1.1304086e+09  7.2634875e-05  5.1748557e-07  7.2117389e-05  2.8589707e+09
   4671000   4.1195449e-11  3471899.1      102365.99      1.1304064e+09  7.2634875e-05  5.177041e-07   7.2117171e-05  2.8589671e+09
   4672000   4.1204268e-11  3471895.4      102361.92      1.1304065e+09  7.2634875e-05  5.1778043e-07  7.2117095e-05  2.858967e+09 
   4673000   4.1213088e-11  3471892.2      102359.87      1.1304061e+09  7.2634879e-05  5.1785129e-07  7.2117028e-05  2.8589671e+09
   4674000   4.1221907e-11  3471885.4      102361.61      1.1304032e+09  7.2634875e-05  5.1799002e-07  7.2116885e-05  2.8589647e+09
   4675000   4.1230727e-11  3471888.1      102361.01      1.1304044e+09  7.2634877e-05  5.1793526e-07  7.2116941e-05  2.8589657e+09
   4676000   4.1239546e-11  3471896.5      102362.52      1.1304067e+09  7.2634879e-05  5.1776306e-07  7.2117116e-05  2.8589687e+09
   4677000   4.1248365e-11  3471890.6      102363.75      1.1304043e+09  7.2634877e-05  5.1788305e-07  7.2116994e-05  2.8589663e+09
   4678000   4.1257185e-11  3471893.9      102367.93      1.130404e+09   7.2634882e-05  5.1781962e-07  7.2117063e-05  2.8589688e+09
   4679000   4.1266004e-11  3471896.5      102371.96      1.1304035e+09  7.2634875e-05  5.1775724e-07  7.2117117e-05  2.8589696e+09
   4680000   4.1274824e-11  3471903.7      102378.13      1.1304039e+09  7.2634874e-05  5.1760681e-07  7.2117267e-05  2.8589722e+09
   4681000   4.1283643e-11  3471910.5      102379.58      1.1304057e+09  7.263487e-05   5.1746284e-07  7.2117407e-05  2.8589745e+09
   4682000   4.1292462e-11  3471906        102378.19      1.1304046e+09  7.2634873e-05  5.1755898e-07  7.2117314e-05  2.8589729e+09
   4683000   4.1301282e-11  3471903        102375.5       1.1304045e+09  7.2634871e-05  5.1761915e-07  7.2117252e-05  2.8589713e+09
   4684000   4.1310101e-11  3471905.3      102374.65      1.1304056e+09  7.2634869e-05  5.1757094e-07  7.2117299e-05  2.858972e+09 
   4685000   4.1318921e-11  3471906.1      102374.86      1.1304058e+09  7.2634877e-05  5.1756033e-07  7.2117316e-05  2.8589735e+09
   4686000   4.132774e-11   3471903.2      102371.88      1.1304058e+09  7.2634878e-05  5.1762152e-07  7.2117256e-05  2.858973e+09 
   4687000   4.1336559e-11  3471890.2      102362.63      1.1304045e+09  7.2634878e-05  5.1789243e-07  7.2116985e-05  2.8589675e+09
   4688000   4.1345379e-11  3471894.6      102360.21      1.1304068e+09  7.2634875e-05  5.1779852e-07  7.2117077e-05  2.8589688e+09
   4689000   4.1354198e-11  3471886.2      102364.04      1.1304027e+09  7.2634873e-05  5.1796938e-07  7.2116904e-05  2.858966e+09 
   4690000   4.1363018e-11  3471886.6      102369.14      1.1304011e+09  7.2634875e-05  5.179638e-07   7.2116911e-05  2.8589667e+09
   4691000   4.1371837e-11  3471901.2      102370.56      1.1304056e+09  7.2634878e-05  5.1766309e-07  7.2117215e-05  2.858972e+09 
   4692000   4.1380657e-11  3471906.8      102379.52      1.1304044e+09  7.2634884e-05  5.1755398e-07  7.211733e-05   2.8589746e+09
   4693000   4.1389476e-11  3471909.1      102381.76      1.1304045e+09  7.2634873e-05  5.1749337e-07  7.2117379e-05  2.8589748e+09
   4694000   4.1398295e-11  3471905.6      102381.41      1.1304034e+09  7.2634876e-05  5.1757063e-07  7.2117306e-05  2.8589734e+09
   4695000   4.1407115e-11  3471908.6      102381.54      1.1304044e+09  7.263488e-05   5.175115e-07   7.2117369e-05  2.8589743e+09
   4696000   4.1415934e-11  3471904.8      102378.69      1.1304041e+09  7.2634875e-05  5.1758523e-07  7.211729e-05   2.8589721e+09
   4697000   4.1424754e-11  3471901.3      102379.35      1.1304027e+09  7.2634875e-05  5.1765894e-07  7.2117216e-05  2.8589705e+09
   4698000   4.1433573e-11  3471906.8      102382.06      1.1304036e+09  7.2634874e-05  5.1754235e-07  7.2117332e-05  2.8589725e+09
   4699000   4.1442392e-11  3471903.5      102384.87      1.1304016e+09  7.2634871e-05  5.1760899e-07  7.2117262e-05  2.8589709e+09
   4700000   4.1451212e-11  3471901.1      102381.16      1.130402e+09   7.2634876e-05  5.1766302e-07  7.2117213e-05  2.8589695e+09
   4701000   4.1460031e-11  3471903.4      102383.32      1.130402e+09   7.2634882e-05  5.1762127e-07  7.2117261e-05  2.8589705e+09
   4702000   4.1468851e-11  3471910        102388.08      1.1304027e+09  7.2634882e-05  5.1748471e-07  7.2117398e-05  2.8589737e+09
   4703000   4.147767e-11   3471906.5      102389.47      1.130401e+09   7.2634881e-05  5.1755624e-07  7.2117324e-05  2.8589722e+09
   4704000   4.1486489e-11  3471914.8      102392.87      1.1304027e+09  7.2634886e-05  5.1738953e-07  7.2117496e-05  2.8589745e+09
   4705000   4.1495309e-11  3471926.1      102398.66      1.1304045e+09  7.2634879e-05  5.1714789e-07  7.2117731e-05  2.8589769e+09
   4706000   4.1504128e-11  3471925.3      102397.59      1.1304046e+09  7.2634875e-05  5.1715942e-07  7.2117716e-05  2.8589763e+09
   4707000   4.1512948e-11  3471917.2      102397.03      1.1304021e+09  7.2634861e-05  5.1731491e-07  7.2117546e-05  2.8589724e+09
   4708000   4.1521767e-11  3471920.3      102401.66      1.1304016e+09  7.263486e-05   5.1724872e-07  7.2117611e-05  2.8589735e+09
   4709000   4.1530586e-11  3471926.7      102404.86      1.1304026e+09  7.2634873e-05  5.1712926e-07  7.2117744e-05  2.8589768e+09
   4710000   4.1539406e-11  3471932.4      102407.87      1.1304035e+09  7.2634883e-05  5.1702089e-07  7.2117862e-05  2.8589801e+09
   4711000   4.1548225e-11  3471922.5      102406.98      1.1304005e+09  7.2634878e-05  5.1722006e-07  7.2117658e-05  2.8589769e+09
   4712000   4.1557045e-11  3471921.5      102403.4       1.1304014e+09  7.2634882e-05  5.1724622e-07  7.2117636e-05  2.858977e+09 
   4713000   4.1565864e-11  3471915.3      102398.71      1.1304009e+09  7.2634876e-05  5.1736879e-07  7.2117507e-05  2.8589737e+09
   4714000   4.1574683e-11  3471912.1      102398.89      1.1303998e+09  7.2634872e-05  5.1743047e-07  7.2117442e-05  2.8589718e+09
   4715000   4.1583503e-11  3471914        102395.15      1.1304016e+09  7.263487e-05   5.1738968e-07  7.2117481e-05  2.8589719e+09
   4716000   4.1592322e-11  3471920.9      102396.3       1.1304036e+09  7.2634871e-05  5.1724698e-07  7.2117624e-05  2.8589749e+09
   4717000   4.1601142e-11  3471916.3      102398.64      1.1304012e+09  7.2634869e-05  5.1734083e-07  7.2117528e-05  2.8589731e+09
   4718000   4.1609961e-11  3471914.9      102396.83      1.1304014e+09  7.2634869e-05  5.1736896e-07  7.21175e-05    2.858972e+09 
   4719000   4.161878e-11   3471921.1      102396.64      1.1304035e+09  7.2634869e-05  5.1724071e-07  7.2117628e-05  2.858974e+09 
   4720000   4.16276e-11    3471915.3      102395.28      1.130402e+09   7.2634862e-05  5.1735506e-07  7.2117507e-05  2.858972e+09 
   4721000   4.1636419e-11  3471905.9      102387.36      1.1304015e+09  7.2634865e-05  5.1755309e-07  7.2117312e-05  2.8589694e+09
   4722000   4.1645239e-11  3471905.3      102387.78      1.1304012e+09  7.2634863e-05  5.1756386e-07  7.21173e-05    2.8589693e+09
   4723000   4.1654058e-11  3471899.1      102384.89      1.1304001e+09  7.2634858e-05  5.1768637e-07  7.2117172e-05  2.8589665e+09
   4724000   4.1662878e-11  3471898.7      102385.45      1.1303998e+09  7.2634861e-05  5.1769886e-07  7.2117162e-05  2.8589662e+09
   4725000   4.1671697e-11  3471907.2      102387.99      1.1304018e+09  7.2634856e-05  5.1751642e-07  7.211734e-05   2.8589691e+09
   4726000   4.1680516e-11  3471895.7      102381.09      1.1304002e+09  7.2634855e-05  5.1775545e-07  7.2117099e-05  2.858965e+09 
   4727000   4.1689336e-11  3471895.4      102382.52      1.1303996e+09  7.2634866e-05  5.1777162e-07  7.2117094e-05  2.858966e+09 
   4728000   4.1698155e-11  3471894.5      102379.25      1.1304004e+09  7.2634866e-05  5.1779002e-07  7.2117076e-05  2.8589649e+09
   4729000   4.1706975e-11  3471900.4      102379.67      1.1304023e+09  7.2634863e-05  5.1766491e-07  7.2117198e-05  2.8589669e+09
   4730000   4.1715794e-11  3471896.9      102386.41      1.1303988e+09  7.2634868e-05  5.1774272e-07  7.2117126e-05  2.8589672e+09
   4731000   4.1724613e-11  3471904.3      102391.58      1.1303996e+09  7.2634859e-05  5.175802e-07   7.2117279e-05  2.85897e+09  
   4732000   4.1733433e-11  3471897.9      102390.21      1.1303979e+09  7.2634862e-05  5.177164e-07   7.2117145e-05  2.8589674e+09
   4733000   4.1742252e-11  3471900.5      102391.82      1.1303982e+09  7.2634863e-05  5.1766228e-07  7.21172e-05    2.8589682e+09
   4734000   4.1751072e-11  3471899.3      102389.63      1.1303986e+09  7.2634871e-05  5.1769565e-07  7.2117176e-05  2.8589684e+09
   4735000   4.1759891e-11  3471898.7      102387.29      1.1303991e+09  7.263487e-05   5.1770717e-07  7.2117163e-05  2.8589688e+09
   4736000   4.176871e-11   3471894.9      102383.84      1.130399e+09   7.2634866e-05  5.177827e-07   7.2117083e-05  2.8589673e+09
   4737000   4.177753e-11   3471895        102381.07      1.1304e+09     7.2634862e-05  5.1777596e-07  7.2117086e-05  2.8589661e+09
   4738000   4.1786349e-11  3471900.8      102379.79      1.1304023e+09  7.2634869e-05  5.1766419e-07  7.2117205e-05  2.8589677e+09
   4739000   4.1795169e-11  3471893.9      102380.29      1.1303999e+09  7.263487e-05   5.1780636e-07  7.2117064e-05  2.858966e+09 
   4740000   4.1803988e-11  3471897.7      102384.88      1.1303996e+09  7.263487e-05   5.1772795e-07  7.2117142e-05  2.8589685e+09
   4741000   4.1812807e-11  3471900.6      102390.17      1.1303988e+09  7.2634875e-05  5.1767234e-07  7.2117203e-05  2.8589703e+09
   4742000   4.1821627e-11  3471911.3      102397.05      1.1304001e+09  7.2634871e-05  5.1744712e-07  7.2117424e-05  2.8589735e+09
   4743000   4.1830446e-11  3471915.9      102400.19      1.1304006e+09  7.2634869e-05  5.1734936e-07  7.2117519e-05  2.858974e+09 
   4744000   4.1839266e-11  3471920.9      102408.21      1.1303996e+09  7.2634874e-05  5.1725078e-07  7.2117623e-05  2.8589761e+09
   4745000   4.1848085e-11  3471920.5      102408.25      1.1303994e+09  7.2634869e-05  5.1725441e-07  7.2117615e-05  2.8589753e+09
   4746000   4.1856904e-11  3471925.9      102408.04      1.1304013e+09  7.2634874e-05  5.1714639e-07  7.2117728e-05  2.8589768e+09
   4747000   4.1865724e-11  3471924.5      102412.66      1.1303993e+09  7.2634868e-05  5.1717064e-07  7.2117698e-05  2.8589753e+09
   4748000   4.1874543e-11  3471929.5      102413.21      1.1304008e+09  7.2634871e-05  5.1706848e-07  7.2117802e-05  2.8589776e+09
   4749000   4.1883363e-11  3471923.7      102415.62      1.1303981e+09  7.2634874e-05  5.171919e-07   7.2117682e-05  2.8589767e+09
   4750000   4.1892182e-11  3471918.6      102413.33      1.1303971e+09  7.2634874e-05  5.1729755e-07  7.2117577e-05  2.8589752e+09
   4751000   4.1901002e-11  3471923.8      102411.02      1.1303996e+09  7.2634875e-05  5.1719241e-07  7.2117683e-05  2.8589774e+09
   4752000   4.1909821e-11  3471920.5      102412.79      1.1303979e+09  7.2634878e-05  5.1726322e-07  7.2117614e-05  2.8589764e+09
   4753000   4.191864e-11   3471921.4      102416.18      1.1303971e+09  7.2634876e-05  5.1724233e-07  7.2117634e-05  2.8589763e+09
   4754000   4.192746e-11   3471929        102420.57      1.1303982e+09  7.2634885e-05  5.1709343e-07  7.2117792e-05  2.8589796e+09
   4755000   4.1936279e-11  3471935.7      102425.27      1.1303989e+09  7.2634879e-05  5.1694795e-07  7.2117932e-05  2.8589818e+09
   4756000   4.1945099e-11  3471933.6      102421.56      1.1303994e+09  7.2634882e-05  5.1699403e-07  7.2117888e-05  2.8589812e+09
   4757000   4.1953918e-11  3471927.4      102423.11      1.1303968e+09  7.2634885e-05  5.1712589e-07  7.211776e-05   2.8589791e+09
   4758000   4.1962737e-11  3471930.7      102421.45      1.1303985e+09  7.2634883e-05  5.1705487e-07  7.2117828e-05  2.8589801e+09
   4759000   4.1971557e-11  3471916.6      102411.01      1.1303972e+09  7.2634884e-05  5.173494e-07   7.2117535e-05  2.8589743e+09
   4760000   4.1980376e-11  3471926.3      102414         1.1303995e+09  7.2634876e-05  5.1713995e-07  7.2117736e-05  2.858977e+09 
   4761000   4.1989196e-11  3471918.2      102410.7       1.1303978e+09  7.2634878e-05  5.1731194e-07  7.2117567e-05  2.8589746e+09
   4762000   4.1998015e-11  3471907.9      102403.58      1.1303968e+09  7.2634877e-05  5.175235e-07   7.2117354e-05  2.8589706e+09
   4763000   4.2006834e-11  3471909.3      102407.66      1.1303959e+09  7.2634885e-05  5.1750356e-07  7.2117382e-05  2.8589715e+09
   4764000   4.2015654e-11  3471910.7      102409.19      1.1303958e+09  7.2634879e-05  5.1746689e-07  7.2117412e-05  2.8589713e+09
   4765000   4.2024473e-11  3471912.1      102407         1.1303971e+09  7.2634871e-05  5.1742981e-07  7.2117442e-05  2.8589711e+09
   4766000   4.2033293e-11  3471917.4      102409.49      1.130398e+09   7.2634865e-05  5.1731425e-07  7.2117551e-05  2.8589726e+09
   4767000   4.2042112e-11  3471911.8      102412.19      1.1303952e+09  7.2634863e-05  5.1742931e-07  7.2117434e-05  2.8589697e+09
   4768000   4.2050931e-11  3471926.7      102418.93      1.1303979e+09  7.2634864e-05  5.1711962e-07  7.2117744e-05  2.8589752e+09
   4769000   4.2059751e-11  3471923.5      102416.91      1.1303975e+09  7.2634854e-05  5.1717693e-07  7.2117677e-05  2.8589733e+09
   4770000   4.206857e-11   3471922        102421.23      1.1303956e+09  7.2634859e-05  5.1721291e-07  7.2117646e-05  2.8589737e+09
   4771000   4.207739e-11   3471920.5      102417.1       1.1303965e+09  7.2634863e-05  5.1724886e-07  7.2117614e-05  2.8589731e+09
   4772000   4.2086209e-11  3471923.2      102416.75      1.1303975e+09  7.2634863e-05  5.1719034e-07  7.2117672e-05  2.858974e+09 
   4773000   4.2095028e-11  3471923.9      102420.95      1.1303963e+09  7.2634861e-05  5.1717372e-07  7.2117687e-05  2.8589743e+09
   4774000   4.2103848e-11  3471926        102421.52      1.1303969e+09  7.2634864e-05  5.1713456e-07  7.211773e-05   2.8589759e+09
   4775000   4.2112667e-11  3471911.9      102418.25      1.1303932e+09  7.2634869e-05  5.1743235e-07  7.2117437e-05  2.8589713e+09
   4776000   4.2121487e-11  3471908.9      102411.97      1.1303943e+09  7.2634868e-05  5.1749302e-07  7.2117375e-05  2.8589696e+09
   4777000   4.2130306e-11  3471915.9      102413.6       1.1303961e+09  7.2634868e-05  5.1734939e-07  7.2117519e-05  2.8589714e+09
   4778000   4.2139125e-11  3471918.5      102413.74      1.1303969e+09  7.2634862e-05  5.1728856e-07  7.2117573e-05  2.8589721e+09
   4779000   4.2147945e-11  3471909.2      102415.58      1.1303932e+09  7.2634862e-05  5.1748164e-07  7.2117381e-05  2.8589693e+09
   4780000   4.2156764e-11  3471912        102417.33      1.1303936e+09  7.2634859e-05  5.174203e-07   7.2117439e-05  2.8589702e+09
   4781000   4.2165584e-11  3471916        102417.44      1.1303949e+09  7.2634866e-05  5.1734422e-07  7.2117522e-05  2.8589726e+09
   4782000   4.2174403e-11  3471912.2      102416.14      1.130394e+09   7.2634862e-05  5.1741902e-07  7.2117443e-05  2.8589709e+09
   4783000   4.2183223e-11  3471914        102419.83      1.1303934e+09  7.2634863e-05  5.1738322e-07  7.211748e-05   2.8589713e+09
   4784000   4.2192042e-11  3471915.9      102419.12      1.1303943e+09  7.2634873e-05  5.1735295e-07  7.211752e-05   2.8589725e+09
   4785000   4.2200861e-11  3471918.6      102419.51      1.130395e+09   7.2634876e-05  5.1730076e-07  7.2117575e-05  2.858974e+09 
   4786000   4.2209681e-11  3471918.9      102421.6       1.1303944e+09  7.2634874e-05  5.1729308e-07  7.2117581e-05  2.858974e+09 
   4787000   4.22185e-11    3471910.1      102420.02      1.130392e+09   7.2634882e-05  5.1748192e-07  7.21174e-05    2.8589708e+09
   4788000   4.222732e-11   3471918.3      102424.11      1.1303934e+09  7.2634882e-05  5.1731292e-07  7.2117569e-05  2.858974e+09 
   4789000   4.2236139e-11  3471922.9      102429.88      1.130393e+09   7.2634889e-05  5.1722448e-07  7.2117664e-05  2.858977e+09 
   4790000   4.2244958e-11  3471919.5      102430.2       1.1303918e+09  7.2634896e-05  5.1730142e-07  7.2117594e-05  2.8589766e+09
   4791000   4.2253778e-11  3471917.8      102428.4       1.1303918e+09  7.2634897e-05  5.1733714e-07  7.2117559e-05  2.8589757e+09
   4792000   4.2262597e-11  3471915.5      102423.42      1.1303927e+09  7.2634893e-05  5.1738138e-07  7.2117512e-05  2.858974e+09 
   4793000   4.2271417e-11  3471912.5      102422.28      1.1303921e+09  7.2634889e-05  5.1744034e-07  7.2117449e-05  2.8589724e+09
   4794000   4.2280236e-11  3471913.4      102423.51      1.1303919e+09  7.2634888e-05  5.1742032e-07  7.2117467e-05  2.858972e+09 
   4795000   4.2289055e-11  3471925.1      102425.25      1.1303953e+09  7.2634889e-05  5.1717876e-07  7.211771e-05   2.8589767e+09
   4796000   4.2297875e-11  3471917.8      102423.78      1.1303933e+09  7.2634891e-05  5.1733211e-07  7.2117559e-05  2.8589746e+09
   4797000   4.2306694e-11  3471917.1      102423.98      1.130393e+09   7.2634887e-05  5.1734366e-07  7.2117544e-05  2.8589746e+09
   4798000   4.2315514e-11  3471906.7      102423.95      1.1303895e+09  7.263489e-05   5.1756232e-07  7.2117328e-05  2.8589713e+09
   4799000   4.2324333e-11  3471905.4      102421.16      1.1303901e+09  7.2634888e-05  5.1758667e-07  7.2117302e-05  2.8589707e+09
   4800000   4.2333152e-11  3471909.7      102422.28      1.1303911e+09  7.2634891e-05  5.1750033e-07  7.211739e-05   2.8589726e+09
   4801000   4.2341972e-11  3471910.6      102425.54      1.1303903e+09  7.2634896e-05  5.1748622e-07  7.211741e-05   2.8589737e+09
   4802000   4.2350791e-11  3471916.3      102423.75      1.1303929e+09  7.263489e-05   5.1736088e-07  7.2117529e-05  2.8589755e+09
   4803000   4.2359611e-11  3471908.5      102425.95      1.1303895e+09  7.2634895e-05  5.1752804e-07  7.2117367e-05  2.8589731e+09
   4804000   4.236843e-11   3471901.7      102422         1.1303885e+09  7.2634885e-05  5.1766091e-07  7.2117225e-05  2.8589694e+09
   4805000   4.2377249e-11  3471899.3      102416.75      1.1303895e+09  7.2634882e-05  5.1770604e-07  7.2117175e-05  2.8589677e+09
   4806000   4.2386069e-11  3471905.6      102417.1       1.1303915e+09  7.2634885e-05  5.1757924e-07  7.2117306e-05  2.8589706e+09
   4807000   4.2394888e-11  3471905.2      102414.27      1.1303923e+09  7.2634887e-05  5.1759023e-07  7.2117297e-05  2.8589711e+09
   4808000   4.2403708e-11  3471895.9      102414.92      1.130389e+09   7.2634893e-05  5.1778782e-07  7.2117105e-05  2.858968e+09 
   4809000   4.2412527e-11  3471898.3      102414.15      1.13039e+09    7.2634891e-05  5.1773722e-07  7.2117154e-05  2.8589682e+09
   4810000   4.2421347e-11  3471899.4      102412.68      1.1303909e+09  7.2634892e-05  5.1771442e-07  7.2117178e-05  2.858969e+09 
   4811000   4.2430166e-11  3471897.9      102413.01      1.1303903e+09  7.263489e-05   5.1774412e-07  7.2117146e-05  2.858969e+09 
   4812000   4.2438985e-11  3471897.8      102410.49      1.1303911e+09  7.2634892e-05  5.1774745e-07  7.2117145e-05  2.8589696e+09
   4813000   4.2447805e-11  3471901.5      102411.51      1.130392e+09   7.2634895e-05  5.1767566e-07  7.211722e-05   2.8589709e+09
   4814000   4.2456624e-11  3471909.7      102416.88      1.1303929e+09  7.2634891e-05  5.1749977e-07  7.2117392e-05  2.8589734e+09
   4815000   4.2465444e-11  3471903.7      102418.28      1.1303905e+09  7.2634887e-05  5.1762029e-07  7.2117267e-05  2.8589708e+09
   4816000   4.2474263e-11  3471910.3      102420.35      1.130392e+09   7.2634887e-05  5.1748385e-07  7.2117403e-05  2.858973e+09 
   4817000   4.2483082e-11  3471907.5      102422.35      1.1303904e+09  7.2634883e-05  5.1753808e-07  7.2117345e-05  2.8589714e+09
   4818000   4.2491902e-11  3471915        102425.99      1.1303916e+09  7.2634881e-05  5.1738106e-07  7.21175e-05    2.8589743e+09
   4819000   4.2500721e-11  3471900.8      102417.3       1.1303898e+09  7.2634888e-05  5.1768156e-07  7.2117206e-05  2.8589697e+09
   4820000   4.2509541e-11  3471905        102416.89      1.1303914e+09  7.2634886e-05  5.1759194e-07  7.2117294e-05  2.8589715e+09
   4821000   4.251836e-11   3471905.2      102417.86      1.1303911e+09  7.2634886e-05  5.1758887e-07  7.2117297e-05  2.8589717e+09
   4822000   4.2527179e-11  3471910.8      102423.17      1.1303912e+09  7.263488e-05   5.1746743e-07  7.2117413e-05  2.8589726e+09
   4823000   4.2535999e-11  3471908.8      102421.89      1.130391e+09   7.2634879e-05  5.1750636e-07  7.2117372e-05  2.8589709e+09
   4824000   4.2544818e-11  3471904.4      102418.49      1.1303906e+09  7.263488e-05   5.1759894e-07  7.2117281e-05  2.858969e+09 
   4825000   4.2553638e-11  3471898.9      102413.44      1.1303905e+09  7.263487e-05   5.1770322e-07  7.2117167e-05  2.8589664e+09
   4826000   4.2562457e-11  3471899.6      102418.22      1.1303891e+09  7.263488e-05   5.1769816e-07  7.2117181e-05  2.8589681e+09
   4827000   4.2571276e-11  3471897.7      102418.44      1.1303884e+09  7.263488e-05   5.1773843e-07  7.2117141e-05  2.8589668e+09
   4828000   4.2580096e-11  3471904.2      102417.84      1.1303908e+09  7.2634877e-05  5.1760078e-07  7.2117277e-05  2.8589676e+09
   4829000   4.2588915e-11  3471912.2      102422.62      1.1303918e+09  7.2634881e-05  5.1743816e-07  7.2117443e-05  2.8589708e+09
   4830000   4.2597735e-11  3471905.2      102425.31      1.1303886e+09  7.2634875e-05  5.1757872e-07  7.2117296e-05  2.8589685e+09
   4831000   4.2606554e-11  3471907.8      102427.46      1.1303888e+09  7.2634883e-05  5.1753106e-07  7.2117352e-05  2.8589707e+09
   4832000   4.2615373e-11  3471911.7      102431.63      1.1303887e+09  7.2634888e-05  5.1745502e-07  7.2117432e-05  2.8589728e+09
   4833000   4.2624193e-11  3471905.2      102426.74      1.1303881e+09  7.2634888e-05  5.1759111e-07  7.2117297e-05  2.85897e+09  
   4834000   4.2633012e-11  3471899.5      102424.83      1.1303869e+09  7.2634885e-05  5.1770472e-07  7.211718e-05   2.8589672e+09
   4835000   4.2641832e-11  3471906.8      102428.46      1.1303881e+09  7.2634875e-05  5.1754396e-07  7.2117331e-05  2.858969e+09 
   4836000   4.2650651e-11  3471903.8      102424.79      1.1303883e+09  7.2634875e-05  5.1760705e-07  7.2117268e-05  2.8589679e+09
   4837000   4.265947e-11   3471904.2      102428.75      1.1303871e+09  7.2634869e-05  5.1759302e-07  7.2117276e-05  2.8589679e+09
   4838000   4.266829e-11   3471908.7      102432.94      1.1303872e+09  7.2634869e-05  5.1749808e-07  7.2117371e-05  2.8589697e+09
   4839000   4.2677109e-11  3471908.9      102436.8       1.130386e+09   7.2634869e-05  5.1749464e-07  7.2117375e-05  2.8589693e+09
   4840000   4.2685929e-11  3471925.3      102441.24      1.13039e+09    7.263487e-05   5.1715465e-07  7.2117715e-05  2.8589749e+09
   4841000   4.2694748e-11  3471917.4      102440.55      1.1303876e+09  7.2634867e-05  5.1731678e-07  7.211755e-05   2.8589717e+09
   4842000   4.2703568e-11  3471914.7      102439.44      1.1303871e+09  7.2634873e-05  5.1737785e-07  7.2117495e-05  2.8589717e+09
   4843000   4.2712387e-11  3471918.8      102439.88      1.1303883e+09  7.263487e-05   5.172906e-07   7.211758e-05   2.8589733e+09
   4844000   4.2721206e-11  3471918.6      102443.46      1.130387e+09   7.2634879e-05  5.1730238e-07  7.2117576e-05  2.8589742e+09
   4845000   4.2730026e-11  3471917.9      102447.36      1.1303855e+09  7.2634883e-05  5.1732277e-07  7.211756e-05   2.8589749e+09
   4846000   4.2738845e-11  3471910.4      102449.78      1.1303822e+09  7.2634885e-05  5.1747923e-07  7.2117406e-05  2.8589725e+09
   4847000   4.2747665e-11  3471925.7      102453.08      1.1303862e+09  7.2634884e-05  5.1716154e-07  7.2117722e-05  2.858978e+09 
   4848000   4.2756484e-11  3471934.3      102459.92      1.1303868e+09  7.2634885e-05  5.1698295e-07  7.2117902e-05  2.8589807e+09
   4849000   4.2765303e-11  3471939.8      102462.26      1.1303878e+09  7.2634883e-05  5.1686768e-07  7.2118015e-05  2.8589822e+09
   4850000   4.2774123e-11  3471932.4      102462.26      1.1303854e+09  7.2634877e-05  5.17015e-07    7.2117862e-05  2.8589795e+09
   4851000   4.2782942e-11  3471926.8      102457.53      1.1303851e+09  7.2634879e-05  5.1713307e-07  7.2117746e-05  2.8589782e+09
   4852000   4.2791762e-11  3471926        102456.11      1.1303853e+09  7.2634877e-05  5.1714651e-07  7.211773e-05   2.8589778e+09
   4853000   4.2800581e-11  3471925.5      102455.34      1.1303854e+09  7.2634883e-05  5.1716308e-07  7.211772e-05   2.858978e+09 
   4854000   4.28094e-11    3471919        102453.31      1.1303839e+09  7.2634882e-05  5.1729678e-07  7.2117585e-05  2.8589748e+09
   4855000   4.281822e-11   3471925.2      102449.72      1.1303872e+09  7.2634878e-05  5.1716373e-07  7.2117714e-05  2.8589765e+09
   4856000   4.2827039e-11  3471922.2      102450.08      1.130386e+09   7.2634872e-05  5.1722141e-07  7.211765e-05   2.8589744e+09
   4857000   4.2835859e-11  3471927.8      102452.64      1.130387e+09   7.2634862e-05  5.1709496e-07  7.2117767e-05  2.8589759e+09
   4858000   4.2844678e-11  3471923.7      102447.89      1.1303872e+09  7.2634871e-05  5.171898e-07   7.2117681e-05  2.8589749e+09
   4859000   4.2853497e-11  3471924.7      102448.37      1.1303874e+09  7.2634873e-05  5.1717054e-07  7.2117702e-05  2.8589754e+09
   4860000   4.2862317e-11  3471921.3      102445.48      1.1303872e+09  7.2634881e-05  5.1724896e-07  7.2117632e-05  2.8589751e+09
   4861000   4.2871136e-11  3471919.1      102444.47      1.1303869e+09  7.2634887e-05  5.1730074e-07  7.2117587e-05  2.8589753e+09
   4862000   4.2879956e-11  3471904.9      102441.29      1.1303831e+09  7.2634887e-05  5.1759597e-07  7.2117291e-05  2.85897e+09  
   4863000   4.2888775e-11  3471913.5      102441.8       1.1303859e+09  7.2634881e-05  5.1740997e-07  7.2117471e-05  2.8589726e+09
   4864000   4.2897594e-11  3471918.6      102447.33      1.1303857e+09  7.263488e-05   5.1730535e-07  7.2117575e-05  2.8589741e+09
   4865000   4.2906414e-11  3471923.2      102449.86      1.1303864e+09  7.2634879e-05  5.1720716e-07  7.2117672e-05  2.8589756e+09
   4866000   4.2915233e-11  3471919.9      102449.08      1.1303856e+09  7.2634882e-05  5.1727858e-07  7.2117603e-05  2.8589749e+09
   4867000   4.2924053e-11  3471920.6      102450.2       1.1303854e+09  7.2634885e-05  5.1726805e-07  7.2117617e-05  2.858976e+09 
   4868000   4.2932872e-11  3471918.6      102449.65      1.1303849e+09  7.2634897e-05  5.1732159e-07  7.2117576e-05  2.8589768e+09
   4869000   4.2941692e-11  3471908.2      102444.94      1.130383e+09   7.2634888e-05  5.1752809e-07  7.211736e-05   2.8589724e+09
   4870000   4.2950511e-11  3471906.5      102444.32      1.1303827e+09  7.2634886e-05  5.175607e-07   7.2117325e-05  2.8589713e+09
   4871000   4.295933e-11   3471919.6      102448.7       1.1303856e+09  7.2634876e-05  5.1728027e-07  7.2117596e-05  2.8589745e+09
   4872000   4.296815e-11   3471923.4      102452.89      1.1303855e+09  7.2634874e-05  5.1719988e-07  7.2117675e-05  2.8589756e+09
   4873000   4.2976969e-11  3471922.3      102456.6       1.1303839e+09  7.2634875e-05  5.1722197e-07  7.2117653e-05  2.858976e+09 
   4874000   4.2985789e-11  3471913.8      102455.38      1.1303814e+09  7.2634879e-05  5.1740371e-07  7.2117476e-05  2.8589736e+09
   4875000   4.2994608e-11  3471924.5      102453.53      1.1303856e+09  7.2634887e-05  5.1718761e-07  7.2117699e-05  2.8589777e+09
   4876000   4.3003427e-11  3471913.3      102454.75      1.1303815e+09  7.2634898e-05  5.1743303e-07  7.2117465e-05  2.8589738e+09
   4877000   4.3012247e-11  3471921.8      102456.51      1.1303837e+09  7.2634899e-05  5.1725636e-07  7.2117643e-05  2.8589776e+09
   4878000   4.3021066e-11  3471918.7      102453.99      1.1303835e+09  7.2634896e-05  5.1731745e-07  7.2117578e-05  2.8589761e+09
   4879000   4.3029886e-11  3471919.1      102456.16      1.130383e+09   7.2634894e-05  5.1730743e-07  7.2117587e-05  2.858976e+09 
   4880000   4.3038705e-11  3471920.2      102453.02      1.1303844e+09  7.2634896e-05  5.1728819e-07  7.2117608e-05  2.8589762e+09
   4881000   4.3047524e-11  3471918        102453.34      1.1303835e+09  7.2634892e-05  5.1732781e-07  7.2117564e-05  2.8589748e+09
   4882000   4.3056344e-11  3471919.6      102452.55      1.1303843e+09  7.263488e-05   5.1728274e-07  7.2117597e-05  2.8589741e+09
   4883000   4.3065163e-11  3471921.5      102449.98      1.1303858e+09  7.263488e-05   5.1724457e-07  7.2117636e-05  2.8589745e+09
   4884000   4.3073983e-11  3471914        102450.43      1.1303832e+09  7.263488e-05   5.1739868e-07  7.2117481e-05  2.8589714e+09
   4885000   4.3082802e-11  3471914.9      102452.72      1.1303827e+09  7.2634867e-05  5.1736831e-07  7.2117498e-05  2.8589708e+09
   4886000   4.3091621e-11  3471917.1      102455.5       1.1303825e+09  7.2634866e-05  5.1732083e-07  7.2117546e-05  2.8589724e+09
   4887000   4.3100441e-11  3471910        102455.79      1.13038e+09    7.2634867e-05  5.1746883e-07  7.2117398e-05  2.8589703e+09
   4888000   4.310926e-11   3471914.1      102455.02      1.1303817e+09  7.2634872e-05  5.1738957e-07  7.2117483e-05  2.858972e+09 
   4889000   4.311808e-11   3471915.4      102452.35      1.130383e+09   7.2634869e-05  5.1735891e-07  7.211751e-05   2.8589721e+09
   4890000   4.3126899e-11  3471901.3      102446.92      1.1303801e+09  7.2634876e-05  5.1765882e-07  7.2117217e-05  2.8589676e+09
   4891000   4.3135718e-11  3471905.7      102448.26      1.1303811e+09  7.2634884e-05  5.1757565e-07  7.2117308e-05  2.8589703e+09
   4892000   4.3144538e-11  3471909        102450.1       1.1303816e+09  7.2634878e-05  5.175018e-07   7.2117376e-05  2.8589716e+09
   4893000   4.3153357e-11  3471906.7      102453.47      1.1303797e+09  7.2634872e-05  5.175439e-07   7.2117328e-05  2.8589705e+09
   4894000   4.3162177e-11  3471904.2      102450.11      1.13038e+09    7.2634875e-05  5.1759883e-07  7.2117277e-05  2.8589695e+09
   4895000   4.3170996e-11  3471908.8      102452.86      1.1303806e+09  7.2634872e-05  5.1750043e-07  7.2117372e-05  2.8589704e+09
   4896000   4.3179815e-11  3471920.2      102456.85      1.1303831e+09  7.2634875e-05  5.1726613e-07  7.2117609e-05  2.8589747e+09
   4897000   4.3188635e-11  3471907.4      102457.34      1.1303786e+09  7.2634865e-05  5.1752133e-07  7.2117344e-05  2.8589691e+09
   4898000   4.3197454e-11  3471906.5      102454.97      1.1303791e+09  7.2634866e-05  5.175422e-07   7.2117324e-05  2.8589686e+09
   4899000   4.3206274e-11  3471924.7      102462.54      1.1303827e+09  7.2634864e-05  5.1716219e-07  7.2117702e-05  2.8589746e+09
   4900000   4.3215093e-11  3471923.5      102467.06      1.1303808e+09  7.2634865e-05  5.1718794e-07  7.2117677e-05  2.8589739e+09
   4901000   4.3223913e-11  3471931.6      102472.23      1.1303818e+09  7.2634869e-05  5.1702341e-07  7.2117845e-05  2.8589773e+09
   4902000   4.3232732e-11  3471923.9      102469.57      1.1303801e+09  7.2634859e-05  5.1717334e-07  7.2117686e-05  2.8589737e+09
   4903000   4.3241551e-11  3471927        102467.02      1.130382e+09   7.2634853e-05  5.1710226e-07  7.2117751e-05  2.8589745e+09
   4904000   4.3250371e-11  3471916.3      102466.24      1.1303786e+09  7.2634844e-05  5.1731571e-07  7.2117529e-05  2.8589696e+09
   4905000   4.325919e-11   3471921.6      102469.31      1.1303794e+09  7.2634847e-05  5.1720983e-07  7.2117637e-05  2.8589713e+09
   4906000   4.326801e-11   3471925.4      102465.78      1.1303818e+09  7.2634846e-05  5.1713e-07     7.2117716e-05  2.8589722e+09
   4907000   4.3276829e-11  3471921.1      102465.17      1.1303806e+09  7.2634851e-05  5.1722411e-07  7.2117627e-05  2.8589711e+09
   4908000   4.3285648e-11  3471914        102459.23      1.1303802e+09  7.2634849e-05  5.1736934e-07  7.211748e-05   2.8589683e+09
   4909000   4.3294468e-11  3471916.4      102458.52      1.1303813e+09  7.2634857e-05  5.1732626e-07  7.2117531e-05  2.8589701e+09
   4910000   4.3303287e-11  3471912.4      102455.75      1.1303808e+09  7.2634854e-05  5.1740745e-07  7.2117446e-05  2.8589685e+09
   4911000   4.3312107e-11  3471906.6      102458.73      1.1303779e+09  7.2634862e-05  5.1753588e-07  7.2117326e-05  2.8589676e+09
   4912000   4.3320926e-11  3471912.6      102460.99      1.1303791e+09  7.2634871e-05  5.1742003e-07  7.2117451e-05  2.8589715e+09
   4913000   4.3329745e-11  3471912.6      102459.96      1.1303795e+09  7.2634879e-05  5.1742653e-07  7.2117452e-05  2.8589724e+09
   4914000   4.3338565e-11  3471896.7      102456         1.1303755e+09  7.263488e-05   5.1775975e-07  7.211712e-05   2.8589666e+09
   4915000   4.3347384e-11  3471903.7      102456.65      1.1303776e+09  7.2634873e-05  5.1760686e-07  7.2117266e-05  2.8589685e+09
   4916000   4.3356204e-11  3471900.7      102451.95      1.1303782e+09  7.2634879e-05  5.1767533e-07  7.2117203e-05  2.8589676e+09
   4917000   4.3365023e-11  3471904.9      102452.3       1.1303795e+09  7.2634875e-05  5.175831e-07   7.2117292e-05  2.858969e+09 
   4918000   4.3373842e-11  3471897.2      102450.6       1.1303774e+09  7.2634882e-05  5.17751e-07    7.2117131e-05  2.8589668e+09
   4919000   4.3382662e-11  3471900        102451.43      1.1303781e+09  7.2634873e-05  5.1768403e-07  7.2117189e-05  2.8589671e+09
   4920000   4.3391481e-11  3471902.8      102453.06      1.1303785e+09  7.2634878e-05  5.1762955e-07  7.2117249e-05  2.8589681e+09
   4921000   4.3400301e-11  3471910.1      102454.2       1.1303806e+09  7.2634874e-05  5.1747516e-07  7.2117399e-05  2.8589701e+09
   4922000   4.340912e-11   3471900.6      102452.07      1.1303781e+09  7.2634871e-05  5.1766972e-07  7.2117202e-05  2.8589661e+09
   4923000   4.3417939e-11  3471904.1      102450.91      1.1303797e+09  7.263487e-05   5.1759593e-07  7.2117274e-05  2.8589671e+09
   4924000   4.3426759e-11  3471900.1      102447.49      1.1303795e+09  7.2634873e-05  5.1768211e-07  7.2117191e-05  2.8589658e+09
   4925000   4.3435578e-11  3471904.9      102451.89      1.1303796e+09  7.263488e-05   5.175888e-07   7.2117291e-05  2.8589684e+09
   4926000   4.3444398e-11  3471901.8      102450.4       1.1303791e+09  7.2634882e-05  5.1765502e-07  7.2117227e-05  2.8589681e+09
   4927000   4.3453217e-11  3471898.8      102454.68      1.1303766e+09  7.2634883e-05  5.177189e-07   7.2117164e-05  2.8589681e+09
   4928000   4.3462037e-11  3471903.1      102452.52      1.1303788e+09  7.2634883e-05  5.1762985e-07  7.2117253e-05  2.8589698e+09
   4929000   4.3470856e-11  3471909.3      102453.9       1.1303804e+09  7.2634882e-05  5.1750002e-07  7.2117382e-05  2.8589722e+09
   4930000   4.3479675e-11  3471896.3      102455.12      1.1303756e+09  7.2634883e-05  5.1777071e-07  7.2117112e-05  2.8589678e+09
   4931000   4.3488495e-11  3471892        102452.24      1.1303752e+09  7.263488e-05   5.1785687e-07  7.2117023e-05  2.8589663e+09
   4932000   4.3497314e-11  3471892.7      102448.46      1.1303767e+09  7.2634883e-05  5.1784437e-07  7.2117038e-05  2.8589672e+09
   4933000   4.3506134e-11  3471893.1      102447.82      1.130377e+09   7.2634878e-05  5.1783148e-07  7.2117046e-05  2.8589674e+09
   4934000   4.3514953e-11  3471892.4      102448.4       1.1303766e+09  7.2634874e-05  5.1784276e-07  7.2117032e-05  2.8589671e+09
   4935000   4.3523772e-11  3471898.8      102451.7       1.1303776e+09  7.263488e-05   5.1771473e-07  7.2117165e-05  2.8589697e+09
   4936000   4.3532592e-11  3471896.5      102452.47      1.1303766e+09  7.2634884e-05  5.1776709e-07  7.2117117e-05  2.8589694e+09
   4937000   4.3541411e-11  3471897.6      102453.47      1.1303766e+09  7.2634882e-05  5.1774317e-07  7.2117139e-05  2.8589699e+09
   4938000   4.3550231e-11  3471892.6      102452.05      1.1303754e+09  7.2634879e-05  5.1784306e-07  7.2117036e-05  2.858968e+09 
   4939000   4.355905e-11   3471889.2      102447.34      1.1303759e+09  7.2634883e-05  5.1791731e-07  7.2116966e-05  2.8589672e+09
   4940000   4.3567869e-11  3471892.1      102451.09      1.1303756e+09  7.263488e-05   5.1785618e-07  7.2117024e-05  2.8589686e+09
   4941000   4.3576689e-11  3471893.9      102454.87      1.1303749e+09  7.2634882e-05  5.1781912e-07  7.2117063e-05  2.8589692e+09
   4942000   4.3585508e-11  3471892.6      102452.38      1.1303753e+09  7.2634882e-05  5.1784673e-07  7.2117035e-05  2.8589687e+09
   4943000   4.3594328e-11  3471888.5      102447.95      1.1303754e+09  7.2634879e-05  5.1792729e-07  7.2116951e-05  2.8589669e+09
   4944000   4.3603147e-11  3471895.7      102455.56      1.1303753e+09  7.2634874e-05  5.1777486e-07  7.2117099e-05  2.8589695e+09
   4945000   4.3611966e-11  3471892.1      102460.46      1.1303724e+09  7.2634876e-05  5.17851e-07    7.2117025e-05  2.8589684e+09
   4946000   4.3620786e-11  3471891.9      102459.11      1.1303728e+09  7.2634883e-05  5.1786194e-07  7.2117021e-05  2.8589685e+09
   4947000   4.3629605e-11  3471901.6      102464.05      1.1303744e+09  7.2634889e-05  5.1766508e-07  7.2117224e-05  2.8589721e+09
   4948000   4.3638425e-11  3471906.1      102464.38      1.1303759e+09  7.2634884e-05  5.1756667e-07  7.2117317e-05  2.8589728e+09
   4949000   4.3647244e-11  3471897.3      102467.68      1.1303718e+09  7.2634881e-05  5.1774718e-07  7.2117133e-05  2.8589692e+09
   4950000   4.3656063e-11  3471896.1      102466.49      1.1303718e+09  7.2634879e-05  5.1777119e-07  7.2117107e-05  2.8589689e+09
   4951000   4.3664883e-11  3471899.5      102465.4       1.1303733e+09  7.2634878e-05  5.1769856e-07  7.2117179e-05  2.8589694e+09
   4952000   4.3673702e-11  3471898.3      102464.36      1.1303732e+09  7.2634892e-05  5.1773785e-07  7.2117154e-05  2.858969e+09 
   4953000   4.3682522e-11  3471904.9      102468.68      1.130374e+09   7.263489e-05   5.1759806e-07  7.2117292e-05  2.8589713e+09
   4954000   4.3691341e-11  3471903.7      102469.71      1.1303733e+09  7.2634879e-05  5.1761275e-07  7.2117267e-05  2.8589697e+09
   4955000   4.370016e-11   3471897.1      102469.41      1.1303711e+09  7.2634888e-05  5.1775836e-07  7.211713e-05   2.858968e+09 
   4956000   4.370898e-11   3471893.2      102469.05      1.1303699e+09  7.263488e-05   5.1783195e-07  7.2117048e-05  2.8589664e+09
   4957000   4.3717799e-11  3471893.4      102467.48      1.1303705e+09  7.2634881e-05  5.1782965e-07  7.2117051e-05  2.8589671e+09
   4958000   4.3726619e-11  3471894.2      102468.57      1.1303704e+09  7.2634881e-05  5.1781308e-07  7.2117068e-05  2.8589677e+09
   4959000   4.3735438e-11  3471895.1      102469.58      1.1303704e+09  7.2634883e-05  5.1779514e-07  7.2117088e-05  2.8589679e+09
   4960000   4.3744258e-11  3471904.4      102473.6       1.1303722e+09  7.2634889e-05  5.17609e-07    7.211728e-05   2.8589719e+09
   4961000   4.3753077e-11  3471899.3      102474.74      1.1303701e+09  7.2634884e-05  5.1771008e-07  7.2117174e-05  2.8589695e+09
   4962000   4.3761896e-11  3471897.6      102477.39      1.1303686e+09  7.2634887e-05  5.1774758e-07  7.211714e-05   2.8589697e+09
   4963000   4.3770716e-11  3471904.7      102479.45      1.1303703e+09  7.2634894e-05  5.1760599e-07  7.2117288e-05  2.8589731e+09
   4964000   4.3779535e-11  3471903.1      102485.68      1.1303677e+09  7.2634896e-05  5.1764124e-07  7.2117255e-05  2.8589729e+09
   4965000   4.3788355e-11  3471910        102501.37      1.1303648e+09  7.2634906e-05  5.1750904e-07  7.2117397e-05  2.8589749e+09
   4966000   4.3797174e-11  3471919.2      102505.38      1.1303665e+09  7.2634902e-05  5.1731386e-07  7.2117588e-05  2.8589771e+09
   4967000   4.3805993e-11  3471921.4      102513.05      1.1303647e+09  7.2634893e-05  5.1725795e-07  7.2117635e-05  2.858977e+09 
   4968000   4.3814813e-11  3471922.9      102512.84      1.1303653e+09  7.2634883e-05  5.1721864e-07  7.2117665e-05  2.8589763e+09
   4969000   4.3823632e-11  3471923.6      102512.35      1.1303656e+09  7.2634893e-05  5.1721438e-07  7.2117679e-05  2.8589766e+09
   4970000   4.3832452e-11  3471926.9      102508.53      1.130368e+09   7.2634905e-05  5.1715781e-07  7.2117747e-05  2.8589784e+09
   4971000   4.3841271e-11  3471922.1      102508.84      1.1303663e+09  7.2634904e-05  5.1725525e-07  7.2117649e-05  2.8589768e+09
   4972000   4.385009e-11   3471922.3      102508.32      1.1303666e+09  7.2634899e-05  5.1724692e-07  7.2117652e-05  2.858977e+09 
   4973000   4.385891e-11   3471919.4      102503.67      1.1303672e+09  7.2634904e-05  5.1731181e-07  7.2117592e-05  2.8589764e+09
   4974000   4.3867729e-11  3471912.1      102503.73      1.1303647e+09  7.26349e-05    5.1746006e-07  7.211744e-05   2.8589737e+09
   4975000   4.3876549e-11  3471917.5      102507.99      1.1303651e+09  7.2634908e-05  5.1735451e-07  7.2117554e-05  2.8589762e+09
   4976000   4.3885368e-11  3471913.2      102504.63      1.1303647e+09  7.2634897e-05  5.1743401e-07  7.2117463e-05  2.8589727e+09
   4977000   4.3894187e-11  3471907.8      102500.8       1.1303642e+09  7.2634901e-05  5.1754887e-07  7.2117352e-05  2.8589707e+09
   4978000   4.3903007e-11  3471922.1      102507.56      1.1303668e+09  7.2634898e-05  5.1724905e-07  7.2117649e-05  2.8589759e+09
   4979000   4.3911826e-11  3471920.4      102508.24      1.130366e+09   7.2634894e-05  5.1728123e-07  7.2117613e-05  2.8589745e+09
   4980000   4.3920646e-11  3471921.6      102506.58      1.1303669e+09  7.2634895e-05  5.172563e-07   7.2117639e-05  2.8589751e+09
   4981000   4.3929465e-11  3471922.7      102513.41      1.130365e+09   7.2634897e-05  5.172351e-07   7.2117662e-05  2.858976e+09 
   4982000   4.3938284e-11  3471921.6      102513.88      1.1303645e+09  7.2634899e-05  5.1726129e-07  7.2117638e-05  2.8589757e+09
   4983000   4.3947104e-11  3471924.7      102512.94      1.1303658e+09  7.2634902e-05  5.1719983e-07  7.2117702e-05  2.8589777e+09
   4984000   4.3955923e-11  3471918.9      102514.19      1.1303635e+09  7.2634904e-05  5.173226e-07   7.2117581e-05  2.8589759e+09
   4985000   4.3964743e-11  3471917.4      102510.66      1.1303642e+09  7.2634903e-05  5.1735146e-07  7.2117552e-05  2.8589751e+09
   4986000   4.3973562e-11  3471910.3      102504.3       1.1303639e+09  7.2634899e-05  5.1749507e-07  7.2117404e-05  2.8589722e+09
   4987000   4.3982382e-11  3471902.2      102501.56      1.1303621e+09  7.2634897e-05  5.1766242e-07  7.2117235e-05  2.8589691e+09
   4988000   4.3991201e-11  3471894.7      102497.84      1.1303608e+09  7.2634896e-05  5.1781709e-07  7.2117079e-05  2.858966e+09 
   4989000   4.400002e-11   3471904.2      102498.08      1.1303639e+09  7.2634895e-05  5.1761855e-07  7.2117276e-05  2.8589691e+09
   4990000   4.400884e-11   3471934.2      102526.62      1.1303645e+09  7.2635595e-05  5.1769451e-07  7.21179e-05    2.8589947e+09
   4991000   4.4017659e-11  3471937.8      102530.59      1.1303643e+09  7.2635596e-05  5.1762228e-07  7.2117974e-05  2.8589965e+09
   4992000   4.4026479e-11  3471933.2      102531.6       1.1303625e+09  7.2635592e-05  5.1771256e-07  7.211788e-05   2.858995e+09 
   4993000   4.4035298e-11  3471936.3      102533.8       1.1303628e+09  7.2635593e-05  5.1764902e-07  7.2117944e-05  2.8589962e+09
   4994000   4.4044117e-11  3471937.6      102533.64      1.1303632e+09  7.2635598e-05  5.1762893e-07  7.2117969e-05  2.8589968e+09
   4995000   4.4052937e-11  3471935.9      102532.2       1.1303631e+09  7.2635599e-05  5.1766459e-07  7.2117935e-05  2.8589956e+09
   4996000   4.4061756e-11  3471943.5      102531.64      1.1303659e+09  7.2635593e-05  5.1749941e-07  7.2118093e-05  2.8589979e+09
   4997000   4.4070576e-11  3471941.5      102536.92      1.1303635e+09  7.26356e-05    5.175487e-07   7.2118052e-05  2.8589983e+09
   4998000   4.4079395e-11  3471951.3      102546.4       1.1303636e+09  7.2635598e-05  5.1734183e-07  7.2118256e-05  2.8590022e+09
   4999000   4.4088214e-11  3471954.3      102547.55      1.1303642e+09  7.2635603e-05  5.17285e-07    7.2118318e-05  2.8590038e+09
   5000000   4.4097034e-11  3471953.4      102550.27      1.130363e+09   7.2635596e-05  5.1729824e-07  7.2118298e-05  2.8590025e+09
   5001000   4.4105853e-11  3471961        102547.14      1.1303666e+09  7.2635598e-05  5.171417e-07   7.2118456e-05  2.8590045e+09
   5002000   4.4114673e-11  3471943.5      102544.78      1.1303615e+09  7.2635586e-05  5.1749267e-07  7.2118094e-05  2.8589968e+09
   5003000   4.4123492e-11  3471946.5      102543.72      1.1303628e+09  7.2635588e-05  5.1743323e-07  7.2118155e-05  2.8589984e+09
   5004000   4.4132311e-11  3471949.3      102548.45      1.1303622e+09  7.2635583e-05  5.1736913e-07  7.2118214e-05  2.8589992e+09
   5005000   4.4141131e-11  3471941.8      102544         1.1303612e+09  7.2635587e-05  5.175297e-07   7.2118057e-05  2.8589966e+09
   5006000   4.414995e-11   3471945.5      102542.41      1.130363e+09   7.2635591e-05  5.1745675e-07  7.2118135e-05  2.8589987e+09
   5007000   4.415877e-11   3471937.2      102542.22      1.1303602e+09  7.2635597e-05  5.1763467e-07  7.2117962e-05  2.8589964e+09
   5008000   4.4167589e-11  3471938.8      102544.27      1.1303601e+09  7.2635604e-05  5.1760852e-07  7.2117995e-05  2.8589979e+09
   5009000   4.4176408e-11  3471946        102547.72      1.1303613e+09  7.263561e-05   5.1746562e-07  7.2118144e-05  2.8590013e+09
   5010000   4.4185228e-11  3471941        102544.54      1.1303607e+09  7.2635609e-05  5.1756897e-07  7.211804e-05   2.8589991e+09
   5011000   4.4194047e-11  3471940        102549.33      1.1303588e+09  7.2635607e-05  5.175857e-07   7.2118021e-05  2.8589984e+09
   5012000   4.4202867e-11  3471943.9      102547.25      1.1303608e+09  7.26356e-05    5.1749916e-07  7.2118101e-05  2.858999e+09 
   5013000   4.4211686e-11  3471942.3      102548.75      1.1303598e+09  7.2635596e-05  5.1752801e-07  7.2118068e-05  2.8589986e+09
   5014000   4.4220505e-11  3471943.1      102550.86      1.1303593e+09  7.2635591e-05  5.1750691e-07  7.2118084e-05  2.8589985e+09
   5015000   4.4229325e-11  3471944.7      102546.65      1.1303613e+09  7.2635597e-05  5.1747977e-07  7.2118117e-05  2.8589992e+09
   5016000   4.4238144e-11  3471941.4      102544.04      1.130361e+09   7.2635605e-05  5.1755529e-07  7.2118049e-05  2.8589984e+09
   5017000   4.4246964e-11  3471942.2      102542.56      1.1303618e+09  7.2635603e-05  5.175378e-07   7.2118065e-05  2.8589992e+09
   5018000   4.4255783e-11  3471920.6      102536.83      1.1303565e+09  7.2635603e-05  5.1798515e-07  7.2117618e-05  2.8589922e+09
   5019000   4.4264603e-11  3471925.7      102535.96      1.1303585e+09  7.2635601e-05  5.1787806e-07  7.2117722e-05  2.8589953e+09
   5020000   4.4273422e-11  3471923.4      102536.96      1.1303574e+09  7.2635603e-05  5.1792718e-07  7.2117675e-05  2.8589948e+09
   5021000   4.4282241e-11  3471930.7      102536.7       1.1303599e+09  7.2635609e-05  5.1778081e-07  7.2117828e-05  2.8589977e+09
   5022000   4.4291061e-11  3471928.9      102537.7       1.130359e+09   7.2635607e-05  5.1781643e-07  7.211779e-05   2.8589964e+09
   5023000   4.429988e-11   3471940.5      102543.5       1.1303609e+09  7.26356e-05    5.1757001e-07  7.211803e-05   2.8590002e+09
   5024000   4.43087e-11    3471940.6      102544.17      1.1303607e+09  7.2635596e-05  5.1756272e-07  7.2118033e-05  2.8590002e+09
   5025000   4.4317519e-11  3471945.1      102548.13      1.1303609e+09  7.2635599e-05  5.1747198e-07  7.2118127e-05  2.8590026e+09
   5026000   4.4326338e-11  3471937.3      102541.05      1.1303607e+09  7.2635592e-05  5.1762792e-07  7.2117964e-05  2.8589994e+09
   5027000   4.4335158e-11  3471933.5      102536.41      1.1303609e+09  7.2635601e-05  5.1771671e-07  7.2117884e-05  2.8589987e+09
   5028000   4.4343977e-11  3471935.7      102537.7       1.1303612e+09  7.2635606e-05  5.1767519e-07  7.2117931e-05  2.8589999e+09
   5029000   4.4352797e-11  3471940.5      102534.94      1.1303638e+09  7.2635601e-05  5.1757092e-07  7.211803e-05   2.8590016e+09
   5030000   4.4361616e-11  3471922        102531.73      1.1303586e+09  7.2635604e-05  5.1795721e-07  7.2117646e-05  2.8589959e+09
   5031000   4.4370435e-11  3471920.6      102530.45      1.1303586e+09  7.2635605e-05  5.1798771e-07  7.2117617e-05  2.8589957e+09
   5032000   4.4379255e-11  3471912.1      102526.43      1.1303571e+09  7.263561e-05   5.1816986e-07  7.211744e-05   2.8589926e+09
   5033000   4.4388074e-11  3471913.4      102523.61      1.1303585e+09  7.2635613e-05  5.1814455e-07  7.2117469e-05  2.8589931e+09
   5034000   4.4396894e-11  3471920.3      102527.1       1.1303596e+09  7.2635598e-05  5.1798596e-07  7.2117612e-05  2.8589943e+09
   5035000   4.4405713e-11  3471920.7      102530.65      1.1303586e+09  7.2635604e-05  5.1798491e-07  7.2117619e-05  2.8589947e+09
   5036000   4.4414532e-11  3471919.1      102531.2       1.1303578e+09  7.2635607e-05  5.1802116e-07  7.2117586e-05  2.8589944e+09
   5037000   4.4423352e-11  3471920.6      102534.54      1.1303572e+09  7.2635607e-05  5.1798959e-07  7.2117618e-05  2.8589957e+09
   5038000   4.4432171e-11  3471925.2      102539.61      1.1303571e+09  7.2635617e-05  5.1790378e-07  7.2117713e-05  2.8589993e+09
   5039000   4.4440991e-11  3471918.6      102537.08      1.1303557e+09  7.263561e-05   5.1803398e-07  7.2117576e-05  2.858997e+09 
   5040000   4.444981e-11   3471922.6      102541.59      1.1303555e+09  7.2635614e-05  5.1795599e-07  7.2117658e-05  2.8589986e+09
   5041000   4.4458629e-11  3471929.5      102541.78      1.1303578e+09  7.2635611e-05  5.1780842e-07  7.2117803e-05  2.8589999e+09
   5042000   4.4467449e-11  3471931.1      102543.35      1.1303578e+09  7.2635607e-05  5.1777225e-07  7.2117835e-05  2.8589994e+09
   5043000   4.4476268e-11  3471930.6      102545.12      1.130357e+09   7.2635613e-05  5.1778935e-07  7.2117824e-05  2.8589999e+09
   5044000   4.4485088e-11  3471935.7      102548.09      1.1303578e+09  7.2635619e-05  5.1768726e-07  7.2117932e-05  2.8590025e+09
   5045000   4.4493907e-11  3471940.2      102548.73      1.130359e+09   7.2635624e-05  5.1760014e-07  7.2118024e-05  2.8590044e+09
   5046000   4.4502727e-11  3471929.7      102544.31      1.130357e+09   7.2635627e-05  5.1781978e-07  7.2117807e-05  2.8590006e+09
   5047000   4.4511546e-11  3471923.5      102541.56      1.1303558e+09  7.263562e-05   5.1794294e-07  7.2117677e-05  2.8589979e+09
   5048000   4.4520365e-11  3471925.5      102540.99      1.1303567e+09  7.2635616e-05  5.178963e-07   7.211772e-05   2.8589982e+09
   5049000   4.4529185e-11  3471925.4      102537.33      1.1303579e+09  7.2635607e-05  5.1788999e-07  7.2117717e-05  2.8589967e+09
   5050000   4.4538004e-11  3471920.5      102536.62      1.1303565e+09  7.2635606e-05  5.1799011e-07  7.2117616e-05  2.8589945e+09
   5051000   4.4546824e-11  3471925.8      102544.76      1.1303555e+09  7.263561e-05   5.1788493e-07  7.2117725e-05  2.8589961e+09
   5052000   4.4555643e-11  3471939        102547.51      1.1303591e+09  7.2635602e-05  5.1760254e-07  7.2117999e-05  2.8589992e+09
   5053000   4.4564462e-11  3471945.2      102552.87      1.1303593e+09  7.2635601e-05  5.1747284e-07  7.2118128e-05  2.8590012e+09
   5054000   4.4573282e-11  3471950        102554.41      1.1303604e+09  7.2635601e-05  5.1737276e-07  7.2118228e-05  2.8590035e+09
   5055000   4.4582101e-11  3471938.9      102556.65      1.130356e+09   7.2635607e-05  5.1760946e-07  7.2117998e-05  2.8590008e+09
   5056000   4.4590921e-11  3471949.8      102564.43      1.130357e+09   7.2635603e-05  5.1737806e-07  7.2118224e-05  2.8590047e+09
   5057000   4.459974e-11   3471952.4      102560.95      1.1303591e+09  7.2635612e-05  5.1733361e-07  7.2118278e-05  2.8590057e+09
   5058000   4.4608559e-11  3471947.9      102559.08      1.1303582e+09  7.2635608e-05  5.1742277e-07  7.2118185e-05  2.8590036e+09
   5059000   4.4617379e-11  3471947.2      102555.21      1.1303592e+09  7.2635611e-05  5.17442e-07    7.2118169e-05  2.8590042e+09
   5060000   4.4626198e-11  3471936.2      102555.2       1.1303556e+09  7.2635617e-05  5.1767592e-07  7.2117942e-05  2.8590015e+09
   5061000   4.4635018e-11  3471932.8      102553.83      1.1303549e+09  7.2635623e-05  5.1775232e-07  7.2117871e-05  2.8590014e+09
   5062000   4.4643837e-11  3471930.6      102551.42      1.130355e+09   7.2635624e-05  5.1779857e-07  7.2117826e-05  2.8590012e+09
   5063000   4.4652656e-11  3471925.3      102550.4       1.1303535e+09  7.2635627e-05  5.1791241e-07  7.2117715e-05  2.859e+09    
   5064000   4.4661476e-11  3471917.5      102544.71      1.1303528e+09  7.2635623e-05  5.1806914e-07  7.2117554e-05  2.8589965e+09
   5065000   4.4670295e-11  3471926.9      102547.3       1.1303551e+09  7.2635616e-05  5.1786688e-07  7.2117749e-05  2.8589989e+09
   5066000   4.4679115e-11  3471931.9      102546.82      1.1303569e+09  7.2635613e-05  5.1776025e-07  7.2117852e-05  2.8590001e+09
   5067000   4.4687934e-11  3471927.1      102549.25      1.1303545e+09  7.2635617e-05  5.1786434e-07  7.2117753e-05  2.8589986e+09
   5068000   4.4696753e-11  3471932.6      102543.97      1.1303581e+09  7.2635604e-05  5.1773719e-07  7.2117867e-05  2.8589995e+09
   5069000   4.4705573e-11  3471920.2      102545.78      1.1303533e+09  7.2635607e-05  5.1799708e-07  7.211761e-05   2.858995e+09 
   5070000   4.4714392e-11  3471924.6      102541.36      1.1303563e+09  7.2635612e-05  5.1791159e-07  7.21177e-05    2.8589977e+09
   5071000   4.4723212e-11  3471924.9      102542.39      1.130356e+09   7.2635619e-05  5.1791316e-07  7.2117706e-05  2.8589986e+09
   5072000   4.4732031e-11  3471929.1      102547.17      1.1303559e+09  7.2635614e-05  5.1781934e-07  7.2117795e-05  2.8589998e+09
   5073000   4.474085e-11   3471927.4      102548.58      1.1303548e+09  7.2635615e-05  5.1785657e-07  7.2117759e-05  2.8589991e+09
   5074000   4.474967e-11   3471931.3      102549.62      1.1303558e+09  7.2635604e-05  5.1776363e-07  7.211784e-05   2.8589994e+09
   5075000   4.4758489e-11  3471920        102546.6       1.130353e+09   7.2635606e-05  5.1800093e-07  7.2117605e-05  2.8589952e+09
   5076000   4.4767309e-11  3471923.5      102548.32      1.1303536e+09  7.2635602e-05  5.1792556e-07  7.2117677e-05  2.8589962e+09
   5077000   4.4776128e-11  3471928.2      102550.02      1.1303546e+09  7.26356e-05    5.1782483e-07  7.2117775e-05  2.8589975e+09
   5078000   4.4784948e-11  3471930.8      102549.01      1.1303558e+09  7.2635606e-05  5.177764e-07   7.211783e-05   2.8589987e+09
   5079000   4.4793767e-11  3471931.6      102547.44      1.1303566e+09  7.263561e-05   5.1776423e-07  7.2117846e-05  2.8589987e+09
   5080000   4.4802586e-11  3471927.9      102545.89      1.1303559e+09  7.2635602e-05  5.1783201e-07  7.211777e-05   2.8589967e+09
   5081000   4.4811406e-11  3471919.3      102543.67      1.1303537e+09  7.2635591e-05  5.1800123e-07  7.2117589e-05  2.858993e+09 
   5082000   4.4820225e-11  3471917.9      102543.15      1.1303535e+09  7.2635596e-05  5.1803388e-07  7.2117562e-05  2.8589926e+09
   5083000   4.4829045e-11  3471930.8      102544.78      1.1303572e+09  7.2635601e-05  5.1777116e-07  7.2117829e-05  2.8589969e+09
   5084000   4.4837864e-11  3471931        102547.47      1.1303564e+09  7.2635601e-05  5.1776842e-07  7.2117833e-05  2.8589971e+09
   5085000   4.4846683e-11  3471931.5      102549         1.1303561e+09  7.2635611e-05  5.1776693e-07  7.2117844e-05  2.8589987e+09
   5086000   4.4855503e-11  3471922.6      102551.06      1.1303524e+09  7.2635619e-05  5.1795918e-07  7.211766e-05   2.858997e+09 
   5087000   4.4864322e-11  3471920.5      102553.61      1.1303508e+09  7.2635618e-05  5.180024e-07   7.2117616e-05  2.858997e+09 
   5088000   4.4873142e-11  3471922.1      102555.36      1.1303508e+09  7.2635619e-05  5.1796931e-07  7.2117649e-05  2.8589972e+09
   5089000   4.4881961e-11  3471926.9      102555.43      1.1303524e+09  7.2635614e-05  5.1786483e-07  7.2117749e-05  2.8589975e+09
   5090000   4.489078e-11   3471933.2      102562.74      1.130352e+09   7.263561e-05   5.1773168e-07  7.2117878e-05  2.8589987e+09
   5091000   4.48996e-11    3471936        102559.48      1.1303541e+09  7.2635613e-05  5.1767522e-07  7.2117938e-05  2.8589993e+09
   5092000   4.4908419e-11  3471944.7      102566.7       1.1303546e+09  7.2635606e-05  5.1748867e-07  7.2118118e-05  2.8590027e+09
   5093000   4.4917239e-11  3471940.2      102567.23      1.1303529e+09  7.2635608e-05  5.1758336e-07  7.2118024e-05  2.8590014e+09
   5094000   4.4926058e-11  3471937        102567.54      1.1303517e+09  7.2635611e-05  5.1765304e-07  7.2117957e-05  2.8590005e+09
   5095000   4.4934877e-11  3471943        102567.79      1.1303536e+09  7.2635612e-05  5.1753053e-07  7.2118082e-05  2.8590021e+09
   5096000   4.4943697e-11  3471942.5      102567.98      1.1303534e+09  7.2635616e-05  5.1754291e-07  7.2118073e-05  2.8590023e+09
   5097000   4.4952516e-11  3471948.8      102573.24      1.1303537e+09  7.2635621e-05  5.1741812e-07  7.2118203e-05  2.8590059e+09
   5098000   4.4961336e-11  3471939        102571.03      1.1303512e+09  7.263562e-05   5.1762011e-07  7.2117999e-05  2.8590028e+09
   5099000   4.4970155e-11  3471939.2      102571.96      1.130351e+09   7.2635622e-05  5.1761831e-07  7.2118004e-05  2.8590034e+09
   5100000   4.4978974e-11  3471941        102576.66      1.13035e+09    7.2635624e-05  5.1758342e-07  7.2118041e-05  2.8590039e+09
   5101000   4.4987794e-11  3471935.7      102576.67      1.1303482e+09  7.2635615e-05  5.17684e-07    7.2117931e-05  2.8590005e+09
   5102000   4.4996613e-11  3471935.8      102573.92      1.1303492e+09  7.2635617e-05  5.1768377e-07  7.2117933e-05  2.8590001e+09
   5103000   4.5005433e-11  3471942.2      102577.98      1.13035e+09    7.2635619e-05  5.1755245e-07  7.2118067e-05  2.8590024e+09
   5104000   4.5014252e-11  3471940.9      102573.71      1.130351e+09   7.263561e-05   5.1757008e-07  7.211804e-05   2.8590006e+09
   5105000   4.5023072e-11  3471940.6      102573.4       1.1303509e+09  7.2635609e-05  5.175774e-07   7.2118032e-05  2.8590005e+09
   5106000   4.5031891e-11  3471938.8      102573.31      1.1303504e+09  7.2635609e-05  5.1761343e-07  7.2117996e-05  2.8590004e+09
   5107000   4.504071e-11   3471937        102572.19      1.1303501e+09  7.2635615e-05  5.1765795e-07  7.2117957e-05  2.8590006e+09
   5108000   4.504953e-11   3471932.9      102569.58      1.1303496e+09  7.2635619e-05  5.1774551e-07  7.2117873e-05  2.8590002e+09
   5109000   4.5058349e-11  3471934        102575.63      1.130348e+09   7.2635623e-05  5.1772712e-07  7.2117896e-05  2.8590019e+09
   5110000   4.5067169e-11  3471943.5      102580.5       1.1303495e+09  7.2635636e-05  5.1754246e-07  7.2118093e-05  2.8590069e+09
   5111000   4.5075988e-11  3471939.5      102578.52      1.1303489e+09  7.2635632e-05  5.1762189e-07  7.2118011e-05  2.8590043e+09
   5112000   4.5084807e-11  3471935.2      102574.39      1.1303488e+09  7.2635624e-05  5.177029e-07   7.2117921e-05  2.859001e+09 
   5113000   4.5093627e-11  3471936.9      102570.72      1.1303506e+09  7.2635617e-05  5.1766127e-07  7.2117956e-05  2.8590002e+09
   5114000   4.5102446e-11  3471939.5      102568.11      1.1303523e+09  7.2635617e-05  5.1760675e-07  7.211801e-05   2.8590007e+09
   5115000   4.5111266e-11  3471939.9      102570.95      1.1303515e+09  7.2635618e-05  5.1760036e-07  7.2118018e-05  2.8590011e+09
   5116000   4.5120085e-11  3471940        102572.71      1.130351e+09   7.2635621e-05  5.1760034e-07  7.211802e-05   2.8590022e+09
   5117000   4.5128904e-11  3471934.8      102574.1       1.1303488e+09  7.2635632e-05  5.1771918e-07  7.2117912e-05  2.8590018e+09
   5118000   4.5137724e-11  3471934.7      102570.46      1.1303499e+09  7.2635628e-05  5.1771853e-07  7.2117909e-05  2.859002e+09 
   5119000   4.5146543e-11  3471938.4      102572.83      1.1303504e+09  7.2635639e-05  5.1765177e-07  7.2117987e-05  2.859005e+09 
   5120000   4.5155363e-11  3471940.8      102577.96      1.1303495e+09  7.2635627e-05  5.1758965e-07  7.2118037e-05  2.8590052e+09
   5121000   4.5164182e-11  3471943.4      102580.48      1.1303495e+09  7.263563e-05   5.1753851e-07  7.2118092e-05  2.8590062e+09
   5122000   4.5173001e-11  3471947.1      102581.99      1.1303502e+09  7.2635629e-05  5.1746203e-07  7.2118167e-05  2.8590071e+09
   5123000   4.5181821e-11  3471944.7      102576.47      1.1303513e+09  7.2635622e-05  5.175045e-07   7.2118117e-05  2.8590048e+09
   5124000   4.519064e-11   3471941.1      102574.77      1.1303507e+09  7.263562e-05   5.1757662e-07  7.2118043e-05  2.8590029e+09
   5125000   4.519946e-11   3471944.6      102574.9       1.1303518e+09  7.2635619e-05  5.1750312e-07  7.2118116e-05  2.8590043e+09
   5126000   4.5208279e-11  3471947.4      102579.64      1.1303511e+09  7.2635619e-05  5.1744519e-07  7.2118174e-05  2.8590056e+09
   5127000   4.5217098e-11  3471950.5      102580.59      1.1303519e+09  7.263562e-05   5.1738225e-07  7.2118238e-05  2.8590068e+09
   5128000   4.5225918e-11  3471948.3      102580.5       1.1303512e+09  7.2635616e-05  5.1742331e-07  7.2118193e-05  2.8590058e+09
   5129000   4.5234737e-11  3471945.4      102577.77      1.1303511e+09  7.2635627e-05  5.1749385e-07  7.2118133e-05  2.8590059e+09
   5130000   4.5243557e-11  3471942.4      102576.61      1.1303505e+09  7.2635631e-05  5.1756008e-07  7.2118071e-05  2.8590056e+09
   5131000   4.5252376e-11  3471944.4      102579.67      1.1303501e+09  7.2635624e-05  5.1751266e-07  7.2118111e-05  2.8590062e+09
   5132000   4.5261195e-11  3471942.3      102579.55      1.1303495e+09  7.2635626e-05  5.1755744e-07  7.2118069e-05  2.8590057e+09
   5133000   4.5270015e-11  3471942.2      102573.49      1.1303514e+09  7.2635623e-05  5.175576e-07   7.2118066e-05  2.859005e+09 
   5134000   4.5278834e-11  3471929.9      102570.14      1.1303484e+09  7.2635624e-05  5.1781436e-07  7.211781e-05   2.8590006e+09
   5135000   4.5287654e-11  3471927.8      102568.27      1.1303484e+09  7.2635623e-05  5.1785666e-07  7.2117766e-05  2.8590002e+09
   5136000   4.5296473e-11  3471927.1      102568.16      1.1303482e+09  7.2635627e-05  5.1787349e-07  7.2117753e-05  2.8590008e+09
   5137000   4.5305293e-11  3471928        102566.46      1.130349e+09   7.2635632e-05  5.1786071e-07  7.2117771e-05  2.8590022e+09
   5138000   4.5314112e-11  3471918.8      102565.07      1.1303464e+09  7.2635631e-05  5.1805101e-07  7.211758e-05   2.8589995e+09
   5139000   4.5322931e-11  3471914.9      102563.69      1.1303456e+09  7.2635622e-05  5.18123e-07    7.2117499e-05  2.8589969e+09
   5140000   4.5331751e-11  3471926.4      102564.3       1.1303492e+09  7.2635617e-05  5.1787837e-07  7.2117739e-05  2.8589996e+09
   5141000   4.534057e-11   3471928.1      102561.86      1.1303506e+09  7.2635609e-05  5.178357e-07   7.2117773e-05  2.8589984e+09
   5142000   4.534939e-11   3471925.3      102562.42      1.1303495e+09  7.2635619e-05  5.1790386e-07  7.2117715e-05  2.8589977e+09
   5143000   4.5358209e-11  3471927.5      102566.95      1.1303487e+09  7.2635615e-05  5.1785346e-07  7.2117761e-05  2.8589987e+09
   5144000   4.5367028e-11  3471928.2      102567.63      1.1303487e+09  7.2635619e-05  5.1784293e-07  7.2117776e-05  2.8589997e+09
   5145000   4.5375848e-11  3471933.2      102573.13      1.1303485e+09  7.263562e-05   5.1774171e-07  7.2117879e-05  2.8590021e+09
   5146000   4.5384667e-11  3471935.7      102575.26      1.1303487e+09  7.2635618e-05  5.1768748e-07  7.2117931e-05  2.8590029e+09
   5147000   4.5393487e-11  3471932.8      102576.97      1.1303471e+09  7.263562e-05   5.1774983e-07  7.211787e-05   2.8590017e+09
   5148000   4.5402306e-11  3471942.9      102582.63      1.1303486e+09  7.2635613e-05  5.1753171e-07  7.2118081e-05  2.8590046e+09
   5149000   4.5411125e-11  3471952.3      102587.22      1.1303503e+09  7.2635618e-05  5.1734243e-07  7.2118276e-05  2.8590082e+09
   5150000   4.5419945e-11  3471945.6      102585.76      1.1303485e+09  7.2635618e-05  5.1748195e-07  7.2118136e-05  2.8590056e+09
   5151000   4.5428764e-11  3471944.8      102585.16      1.1303484e+09  7.2635615e-05  5.1749472e-07  7.2118121e-05  2.8590047e+09
   5152000   4.5437584e-11  3471952.1      102587.72      1.13035e+09    7.2635617e-05  5.1734522e-07  7.2118272e-05  2.8590069e+09
   5153000   4.5446403e-11  3471947.7      102586.21      1.1303491e+09  7.2635615e-05  5.1743402e-07  7.2118181e-05  2.8590045e+09
   5154000   4.5455222e-11  3471951        102585.5       1.1303504e+09  7.2635612e-05  5.1736215e-07  7.211825e-05   2.8590051e+09
   5155000   4.5464042e-11  3471948.7      102584.36      1.13035e+09    7.2635612e-05  5.1741055e-07  7.2118201e-05  2.8590039e+09
   5156000   4.5472861e-11  3471944.6      102584.01      1.1303487e+09  7.2635618e-05  5.1750225e-07  7.2118116e-05  2.8590033e+09
   5157000   4.5481681e-11  3471935.5      102579.55      1.1303472e+09  7.2635616e-05  5.1768823e-07  7.2117927e-05  2.8590002e+09
   5158000   4.54905e-11    3471939.1      102580.97      1.1303479e+09  7.263562e-05   5.1761707e-07  7.2118002e-05  2.8590016e+09
   5159000   4.5499319e-11  3471943        102585.26      1.1303478e+09  7.2635621e-05  5.1753879e-07  7.2118082e-05  2.8590028e+09
   5160000   4.5508139e-11  3471940        102587.49      1.130346e+09   7.2635616e-05  5.175968e-07   7.2118019e-05  2.8590011e+09
   5161000   4.5516958e-11  3471950.6      102591.43      1.1303483e+09  7.2635615e-05  5.1737524e-07  7.211824e-05   2.859005e+09 
   5162000   4.5525778e-11  3471956        102597.73      1.130348e+09   7.263562e-05   5.1726809e-07  7.2118352e-05  2.8590069e+09
   5163000   4.5534597e-11  3471967        102602.51      1.1303501e+09  7.263562e-05   5.1703961e-07  7.2118581e-05  2.8590103e+09
   5164000   4.5543417e-11  3471959.9      102602.14      1.1303478e+09  7.2635616e-05  5.1718137e-07  7.2118434e-05  2.8590066e+09
   5165000   4.5552236e-11  3471961.3      102603.59      1.1303478e+09  7.2635608e-05  5.1714542e-07  7.2118462e-05  2.8590059e+09
   5166000   4.5561055e-11  3471967.4      102601.37      1.1303506e+09  7.2635611e-05  5.1702222e-07  7.2118589e-05  2.8590082e+09
   5167000   4.5569875e-11  3471957        102601.66      1.130347e+09   7.2635612e-05  5.172383e-07   7.2118374e-05  2.8590051e+09
   5168000   4.5578694e-11  3471958.6      102602.58      1.1303472e+09  7.2635609e-05  5.1720193e-07  7.2118407e-05  2.8590058e+09
   5169000   4.5587514e-11  3471970        102607.33      1.1303494e+09  7.2635608e-05  5.1696497e-07  7.2118643e-05  2.8590097e+09
   5170000   4.5596333e-11  3471958.8      102603.2       1.1303471e+09  7.263561e-05   5.1720019e-07  7.211841e-05   2.8590055e+09
   5171000   4.5605152e-11  3471955.3      102599.27      1.1303472e+09  7.2635604e-05  5.1726628e-07  7.2118337e-05  2.859004e+09 
   5172000   4.5613972e-11  3471954.8      102602.08      1.1303461e+09  7.263559e-05   5.1726188e-07  7.2118328e-05  2.8590027e+09
   5173000   4.5622791e-11  3471961.8      102602.16      1.1303484e+09  7.2635594e-05  5.1712143e-07  7.2118473e-05  2.8590046e+09
   5174000   4.5631611e-11  3471963.7      102603.83      1.1303485e+09  7.2635595e-05  5.1708354e-07  7.2118512e-05  2.8590048e+09
   5175000   4.564043e-11   3471964.4      102602.41      1.1303492e+09  7.2635591e-05  5.1706417e-07  7.2118527e-05  2.8590049e+09
   5176000   4.5649249e-11  3471958.2      102599.69      1.130348e+09   7.263559e-05   5.1719247e-07  7.2118398e-05  2.8590027e+09
   5177000   4.5658069e-11  3471955.3      102594.89      1.1303487e+09  7.2635596e-05  5.1725725e-07  7.2118339e-05  2.8590019e+09
   5178000   4.5666888e-11  3471947.9      102592.27      1.1303471e+09  7.2635595e-05  5.1741042e-07  7.2118185e-05  2.858999e+09 
   5179000   4.5675708e-11  3471950.5      102597.41      1.1303462e+09  7.2635591e-05  5.1735223e-07  7.2118239e-05  2.8590001e+09
   5180000   4.5684527e-11  3471960.2      102603.78      1.1303474e+09  7.263559e-05   5.1714964e-07  7.211844e-05   2.8590032e+09
   5181000   4.5693346e-11  3471962.5      102606.77      1.1303471e+09  7.2635591e-05  5.1710422e-07  7.2118487e-05  2.8590038e+09
   5182000   4.5702166e-11  3471952        102605.31      1.1303441e+09  7.2635586e-05  5.1731594e-07  7.2118271e-05  2.859e+09    
   5183000   4.5710985e-11  3471954.6      102602.93      1.1303458e+09  7.2635586e-05  5.1726243e-07  7.2118323e-05  2.859001e+09 
   5184000   4.5719805e-11  3471961.7      102607.05      1.1303468e+09  7.2635599e-05  5.171283e-07   7.211847e-05   2.859005e+09 
   5185000   4.5728624e-11  3471955.6      102609.24      1.130344e+09   7.2635592e-05  5.1724832e-07  7.2118344e-05  2.8590026e+09
   5186000   4.5737443e-11  3471955.7      102608.84      1.1303441e+09  7.2635596e-05  5.1725006e-07  7.2118346e-05  2.8590028e+09
   5187000   4.5746263e-11  3471969.4      102607.87      1.1303491e+09  7.2635598e-05  5.1696789e-07  7.211863e-05   2.8590081e+09
   5188000   4.5755082e-11  3471955.1      102606.97      1.1303446e+09  7.2635591e-05  5.1725817e-07  7.2118333e-05  2.8590024e+09
   5189000   4.5763902e-11  3471959.6      102604.13      1.1303471e+09  7.2635591e-05  5.1716307e-07  7.2118428e-05  2.859004e+09 
   5190000   4.5772721e-11  3471959.8      102602.59      1.1303476e+09  7.2635595e-05  5.1716342e-07  7.2118431e-05  2.8590041e+09
   5191000   4.578154e-11   3471951.6      102603.18      1.1303447e+09  7.263559e-05   5.1732827e-07  7.2118262e-05  2.859001e+09 
   5192000   4.579036e-11   3471952.1      102599.32      1.1303461e+09  7.2635589e-05  5.1731782e-07  7.2118271e-05  2.8590016e+09
   5193000   4.5799179e-11  3471953        102595.39      1.1303477e+09  7.2635594e-05  5.1730462e-07  7.211829e-05   2.8590027e+09
   5194000   4.5807999e-11  3471949.8      102596.59      1.1303463e+09  7.2635603e-05  5.1737902e-07  7.2118224e-05  2.8590029e+09
   5195000   4.5816818e-11  3471948.2      102593.6       1.1303467e+09  7.2635589e-05  5.1739943e-07  7.211819e-05   2.8590017e+09
   5196000   4.5825638e-11  3471931.1      102583.08      1.1303445e+09  7.2635592e-05  5.1775728e-07  7.2117835e-05  2.8589949e+09
   5197000   4.5834457e-11  3471940.4      102586.44      1.1303465e+09  7.2635589e-05  5.1755982e-07  7.2118029e-05  2.8589974e+09
   5198000   4.5843276e-11  3471948.7      102588.03      1.1303488e+09  7.2635585e-05  5.1738368e-07  7.2118201e-05  2.8589996e+09
   5199000   4.5852096e-11  3471947.7      102586.07      1.1303491e+09  7.2635586e-05  5.1740441e-07  7.2118181e-05  2.8589993e+09
   5200000   4.5860915e-11  3471938.9      102587.18      1.1303458e+09  7.2635577e-05  5.1757898e-07  7.2117998e-05  2.8589963e+09
   5201000   4.5869735e-11  3471929.7      102583.72      1.1303438e+09  7.263558e-05   5.1777393e-07  7.2117806e-05  2.8589942e+09
   5202000   4.5878554e-11  3471929.2      102584.86      1.1303433e+09  7.2635577e-05  5.1778174e-07  7.2117796e-05  2.8589948e+09
   5203000   4.5887373e-11  3471931.9      102590.62      1.1303423e+09  7.2635589e-05  5.1773691e-07  7.2117852e-05  2.8589967e+09
   5204000   4.5896193e-11  3471936.6      102589.75      1.1303441e+09  7.2635591e-05  5.1764046e-07  7.211795e-05   2.8589985e+09
   5205000   4.5905012e-11  3471933.2      102587.14      1.1303439e+09  7.263559e-05   5.1771125e-07  7.2117878e-05  2.8589972e+09
   5206000   4.5913832e-11  3471928.4      102586.86      1.1303424e+09  7.2635587e-05  5.1780691e-07  7.211778e-05   2.8589954e+09
   5207000   4.5922651e-11  3471926.4      102584.92      1.1303423e+09  7.2635592e-05  5.1785368e-07  7.2117738e-05  2.8589952e+09
   5208000   4.593147e-11   3471922        102583.63      1.1303413e+09  7.2635583e-05  5.1793691e-07  7.2117646e-05  2.8589929e+09
   5209000   4.594029e-11   3471924.5      102577.64      1.1303441e+09  7.2635588e-05  5.1789e-07     7.2117698e-05  2.8589938e+09
   5210000   4.5949109e-11  3471931.1      102580.88      1.1303453e+09  7.2635578e-05  5.1774265e-07  7.2117836e-05  2.8589951e+09
   5211000   4.5957929e-11  3471935.9      102583.93      1.1303458e+09  7.2635587e-05  5.1765224e-07  7.2117935e-05  2.8589976e+09
   5212000   4.5966748e-11  3471930.4      102581.03      1.130345e+09   7.2635584e-05  5.1776223e-07  7.2117822e-05  2.8589952e+09
   5213000   4.5975567e-11  3471928.9      102585.67      1.1303429e+09  7.2635584e-05  5.177944e-07   7.211779e-05   2.858995e+09 
   5214000   4.5984387e-11  3471935.9      102590.71      1.1303436e+09  7.2635575e-05  5.1764043e-07  7.2117935e-05  2.8589971e+09
   5215000   4.5993206e-11  3471939        102596.9       1.1303425e+09  7.2635576e-05  5.1757698e-07  7.2117999e-05  2.8589983e+09
   5216000   4.6002026e-11  3471937.6      102595.46      1.1303426e+09  7.2635577e-05  5.1760656e-07  7.2117971e-05  2.8589975e+09
   5217000   4.6010845e-11  3471935.5      102593.01      1.1303427e+09  7.2635579e-05  5.1765297e-07  7.2117926e-05  2.8589968e+09
   5218000   4.6019664e-11  3471928.8      102589.51      1.1303416e+09  7.2635585e-05  5.177966e-07   7.2117788e-05  2.8589955e+09
   5219000   4.6028484e-11  3471928.7      102590.61      1.1303412e+09  7.2635587e-05  5.1780216e-07  7.2117785e-05  2.8589959e+09
   5220000   4.6037303e-11  3471934.3      102592.25      1.1303425e+09  7.2635583e-05  5.1768152e-07  7.2117901e-05  2.858997e+09 
   5221000   4.6046123e-11  3471938        102589.29      1.1303447e+09  7.2635583e-05  5.1760497e-07  7.2117978e-05  2.8589974e+09
   5222000   4.6054942e-11  3471936.7      102589.76      1.1303442e+09  7.2635581e-05  5.1762854e-07  7.2117953e-05  2.8589967e+09
   5223000   4.6063762e-11  3471938.8      102595.28      1.130343e+09   7.2635574e-05  5.1757857e-07  7.2117996e-05  2.858997e+09 
   5224000   4.6072581e-11  3471934.9      102593.12      1.1303424e+09  7.2635578e-05  5.1766345e-07  7.2117915e-05  2.8589956e+09
   5225000   4.60814e-11    3471928.7      102593.6       1.1303402e+09  7.2635578e-05  5.1779125e-07  7.2117786e-05  2.8589937e+09
   5226000   4.609022e-11   3471940.2      102595.98      1.1303433e+09  7.2635575e-05  5.1754956e-07  7.2118025e-05  2.8589984e+09
   5227000   4.6099039e-11  3471928.5      102594.25      1.1303399e+09  7.263558e-05   5.1779916e-07  7.2117781e-05  2.8589946e+09
   5228000   4.6107859e-11  3471924.6      102591.85      1.1303394e+09  7.2635575e-05  5.1787502e-07  7.21177e-05    2.8589932e+09
   5229000   4.6116678e-11  3471924.3      102589.26      1.1303402e+09  7.2635578e-05  5.1788376e-07  7.2117694e-05  2.858993e+09 
   5230000   4.6125497e-11  3471925.5      102594.7       1.1303388e+09  7.2635587e-05  5.1786756e-07  7.2117719e-05  2.858994e+09 
   5231000   4.6134317e-11  3471936.2      102596.66      1.1303417e+09  7.2635577e-05  5.1763632e-07  7.2117941e-05  2.8589968e+09
   5232000   4.6143136e-11  3471932.1      102599.2       1.1303395e+09  7.2635576e-05  5.1771997e-07  7.2117857e-05  2.858995e+09 
   5233000   4.6151956e-11  3471936.1      102596.39      1.1303417e+09  7.2635579e-05  5.1763934e-07  7.2117939e-05  2.8589965e+09
   5234000   4.6160775e-11  3471927.8      102595.03      1.1303394e+09  7.2635578e-05  5.1781228e-07  7.2117766e-05  2.8589931e+09
   5235000   4.6169594e-11  3471936        102600.02      1.1303405e+09  7.263558e-05   5.1764248e-07  7.2117937e-05  2.8589966e+09
   5236000   4.6178414e-11  3471943        102603.92      1.1303415e+09  7.263557e-05   5.1748734e-07  7.2118082e-05  2.858998e+09 
   5237000   4.6187233e-11  3471941.3      102599.47      1.1303425e+09  7.2635572e-05  5.1752395e-07  7.2118048e-05  2.8589962e+09
   5238000   4.6196053e-11  3471933.8      102599.53      1.1303399e+09  7.2635571e-05  5.1768039e-07  7.2117891e-05  2.8589934e+09
   5239000   4.6204872e-11  3471927.9      102591.64      1.1303406e+09  7.2635574e-05  5.1780578e-07  7.2117768e-05  2.8589919e+09
   5240000   4.6213691e-11  3471924.8      102591.78      1.1303395e+09  7.2635581e-05  5.1787605e-07  7.2117705e-05  2.8589918e+09
   5241000   4.6222511e-11  3471926.2      102594.08      1.1303392e+09  7.2635586e-05  5.1785236e-07  7.2117734e-05  2.8589932e+09
   5242000   4.623133e-11   3471922.7      102590.43      1.1303393e+09  7.2635578e-05  5.1791626e-07  7.2117661e-05  2.8589909e+09
   5243000   4.624015e-11   3471918.8      102583.07      1.1303404e+09  7.2635568e-05  5.1798774e-07  7.211758e-05   2.8589884e+09
   5244000   4.6248969e-11  3471916.2      102583.08      1.1303395e+09  7.2635573e-05  5.1804766e-07  7.2117526e-05  2.8589879e+09
   5245000   4.6257788e-11  3471920.7      102586.79      1.1303398e+09  7.263558e-05   5.1796099e-07  7.2117619e-05  2.8589902e+09
   5246000   4.6266608e-11  3471922.8      102591.8       1.1303388e+09  7.263558e-05   5.1791624e-07  7.2117663e-05  2.8589912e+09
   5247000   4.6275427e-11  3471925.9      102594.14      1.1303391e+09  7.2635586e-05  5.1785893e-07  7.2117727e-05  2.8589929e+09
   5248000   4.6284247e-11  3471927        102594.01      1.1303395e+09  7.2635587e-05  5.1783584e-07  7.2117751e-05  2.8589935e+09
   5249000   4.6293066e-11  3471931.2      102595.22      1.1303405e+09  7.2635592e-05  5.1775417e-07  7.2117838e-05  2.8589954e+09
   5250000   4.6301885e-11  3471933.2      102598.71      1.13034e+09    7.2635598e-05  5.1772045e-07  7.2117878e-05  2.8589972e+09
   5251000   4.6310705e-11  3471928.1      102594.98      1.1303395e+09  7.2635598e-05  5.178253e-07   7.2117773e-05  2.8589957e+09
   5252000   4.6319524e-11  3471925.1      102592.01      1.1303395e+09  7.2635601e-05  5.1789025e-07  7.2117711e-05  2.8589949e+09
   5253000   4.6328344e-11  3471920.4      102591.87      1.130338e+09   7.2635596e-05  5.1798245e-07  7.2117614e-05  2.8589925e+09
   5254000   4.6337163e-11  3471919.9      102588.44      1.130339e+09   7.2635586e-05  5.1798306e-07  7.2117603e-05  2.8589912e+09
   5255000   4.6345983e-11  3471928.8      102594.23      1.13034e+09    7.263559e-05   5.1780158e-07  7.2117788e-05  2.8589946e+09
   5256000   4.6354802e-11  3471932        102592.97      1.1303415e+09  7.2635587e-05  5.1773242e-07  7.2117854e-05  2.8589951e+09
   5257000   4.6363621e-11  3471930.9      102598.06      1.1303395e+09  7.2635587e-05  5.1775442e-07  7.2117832e-05  2.8589955e+09
   5258000   4.6372441e-11  3471933.1      102598.21      1.1303401e+09  7.2635592e-05  5.1771447e-07  7.2117877e-05  2.8589971e+09
   5259000   4.638126e-11   3471929.2      102598.43      1.1303388e+09  7.2635585e-05  5.1778948e-07  7.2117796e-05  2.858995e+09 
   5260000   4.639008e-11   3471933.2      102598.64      1.13034e+09    7.2635589e-05  5.1771073e-07  7.2117879e-05  2.8589966e+09
   5261000   4.6398899e-11  3471933.3      102599.47      1.1303398e+09  7.263559e-05   5.1770809e-07  7.2117882e-05  2.8589966e+09
   5262000   4.6407718e-11  3471938.3      102605.3       1.1303395e+09  7.2635591e-05  5.1760664e-07  7.2117984e-05  2.8589982e+09
   5263000   4.6416538e-11  3471941.1      102606.93      1.1303399e+09  7.2635595e-05  5.1755102e-07  7.2118044e-05  2.8589992e+09
   5264000   4.6425357e-11  3471936.9      102609.57      1.1303376e+09  7.2635597e-05  5.1764013e-07  7.2117957e-05  2.8589981e+09
   5265000   4.6434177e-11  3471934        102609.07      1.1303368e+09  7.2635598e-05  5.1770263e-07  7.2117895e-05  2.8589971e+09
   5266000   4.6442996e-11  3471940.6      102609.96      1.1303387e+09  7.2635597e-05  5.175645e-07   7.2118033e-05  2.8589992e+09
   5267000   4.6451815e-11  3471943.9      102607.12      1.1303408e+09  7.2635607e-05  5.1750514e-07  7.2118102e-05  2.8590006e+09
   5268000   4.6460635e-11  3471938.1      102606.81      1.1303389e+09  7.2635597e-05  5.176167e-07   7.211798e-05   2.8589973e+09
   5269000   4.6469454e-11  3471940.9      102613.54      1.1303376e+09  7.26356e-05    5.1756163e-07  7.2118039e-05  2.8589988e+09
   5270000   4.6478274e-11  3471943.7      102613.55      1.1303386e+09  7.2635594e-05  5.174963e-07   7.2118098e-05  2.8589991e+09
   5271000   4.6487093e-11  3471937.2      102610.6       1.1303374e+09  7.2635596e-05  5.1763397e-07  7.2117962e-05  2.8589963e+09
   5272000   4.6495912e-11  3471939.1      102610.38      1.1303381e+09  7.2635597e-05  5.1759507e-07  7.2118002e-05  2.8589968e+09
   5273000   4.6504732e-11  3471937.9      102612.4       1.130337e+09   7.2635599e-05  5.1762341e-07  7.2117976e-05  2.8589966e+09
   5274000   4.6513551e-11  3471936.1      102609.91      1.1303372e+09  7.2635598e-05  5.1765946e-07  7.2117939e-05  2.8589967e+09
   5275000   4.6522371e-11  3471936.2      102613.39      1.1303361e+09  7.2635598e-05  5.176571e-07   7.2117941e-05  2.8589975e+09
   5276000   4.653119e-11   3471937.7      102617.02      1.1303354e+09  7.2635607e-05  5.1763469e-07  7.2117972e-05  2.8589986e+09
   5277000   4.6540009e-11  3471947        102623.17      1.1303365e+09  7.2635602e-05  5.1743511e-07  7.2118166e-05  2.859001e+09 
   5278000   4.6548829e-11  3471952.8      102625.08      1.1303378e+09  7.2635606e-05  5.1731931e-07  7.2118287e-05  2.8590024e+09
   5279000   4.6557648e-11  3471962.7      102627.7       1.1303402e+09  7.2635601e-05  5.1710809e-07  7.2118493e-05  2.8590045e+09
   5280000   4.6566468e-11  3471958.5      102630.29      1.1303379e+09  7.2635592e-05  5.1718615e-07  7.2118405e-05  2.8590017e+09
   5281000   4.6575287e-11  3471965.5      102633.24      1.1303393e+09  7.2635598e-05  5.1704849e-07  7.2118549e-05  2.8590055e+09
   5282000   4.6584107e-11  3471954.7      102633.92      1.1303354e+09  7.2635597e-05  5.1727184e-07  7.2118325e-05  2.8590023e+09
   5283000   4.6592926e-11  3471954.6      102632.63      1.1303358e+09  7.26356e-05    5.1727621e-07  7.2118324e-05  2.8590034e+09
   5284000   4.6601745e-11  3471948        102632.1       1.1303338e+09  7.2635603e-05  5.1741544e-07  7.2118187e-05  2.8590011e+09
   5285000   4.6610565e-11  3471959.2      102633.96      1.1303369e+09  7.2635606e-05  5.1718677e-07  7.2118419e-05  2.8590055e+09
   5286000   4.6619384e-11  3471951.9      102630.83      1.1303355e+09  7.263561e-05   5.1734222e-07  7.2118268e-05  2.8590031e+09
   5287000   4.6628204e-11  3471951.6      102630.48      1.1303355e+09  7.2635604e-05  5.1734386e-07  7.211826e-05   2.8590026e+09
   5288000   4.6637023e-11  3471956.1      102630.6       1.130337e+09   7.2635602e-05  5.1724723e-07  7.2118355e-05  2.8590034e+09
   5289000   4.6645842e-11  3471957.9      102632.38      1.130337e+09   7.2635597e-05  5.1720577e-07  7.2118391e-05  2.8590027e+09
   5290000   4.6654662e-11  3471960.1      102633.08      1.1303375e+09  7.2635599e-05  5.1716136e-07  7.2118438e-05  2.8590034e+09
   5291000   4.6663481e-11  3471961.9      102636.23      1.1303371e+09  7.2635591e-05  5.1711615e-07  7.2118475e-05  2.8590039e+09
   5292000   4.6672301e-11  3471963.5      102642.32      1.1303356e+09  7.2635592e-05  5.1708394e-07  7.2118508e-05  2.8590054e+09
   5293000   4.668112e-11   3471964.3      102641         1.1303363e+09  7.2635594e-05  5.1706899e-07  7.2118525e-05  2.8590053e+09
   5294000   4.6689939e-11  3471966.3      102638.31      1.1303378e+09  7.2635601e-05  5.1703524e-07  7.2118566e-05  2.8590057e+09
   5295000   4.6698759e-11  3471964.6      102644.16      1.1303353e+09  7.2635601e-05  5.170707e-07   7.2118531e-05  2.8590054e+09
   5296000   4.6707578e-11  3471960.3      102640.51      1.1303351e+09  7.2635598e-05  5.1715533e-07  7.2118443e-05  2.8590044e+09
   5297000   4.6716398e-11  3471959.7      102639.5       1.1303353e+09  7.2635592e-05  5.1716251e-07  7.211843e-05   2.8590042e+09
   5298000   4.6725217e-11  3471958.4      102638.08      1.1303353e+09  7.2635596e-05  5.1719262e-07  7.2118404e-05  2.8590046e+09
   5299000   4.6734036e-11  3471956.1      102632.21      1.1303365e+09  7.2635599e-05  5.1724381e-07  7.2118355e-05  2.8590032e+09
   5300000   4.6742856e-11  3471951.8      102626.71      1.1303369e+09  7.2635598e-05  5.1733332e-07  7.2118265e-05  2.8590011e+09
   5301000   4.6751675e-11  3471940.6      102620.52      1.1303352e+09  7.2635597e-05  5.1756429e-07  7.2118033e-05  2.8589969e+09
   5302000   4.6760495e-11  3471936.8      102618.96      1.1303344e+09  7.2635586e-05  5.1763232e-07  7.2117954e-05  2.8589947e+09
   5303000   4.6769314e-11  3471939.5      102622.87      1.130334e+09   7.2635594e-05  5.1758331e-07  7.2118011e-05  2.8589967e+09
   5304000   4.6778133e-11  3471950.1      102624.59      1.130337e+09   7.2635602e-05  5.1737235e-07  7.2118229e-05  2.8590014e+09
   5305000   4.6786953e-11  3471949        102629.23      1.1303351e+09  7.2635593e-05  5.1738539e-07  7.2118208e-05  2.8590011e+09
   5306000   4.6795772e-11  3471938.7      102627.19      1.1303323e+09  7.2635594e-05  5.1760092e-07  7.2117993e-05  2.8589979e+09
   5307000   4.6804592e-11  3471942.5      102625.36      1.1303342e+09  7.2635591e-05  5.1751984e-07  7.2118072e-05  2.8589991e+09
   5308000   4.6813411e-11  3471948.3      102628.07      1.1303352e+09  7.2635594e-05  5.1740131e-07  7.2118193e-05  2.8590021e+09
   5309000   4.682223e-11   3471939.2      102629.22      1.1303318e+09  7.2635591e-05  5.1758677e-07  7.2118004e-05  2.8589985e+09
   5310000   4.683105e-11   3471948.2      102627.14      1.1303355e+09  7.2635578e-05  5.1738664e-07  7.2118191e-05  2.859e+09    
   5311000   4.6839869e-11  3471951.3      102628.99      1.1303359e+09  7.2635575e-05  5.1731996e-07  7.2118255e-05  2.8589999e+09
   5312000   4.6848689e-11  3471948.8      102628.82      1.1303352e+09  7.2635559e-05  5.1735586e-07  7.2118203e-05  2.8589972e+09
   5313000   4.6857508e-11  3471948.8      102627.58      1.1303356e+09  7.2635562e-05  5.1735918e-07  7.2118203e-05  2.8589972e+09
   5314000   4.6866328e-11  3471949.8      102628.02      1.1303358e+09  7.2635568e-05  5.1734511e-07  7.2118223e-05  2.8589984e+09
   5315000   4.6875147e-11  3471937.5      102627.93      1.1303317e+09  7.2635576e-05  5.1760684e-07  7.2117969e-05  2.8589954e+09
   5316000   4.6883966e-11  3471935.4      102629.52      1.1303304e+09  7.2635581e-05  5.1765648e-07  7.2117924e-05  2.8589957e+09
   5317000   4.6892786e-11  3471939.1      102629.48      1.1303317e+09  7.2635579e-05  5.1757598e-07  7.2118003e-05  2.8589969e+09
   5318000   4.6901605e-11  3471940.4      102631.14      1.1303316e+09  7.2635591e-05  5.1756312e-07  7.2118028e-05  2.8589977e+09
   5319000   4.6910425e-11  3471943.4      102629.5       1.1303331e+09  7.2635596e-05  5.1750636e-07  7.211809e-05   2.8589991e+09
   5320000   4.6919244e-11  3471949.3      102637.44      1.1303324e+09  7.2635598e-05  5.1738467e-07  7.2118213e-05  2.859002e+09 
   5321000   4.6928063e-11  3471944.2      102634.88      1.1303316e+09  7.2635595e-05  5.1748747e-07  7.2118107e-05  2.859e+09    
   5322000   4.6936883e-11  3471935.7      102636.24      1.1303283e+09  7.2635585e-05  5.1765473e-07  7.2117931e-05  2.858996e+09 
   5323000   4.6945702e-11  3471947.2      102638.93      1.1303312e+09  7.2635585e-05  5.1741578e-07  7.211817e-05   2.8589999e+09
   5324000   4.6954522e-11  3471950.5      102641.97      1.1303313e+09  7.2635585e-05  5.1734663e-07  7.2118238e-05  2.8590006e+09
   5325000   4.6963341e-11  3471955        102641.81      1.1303329e+09  7.263559e-05   5.1725845e-07  7.2118331e-05  2.8590021e+09
   5326000   4.697216e-11   3471950.1      102640.57      1.1303317e+09  7.2635583e-05  5.173519e-07   7.2118231e-05  2.8589994e+09
   5327000   4.698098e-11   3471954.5      102646.4       1.1303312e+09  7.2635582e-05  5.1726153e-07  7.2118321e-05  2.8590013e+09
   5328000   4.6989799e-11  3471951.2      102648.34      1.1303294e+09  7.2635579e-05  5.1732567e-07  7.2118253e-05  2.8590002e+09
   5329000   4.6998619e-11  3471966        102652.66      1.130333e+09   7.2635584e-05  5.1702313e-07  7.2118561e-05  2.8590063e+09
   5330000   4.7007438e-11  3471958.7      102655.18      1.1303297e+09  7.2635588e-05  5.171788e-07   7.211841e-05   2.8590046e+09
   5331000   4.7016257e-11  3471960.6      102653.05      1.130331e+09   7.2635597e-05  5.17149e-07    7.2118448e-05  2.8590058e+09
   5332000   4.7025077e-11  3471959.4      102646.3       1.1303329e+09  7.2635594e-05  5.1717066e-07  7.2118424e-05  2.8590042e+09
   5333000   4.7033896e-11  3471948.4      102641.1       1.1303309e+09  7.2635599e-05  5.1740387e-07  7.2118195e-05  2.8589998e+09
   5334000   4.7042716e-11  3471953.9      102640.38      1.130333e+09   7.2635593e-05  5.1728488e-07  7.2118308e-05  2.8590011e+09
   5335000   4.7051535e-11  3471949.2      102640.81      1.1303313e+09  7.2635595e-05  5.1738509e-07  7.211821e-05   2.8589991e+09
   5336000   4.7060354e-11  3471956.8      102646.38      1.130332e+09   7.2635588e-05  5.1721948e-07  7.2118369e-05  2.8590014e+09
   5337000   4.7069174e-11  3471958        102648.14      1.1303318e+09  7.2635592e-05  5.1719745e-07  7.2118395e-05  2.8590024e+09
   5338000   4.7077993e-11  3471949        102647.26      1.1303291e+09  7.2635593e-05  5.1738626e-07  7.2118207e-05  2.8589994e+09
   5339000   4.7086813e-11  3471947.9      102646.86      1.1303288e+09  7.2635597e-05  5.1741184e-07  7.2118185e-05  2.8589994e+09
   5340000   4.7095632e-11  3471945.4      102644.73      1.1303287e+09  7.26356e-05    5.1746713e-07  7.2118132e-05  2.8589989e+09
   5341000   4.7104451e-11  3471945.3      102643.48      1.1303291e+09  7.26356e-05    5.1747034e-07  7.211813e-05   2.8589991e+09
   5342000   4.7113271e-11  3471945.6      102642.78      1.1303294e+09  7.2635603e-05  5.1746602e-07  7.2118137e-05  2.8589993e+09
   5343000   4.712209e-11   3471946.8      102641.62      1.1303302e+09  7.2635605e-05  5.1744312e-07  7.2118162e-05  2.8589999e+09
   5344000   4.713091e-11   3471945.3      102646.43      1.1303281e+09  7.26356e-05    5.174698e-07   7.2118131e-05  2.8589995e+09
   5345000   4.7139729e-11  3471946.1      102643.34      1.1303294e+09  7.2635599e-05  5.1745115e-07  7.2118148e-05  2.8589993e+09
   5346000   4.7148549e-11  3471956.6      102647.31      1.1303316e+09  7.2635602e-05  5.1723797e-07  7.2118364e-05  2.8590028e+09
   5347000   4.7157368e-11  3471959.5      102651.39      1.1303312e+09  7.2635604e-05  5.1717818e-07  7.2118426e-05  2.8590041e+09
   5348000   4.7166187e-11  3471954.1      102650.51      1.1303297e+09  7.2635599e-05  5.1728523e-07  7.2118313e-05  2.8590017e+09
   5349000   4.7175007e-11  3471951.8      102644.16      1.1303311e+09  7.2635601e-05  5.1733444e-07  7.2118266e-05  2.8590006e+09
   5350000   4.7183826e-11  3471946.4      102643.71      1.1303294e+09  7.2635599e-05  5.1744671e-07  7.2118152e-05  2.8589983e+09
   5351000   4.7192646e-11  3471942.4      102641.03      1.1303289e+09  7.26356e-05    5.1752957e-07  7.211807e-05   2.858997e+09 
   5352000   4.7201465e-11  3471944.7      102643.17      1.130329e+09   7.2635601e-05  5.174842e-07   7.2118117e-05  2.858998e+09 
   5353000   4.7210284e-11  3471951.4      102648.05      1.1303296e+09  7.2635602e-05  5.1734545e-07  7.2118256e-05  2.8590002e+09
   5354000   4.7219104e-11  3471955        102652.54      1.1303293e+09  7.2635599e-05  5.1726664e-07  7.2118332e-05  2.859002e+09 
   5355000   4.7227923e-11  3471947.8      102655.99      1.1303258e+09  7.2635595e-05  5.1741191e-07  7.2118183e-05  2.8589997e+09
   5356000   4.7236743e-11  3471944.7      102654.82      1.1303251e+09  7.2635606e-05  5.1748782e-07  7.2118118e-05  2.858999e+09 
   5357000   4.7245562e-11  3471958.7      102660.27      1.130328e+09   7.2635604e-05  5.1719413e-07  7.2118409e-05  2.8590038e+09
   5358000   4.7254381e-11  3471952.9      102659.93      1.1303261e+09  7.2635599e-05  5.1731031e-07  7.2118289e-05  2.8590013e+09
   5359000   4.7263201e-11  3471942.9      102653.29      1.130325e+09   7.2635596e-05  5.1751472e-07  7.2118081e-05  2.8589966e+09
   5360000   4.727202e-11   3471951.4      102652.34      1.1303282e+09  7.2635595e-05  5.1733824e-07  7.2118257e-05  2.8589985e+09
   5361000   4.728084e-11   3471958.1      102652.88      1.1303302e+09  7.2635597e-05  5.1720094e-07  7.2118396e-05  2.8590005e+09
   5362000   4.7289659e-11  3471953.2      102655.04      1.1303279e+09  7.2635595e-05  5.1730149e-07  7.2118293e-05  2.8589986e+09
   5363000   4.7298478e-11  3471957.1      102656.42      1.1303287e+09  7.2635604e-05  5.1722832e-07  7.2118376e-05  2.8590015e+09
   5364000   4.7307298e-11  3471956.9      102656.48      1.1303286e+09  7.2635604e-05  5.1723285e-07  7.2118371e-05  2.8590023e+09
   5365000   4.7316117e-11  3471953.7      102654.56      1.1303282e+09  7.2635594e-05  5.1728963e-07  7.2118305e-05  2.8590006e+09
   5366000   4.7324937e-11  3471957.1      102655.37      1.1303291e+09  7.2635603e-05  5.1722772e-07  7.2118375e-05  2.8590016e+09
   5367000   4.7333756e-11  3471961        102657.82      1.1303295e+09  7.2635598e-05  5.1714203e-07  7.2118456e-05  2.8590019e+09
   5368000   4.7342575e-11  3471960.5      102657.41      1.1303295e+09  7.2635591e-05  5.1714511e-07  7.2118446e-05  2.8590015e+09
   5369000   4.7351395e-11  3471957.4      102657.64      1.1303284e+09  7.2635582e-05  5.1719987e-07  7.2118382e-05  2.8590003e+09
   5370000   4.7360214e-11  3471953.8      102659.33      1.1303266e+09  7.263558e-05   5.1727401e-07  7.2118306e-05  2.8589988e+09
   5371000   4.7369034e-11  3471953.6      102656.71      1.1303274e+09  7.2635588e-05  5.1728613e-07  7.2118302e-05  2.8589994e+09
   5372000   4.7377853e-11  3471952.6      102651.57      1.1303288e+09  7.2635581e-05  5.1729907e-07  7.2118282e-05  2.8589982e+09
   5373000   4.7386673e-11  3471946.9      102646.86      1.1303285e+09  7.2635582e-05  5.1741737e-07  7.2118164e-05  2.858996e+09 
   5374000   4.7395492e-11  3471939.9      102645.17      1.1303267e+09  7.263559e-05   5.1757159e-07  7.2118019e-05  2.8589945e+09
   5375000   4.7404311e-11  3471942.6      102647.47      1.1303268e+09  7.2635585e-05  5.1751096e-07  7.2118074e-05  2.8589953e+09
   5376000   4.7413131e-11  3471947.6      102648.05      1.1303283e+09  7.2635587e-05  5.1740854e-07  7.2118179e-05  2.8589973e+09
   5377000   4.742195e-11   3471941.4      102646.22      1.1303269e+09  7.2635583e-05  5.1753364e-07  7.2118049e-05  2.8589947e+09
   5378000   4.743077e-11   3471944        102648.66      1.1303269e+09  7.2635575e-05  5.1747098e-07  7.2118104e-05  2.8589958e+09
   5379000   4.7439589e-11  3471939.8      102642.98      1.1303274e+09  7.2635577e-05  5.1756028e-07  7.2118016e-05  2.8589951e+09
   5380000   4.7448408e-11  3471948.9      102647.1       1.1303291e+09  7.2635576e-05  5.1737038e-07  7.2118206e-05  2.8589986e+09
   5381000   4.7457228e-11  3471940.9      102645.66      1.1303269e+09  7.2635581e-05  5.1754146e-07  7.2118039e-05  2.858996e+09 
   5382000   4.7466047e-11  3471938.1      102642.9       1.1303269e+09  7.2635576e-05  5.1759495e-07  7.2117981e-05  2.8589944e+09
   5383000   4.7474867e-11  3471938.6      102639.43      1.1303282e+09  7.263557e-05   5.1757831e-07  7.2117992e-05  2.8589938e+09
   5384000   4.7483686e-11  3471942.9      102643.57      1.1303282e+09  7.2635565e-05  5.1748498e-07  7.211808e-05   2.858995e+09 
   5385000   4.7492505e-11  3471941.8      102645.62      1.1303272e+09  7.2635567e-05  5.1751005e-07  7.2118057e-05  2.858995e+09 
   5386000   4.7501325e-11  3471947.1      102646.04      1.1303288e+09  7.2635575e-05  5.1740659e-07  7.2118169e-05  2.8589979e+09
   5387000   4.7510144e-11  3471940.8      102645.46      1.1303269e+09  7.2635569e-05  5.1753275e-07  7.2118036e-05  2.8589953e+09
   5388000   4.7518964e-11  3471940.9      102647.23      1.1303263e+09  7.2635576e-05  5.1753779e-07  7.2118038e-05  2.8589961e+09
   5389000   4.7527783e-11  3471940.8      102644.17      1.1303273e+09  7.2635578e-05  5.1754056e-07  7.2118037e-05  2.8589964e+09
   5390000   4.7536602e-11  3471938.8      102641.25      1.1303277e+09  7.2635584e-05  5.1758844e-07  7.2117996e-05  2.8589968e+09
   5391000   4.7545422e-11  3471929.3      102638.87      1.1303253e+09  7.2635576e-05  5.1777723e-07  7.2117799e-05  2.858993e+09 
   5392000   4.7554241e-11  3471931.6      102636.65      1.1303268e+09  7.2635569e-05  5.1772391e-07  7.2117845e-05  2.8589925e+09
   5393000   4.7563061e-11  3471940.1      102636.42      1.1303297e+09  7.2635569e-05  5.1754747e-07  7.2118022e-05  2.8589947e+09
   5394000   4.757188e-11   3471937.3      102638.4       1.1303281e+09  7.2635569e-05  5.1760482e-07  7.2117964e-05  2.8589935e+09
   5395000   4.7580699e-11  3471933.4      102638.36      1.1303268e+09  7.2635574e-05  5.1769104e-07  7.2117883e-05  2.8589936e+09
   5396000   4.7589519e-11  3471929.9      102639.62      1.1303252e+09  7.2635581e-05  5.1777078e-07  7.211781e-05   2.858994e+09 
   5397000   4.7598338e-11  3471926.3      102641.96      1.1303232e+09  7.2635584e-05  5.1784879e-07  7.2117736e-05  2.8589937e+09
   5398000   4.7607158e-11  3471930        102640.48      1.1303249e+09  7.2635586e-05  5.1777384e-07  7.2117812e-05  2.858995e+09 
   5399000   4.7615977e-11  3471939.6      102643.64      1.1303271e+09  7.2635588e-05  5.1757535e-07  7.2118012e-05  2.8589981e+09
   5400000   4.7624796e-11  3471936        102645.12      1.1303254e+09  7.2635592e-05  5.1765443e-07  7.2117937e-05  2.8589977e+09
   5401000   4.7633616e-11  3471935.3      102647.05      1.1303245e+09  7.2635598e-05  5.1767563e-07  7.2117922e-05  2.8589988e+09
   5402000   4.7642435e-11  3471933.7      102645.73      1.1303244e+09  7.2635597e-05  5.1770681e-07  7.211789e-05   2.8589983e+09
   5403000   4.7651255e-11  3471935.2      102647.75      1.1303243e+09  7.2635601e-05  5.1768023e-07  7.211792e-05   2.8589991e+09
   5404000   4.7660074e-11  3471933.6      102649.02      1.1303233e+09  7.2635599e-05  5.1771199e-07  7.2117887e-05  2.8589977e+09
   5405000   4.7668894e-11  3471946        102650.68      1.1303269e+09  7.2635597e-05  5.1745191e-07  7.2118145e-05  2.8590013e+09
   5406000   4.7677713e-11  3471943.9      102650.09      1.1303264e+09  7.2635604e-05  5.1750153e-07  7.2118102e-05  2.8590011e+09
   5407000   4.7686532e-11  3471943.8      102651.53      1.1303259e+09  7.2635605e-05  5.175065e-07   7.2118099e-05  2.859002e+09 
   5408000   4.7695352e-11  3471942.4      102656.01      1.1303239e+09  7.2635603e-05  5.1753241e-07  7.211807e-05   2.8590015e+09
   5409000   4.7704171e-11  3471945.6      102655.83      1.1303251e+09  7.2635613e-05  5.1747531e-07  7.2118138e-05  2.8590037e+09
   5410000   4.7712991e-11  3471945.5      102654.43      1.1303255e+09  7.2635609e-05  5.1747482e-07  7.2118134e-05  2.8590032e+09
   5411000   4.772181e-11   3471938.5      102653.98      1.1303233e+09  7.2635611e-05  5.176218e-07   7.2117989e-05  2.8590005e+09
   5412000   4.7730629e-11  3471943.4      102657.18      1.1303239e+09  7.2635602e-05  5.1751062e-07  7.2118092e-05  2.8590013e+09
   5413000   4.7739449e-11  3471938.7      102655.4       1.1303229e+09  7.2635609e-05  5.1761646e-07  7.2117992e-05  2.8590004e+09
   5414000   4.7748268e-11  3471932.2      102650.5       1.1303223e+09  7.2635613e-05  5.1775563e-07  7.2117858e-05  2.8589987e+09
   5415000   4.7757088e-11  3471935.4      102653.67      1.1303223e+09  7.2635613e-05  5.1768866e-07  7.2117924e-05  2.8589999e+09
   5416000   4.7765907e-11  3471936.1      102655.57      1.130322e+09   7.2635613e-05  5.176737e-07   7.2117939e-05  2.8590007e+09
   5417000   4.7774726e-11  3471935        102656.43      1.1303213e+09  7.2635623e-05  5.1770617e-07  7.2117917e-05  2.8590013e+09
   5418000   4.7783546e-11  3471939.2      102660.91      1.1303212e+09  7.2635622e-05  5.1761794e-07  7.2118005e-05  2.8590033e+09
   5419000   4.7792365e-11  3471936.1      102658.98      1.1303208e+09  7.2635612e-05  5.1767225e-07  7.211794e-05   2.8590012e+09
   5420000   4.7801185e-11  3471929        102660.05      1.1303181e+09  7.2635611e-05  5.1781823e-07  7.2117793e-05  2.8589978e+09
   5421000   4.7810004e-11  3471930.5      102654.23      1.1303205e+09  7.2635616e-05  5.1779314e-07  7.2117823e-05  2.8589981e+09
   5422000   4.7818823e-11  3471934.1      102651.55      1.1303226e+09  7.2635608e-05  5.177089e-07   7.2117899e-05  2.8589984e+09
   5423000   4.7827643e-11  3471924.4      102647.98      1.1303206e+09  7.2635604e-05  5.1790786e-07  7.2117696e-05  2.8589943e+09
   5424000   4.7836462e-11  3471925.4      102648.07      1.1303209e+09  7.2635598e-05  5.178807e-07   7.2117717e-05  2.8589942e+09
   5425000   4.7845282e-11  3471932.6      102645.63      1.1303241e+09  7.2635593e-05  5.1772544e-07  7.2117867e-05  2.8589965e+09
   5426000   4.7854101e-11  3471928.2      102647.2       1.1303221e+09  7.2635596e-05  5.1782052e-07  7.2117775e-05  2.8589955e+09
   5427000   4.786292e-11   3471925.5      102649.71      1.1303204e+09  7.263559e-05   5.1787007e-07  7.211772e-05   2.8589949e+09
   5428000   4.787174e-11   3471926        102647.27      1.1303214e+09  7.2635599e-05  5.1786826e-07  7.211773e-05   2.8589958e+09
   5429000   4.7880559e-11  3471916.8      102643.98      1.1303193e+09  7.2635602e-05  5.1806421e-07  7.2117537e-05  2.8589922e+09
   5430000   4.7889379e-11  3471921        102643.44      1.1303209e+09  7.2635597e-05  5.1797187e-07  7.2117626e-05  2.8589928e+09
   5431000   4.7898198e-11  3471927.4      102644.67      1.1303227e+09  7.2635592e-05  5.1783298e-07  7.2117759e-05  2.8589942e+09
   5432000   4.7907018e-11  3471921.8      102647.85      1.1303198e+09  7.2635599e-05  5.1795606e-07  7.2117643e-05  2.8589923e+09
   5433000   4.7915837e-11  3471928.2      102650.35      1.1303211e+09  7.2635595e-05  5.178203e-07   7.2117775e-05  2.8589948e+09
   5434000   4.7924656e-11  3471920.6      102650.25      1.1303185e+09  7.2635604e-05  5.1798658e-07  7.2117617e-05  2.8589939e+09
   5435000   4.7933476e-11  3471916.2      102651.52      1.1303166e+09  7.2635615e-05  5.180888e-07   7.2117527e-05  2.8589943e+09
   5436000   4.7942295e-11  3471919.1      102655.26      1.1303163e+09  7.2635617e-05  5.180315e-07   7.2117585e-05  2.858996e+09 
   5437000   4.7951115e-11  3471919.3      102656.05      1.1303162e+09  7.2635616e-05  5.1802591e-07  7.211759e-05   2.8589958e+09
   5438000   4.7959934e-11  3471926.5      102661.3       1.1303168e+09  7.2635608e-05  5.1786882e-07  7.211774e-05   2.8589973e+09
   5439000   4.7968753e-11  3471931        102660.83      1.1303185e+09  7.2635604e-05  5.1777126e-07  7.2117833e-05  2.8589977e+09
   5440000   4.7977573e-11  3471930.8      102660.81      1.1303184e+09  7.26356e-05    5.1777017e-07  7.2117829e-05  2.8589969e+09
   5441000   4.7986392e-11  3471935.8      102665.64      1.1303185e+09  7.2635606e-05  5.176732e-07   7.2117933e-05  2.8589995e+09
   5442000   4.7995212e-11  3471933.3      102663.23      1.1303185e+09  7.263561e-05   5.177278e-07   7.2117882e-05  2.8589988e+09
   5443000   4.8004031e-11  3471923.9      102662.84      1.1303154e+09  7.2635606e-05  5.179196e-07   7.2117687e-05  2.8589945e+09
   5444000   4.801285e-11   3471929.6      102665.88      1.1303163e+09  7.26356e-05    5.1779612e-07  7.2117804e-05  2.8589958e+09
   5445000   4.802167e-11   3471928        102666.35      1.1303156e+09  7.2635603e-05  5.1783188e-07  7.2117771e-05  2.8589959e+09
   5446000   4.8030489e-11  3471940.4      102670.62      1.1303184e+09  7.2635596e-05  5.1756773e-07  7.2118028e-05  2.8590001e+09
   5447000   4.8039309e-11  3471939.3      102673.59      1.130317e+09   7.2635596e-05  5.1759115e-07  7.2118005e-05  2.8589992e+09
   5448000   4.8048128e-11  3471945.4      102679.58      1.130317e+09   7.2635598e-05  5.1746544e-07  7.2118132e-05  2.8590006e+09
   5449000   4.8056947e-11  3471952.6      102681.8       1.1303187e+09  7.2635595e-05  5.1731245e-07  7.2118283e-05  2.8590031e+09
   5450000   4.8065767e-11  3471943.8      102682.88      1.1303154e+09  7.2635591e-05  5.1749116e-07  7.21181e-05    2.8589997e+09
   5451000   4.8074586e-11  3471943.6      102681.74      1.1303157e+09  7.2635593e-05  5.1749841e-07  7.2118094e-05  2.8589996e+09
   5452000   4.8083406e-11  3471952.3      102686.86      1.1303169e+09  7.2635599e-05  5.1732417e-07  7.2118275e-05  2.8590033e+09
   5453000   4.8092225e-11  3471953.4      102694.62      1.1303147e+09  7.2635584e-05  5.1728588e-07  7.2118298e-05  2.8590025e+09
   5454000   4.8101044e-11  3471962.5      102696.46      1.1303171e+09  7.2635585e-05  5.1709771e-07  7.2118487e-05  2.8590056e+09
   5455000   4.8109864e-11  3471952.1      102687.94      1.1303165e+09  7.2635592e-05  5.1732128e-07  7.2118271e-05  2.8590015e+09
   5456000   4.8118683e-11  3471952.1      102689.99      1.1303158e+09  7.26356e-05    5.1732929e-07  7.2118271e-05  2.8590021e+09
   5457000   4.8127503e-11  3471958.5      102695.04      1.1303163e+09  7.26356e-05    5.1719634e-07  7.2118404e-05  2.8590049e+09
   5458000   4.8136322e-11  3471958.3      102694.19      1.1303165e+09  7.26356e-05    5.1719943e-07  7.2118401e-05  2.8590052e+09
   5459000   4.8145141e-11  3471947.7      102688.81      1.1303147e+09  7.2635599e-05  5.1741822e-07  7.2118181e-05  2.8590013e+09
   5460000   4.8153961e-11  3471952.9      102694.71      1.1303145e+09  7.2635597e-05  5.1730936e-07  7.2118288e-05  2.8590038e+09
   5461000   4.816278e-11   3471950.6      102696.01      1.1303133e+09  7.2635587e-05  5.173467e-07   7.211824e-05   2.8590019e+09
   5462000   4.81716e-11    3471957.4      102697.42      1.1303151e+09  7.2635586e-05  5.1720344e-07  7.2118383e-05  2.859004e+09 
   5463000   4.8180419e-11  3471952.7      102695.73      1.1303141e+09  7.26356e-05    5.1731676e-07  7.2118283e-05  2.8590031e+09
   5464000   4.8189239e-11  3471952.2      102693.82      1.1303146e+09  7.2635597e-05  5.1732267e-07  7.2118274e-05  2.859003e+09 
   5465000   4.8198058e-11  3471947.6      102692.1       1.1303136e+09  7.2635603e-05  5.1742436e-07  7.2118179e-05  2.8590021e+09
   5466000   4.8206877e-11  3471952.4      102693.53      1.1303147e+09  7.2635603e-05  5.1732555e-07  7.2118277e-05  2.8590032e+09
   5467000   4.8215697e-11  3471954.8      102693.79      1.1303154e+09  7.2635609e-05  5.1728217e-07  7.2118327e-05  2.8590043e+09
   5468000   4.8224516e-11  3471950.7      102691.96      1.1303147e+09  7.2635608e-05  5.1736523e-07  7.2118243e-05  2.8590035e+09
   5469000   4.8233336e-11  3471938.8      102687.43      1.1303122e+09  7.2635592e-05  5.1759799e-07  7.2117994e-05  2.8589986e+09
   5470000   4.8242155e-11  3471940.3      102684.57      1.1303137e+09  7.2635593e-05  5.1756525e-07  7.2118028e-05  2.8589995e+09
   5471000   4.8250974e-11  3471936.4      102684.31      1.1303124e+09  7.263559e-05   5.1764403e-07  7.2117946e-05  2.8589972e+09
   5472000   4.8259794e-11  3471948.1      102683.03      1.1303168e+09  7.2635581e-05  5.1739262e-07  7.2118189e-05  2.8589998e+09
   5473000   4.8268613e-11  3471944.1      102684.14      1.1303151e+09  7.2635579e-05  5.1747352e-07  7.2118106e-05  2.8589982e+09
   5474000   4.8277433e-11  3471949.5      102687.8       1.1303157e+09  7.2635586e-05  5.1736911e-07  7.2118217e-05  2.8590014e+09
   5475000   4.8286252e-11  3471943.6      102691.48      1.1303125e+09  7.2635591e-05  5.1749512e-07  7.2118096e-05  2.8590002e+09
   5476000   4.8295071e-11  3471946.5      102693.46      1.1303128e+09  7.263559e-05   5.17434e-07    7.2118156e-05  2.859001e+09 
   5477000   4.8303891e-11  3471950.4      102695.03      1.1303136e+09  7.2635581e-05  5.1734431e-07  7.2118236e-05  2.8590012e+09
   5478000   4.831271e-11   3471956.5      102693.98      1.130316e+09   7.2635585e-05  5.1722134e-07  7.2118364e-05  2.8590032e+09
   5479000   4.832153e-11   3471948.1      102693.67      1.1303132e+09  7.2635583e-05  5.1739434e-07  7.2118189e-05  2.8589995e+09
   5480000   4.8330349e-11  3471950.3      102692.65      1.1303143e+09  7.2635578e-05  5.1734349e-07  7.2118234e-05  2.8589997e+09
   5481000   4.8339168e-11  3471953.6      102693.54      1.1303151e+09  7.2635578e-05  5.1727573e-07  7.2118302e-05  2.8590001e+09
   5482000   4.8347988e-11  3471953.7      102693.23      1.1303152e+09  7.2635585e-05  5.172813e-07   7.2118304e-05  2.8590004e+09
   5483000   4.8356807e-11  3471947.8      102693.81      1.1303131e+09  7.2635577e-05  5.17394e-07    7.2118183e-05  2.8589981e+09
   5484000   4.8365627e-11  3471949.4      102699.22      1.1303118e+09  7.2635579e-05  5.1736375e-07  7.2118215e-05  2.8589999e+09
   5485000   4.8374446e-11  3471943.5      102696.67      1.1303107e+09  7.2635579e-05  5.1748544e-07  7.2118094e-05  2.8589984e+09
   5486000   4.8383265e-11  3471945.1      102695.12      1.1303117e+09  7.2635582e-05  5.1745652e-07  7.2118125e-05  2.8589988e+09
   5487000   4.8392085e-11  3471947        102692.79      1.1303132e+09  7.2635587e-05  5.1742115e-07  7.2118166e-05  2.8589989e+09
   5488000   4.8400904e-11  3471951.1      102692.13      1.1303148e+09  7.2635582e-05  5.1733104e-07  7.2118251e-05  2.8589992e+09
   5489000   4.8409724e-11  3471940.9      102692.51      1.1303112e+09  7.2635577e-05  5.1753749e-07  7.2118039e-05  2.8589946e+09
   5490000   4.8418543e-11  3471941.2      102692.42      1.1303113e+09  7.2635572e-05  5.1752745e-07  7.2118044e-05  2.8589948e+09
   5491000   4.8427363e-11  3471942        102689.84      1.1303125e+09  7.263557e-05   5.175075e-07   7.2118062e-05  2.8589946e+09
   5492000   4.8436182e-11  3471950.5      102694.53      1.1303138e+09  7.2635578e-05  5.1733908e-07  7.2118238e-05  2.8589985e+09
   5493000   4.8445001e-11  3471949.8      102697.61      1.1303125e+09  7.2635584e-05  5.1736091e-07  7.2118223e-05  2.8589992e+09
   5494000   4.8453821e-11  3471951        102697.96      1.1303128e+09  7.263559e-05   5.173402e-07   7.211825e-05   2.8590004e+09
   5495000   4.846264e-11   3471948.4      102694.52      1.1303131e+09  7.2635591e-05  5.1739553e-07  7.2118195e-05  2.8589992e+09
   5496000   4.847146e-11   3471951.8      102698.41      1.1303129e+09  7.263559e-05   5.1732533e-07  7.2118265e-05  2.8590007e+09
   5497000   4.8480279e-11  3471951.8      102699.04      1.1303127e+09  7.2635589e-05  5.1732302e-07  7.2118266e-05  2.8590004e+09
   5498000   4.8489098e-11  3471952.8      102696.28      1.1303139e+09  7.2635591e-05  5.1730548e-07  7.2118285e-05  2.8590006e+09
   5499000   4.8497918e-11  3471953.3      102699.28      1.1303131e+09  7.2635582e-05  5.1728597e-07  7.2118296e-05  2.8590003e+09
   5500000   4.8506737e-11  3471952.1      102703.97      1.1303111e+09  7.2635584e-05  5.17313e-07    7.2118271e-05  2.8590004e+09
   5501000   4.8515557e-11  3471956.6      102703.08      1.1303129e+09  7.2635591e-05  5.1722648e-07  7.2118365e-05  2.8590032e+09
   5502000   4.8524376e-11  3471955.3      102701.63      1.130313e+09   7.263559e-05   5.1725136e-07  7.2118338e-05  2.8590027e+09
   5503000   4.8533195e-11  3471955.5      102705.07      1.1303119e+09  7.2635582e-05  5.1723958e-07  7.2118343e-05  2.8590017e+09
   5504000   4.8542015e-11  3471955        102705.63      1.1303115e+09  7.2635578e-05  5.1724699e-07  7.2118331e-05  2.8590003e+09
   5505000   4.8550834e-11  3471965.4      102709.57      1.1303137e+09  7.263558e-05   5.1703232e-07  7.2118547e-05  2.8590041e+09
   5506000   4.8559654e-11  3471967.1      102710.62      1.1303139e+09  7.2635586e-05  5.1700222e-07  7.2118583e-05  2.8590058e+09
   5507000   4.8568473e-11  3471960.3      102710.06      1.1303119e+09  7.2635585e-05  5.1714208e-07  7.2118443e-05  2.8590038e+09
   5508000   4.8577292e-11  3471953.3      102705.62      1.130311e+09   7.26356e-05    5.1730383e-07  7.2118296e-05  2.8590032e+09
   5509000   4.8586112e-11  3471946.8      102705.71      1.1303088e+09  7.2635603e-05  5.1744227e-07  7.2118161e-05  2.8590016e+09
   5510000   4.8594931e-11  3471952.3      102705.86      1.1303106e+09  7.2635602e-05  5.1732612e-07  7.2118276e-05  2.8590032e+09
   5511000   4.8603751e-11  3471947.4      102706.66      1.1303086e+09  7.2635598e-05  5.1742549e-07  7.2118173e-05  2.8590011e+09
   5512000   4.861257e-11   3471952.5      102708.09      1.1303099e+09  7.2635584e-05  5.173035e-07   7.2118281e-05  2.8590026e+09
   5513000   4.8621389e-11  3471952.1      102709.88      1.1303092e+09  7.2635586e-05  5.1731395e-07  7.2118272e-05  2.8590023e+09
   5514000   4.8630209e-11  3471954.6      102712.68      1.130309e+09   7.2635583e-05  5.172597e-07   7.2118323e-05  2.8590018e+09
   5515000   4.8639028e-11  3471966.3      102714.12      1.1303125e+09  7.2635586e-05  5.1701963e-07  7.2118567e-05  2.8590052e+09
   5516000   4.8647848e-11  3471965.6      102716.4       1.1303115e+09  7.263558e-05   5.1702802e-07  7.2118551e-05  2.8590041e+09
   5517000   4.8656667e-11  3471965.6      102725.29      1.1303085e+09  7.2635574e-05  5.1702261e-07  7.2118551e-05  2.8590043e+09
   5518000   4.8665486e-11  3471970.8      102724.76      1.1303105e+09  7.2635581e-05  5.1692107e-07  7.211866e-05   2.859007e+09 
   5519000   4.8674306e-11  3471969.8      102721.76      1.1303111e+09  7.2635585e-05  5.1694511e-07  7.211864e-05   2.8590063e+09
   5520000   4.8683125e-11  3471974.6      102724.83      1.1303117e+09  7.263558e-05   5.1684109e-07  7.2118739e-05  2.8590079e+09
   5521000   4.8691945e-11  3471965.9      102727.95      1.1303077e+09  7.2635576e-05  5.1701776e-07  7.2118558e-05  2.8590042e+09
   5522000   4.8700764e-11  3471970.1      102727.74      1.1303092e+09  7.2635575e-05  5.169305e-07   7.2118645e-05  2.8590054e+09
   5523000   4.8709584e-11  3471961.3      102724.04      1.1303075e+09  7.2635572e-05  5.1711073e-07  7.2118462e-05  2.8590018e+09
   5524000   4.8718403e-11  3471955.4      102714.49      1.1303087e+09  7.2635578e-05  5.1723793e-07  7.211834e-05   2.8590005e+09
   5525000   4.8727222e-11  3471957.2      102712.35      1.13031e+09    7.2635579e-05  5.1720063e-07  7.2118378e-05  2.8590017e+09
   5526000   4.8736042e-11  3471954.9      102712.06      1.1303094e+09  7.2635585e-05  5.1725569e-07  7.2118329e-05  2.8590015e+09
   5527000   4.8744861e-11  3471950.8      102708.44      1.1303092e+09  7.2635586e-05  5.1734046e-07  7.2118245e-05  2.8590001e+09
   5528000   4.8753681e-11  3471943.7      102704.11      1.1303083e+09  7.2635585e-05  5.1748885e-07  7.2118096e-05  2.8589975e+09
   5529000   4.87625e-11    3471941.6      102697.45      1.1303098e+09  7.2635586e-05  5.1753269e-07  7.2118054e-05  2.8589963e+09
   5530000   4.8771319e-11  3471946.4      102696.25      1.1303118e+09  7.2635592e-05  5.1743961e-07  7.2118152e-05  2.8589979e+09
   5531000   4.8780139e-11  3471943.6      102695.91      1.130311e+09   7.2635588e-05  5.1749215e-07  7.2118096e-05  2.8589968e+09
   5532000   4.8788958e-11  3471926.4      102689.13      1.1303075e+09  7.2635579e-05  5.1784016e-07  7.2117739e-05  2.8589899e+09
   5533000   4.8797778e-11  3471933.5      102687.02      1.1303106e+09  7.2635577e-05  5.176921e-07   7.2117885e-05  2.8589924e+09
   5534000   4.8806597e-11  3471929.6      102690.3       1.1303081e+09  7.2635576e-05  5.1777281e-07  7.2117804e-05  2.8589909e+09
   5535000   4.8815416e-11  3471933.9      102694.38      1.1303082e+09  7.2635577e-05  5.1768355e-07  7.2117894e-05  2.8589928e+09
   5536000   4.8824236e-11  3471943.6      102698.09      1.1303103e+09  7.2635577e-05  5.1748174e-07  7.2118095e-05  2.8589963e+09
   5537000   4.8833055e-11  3471944.1      102696.33      1.130311e+09   7.2635578e-05  5.1747221e-07  7.2118106e-05  2.8589961e+09
   5538000   4.8841875e-11  3471943        102692.63      1.1303119e+09  7.2635572e-05  5.1748874e-07  7.2118083e-05  2.8589944e+09
   5539000   4.8850694e-11  3471933.4      102690.66      1.1303093e+09  7.263557e-05   5.1768627e-07  7.2117884e-05  2.8589911e+09
   5540000   4.8859513e-11  3471932.2      102694.26      1.1303077e+09  7.2635574e-05  5.1771688e-07  7.2117857e-05  2.8589919e+09
   5541000   4.8868333e-11  3471929.1      102692.51      1.1303072e+09  7.2635577e-05  5.1778401e-07  7.2117793e-05  2.8589909e+09
   5542000   4.8877152e-11  3471942.7      102699.24      1.1303096e+09  7.2635575e-05  5.174975e-07   7.2118077e-05  2.858995e+09 
   5543000   4.8885972e-11  3471952.7      102703.54      1.1303115e+09  7.2635575e-05  5.1729159e-07  7.2118283e-05  2.858998e+09 
   5544000   4.8894791e-11  3471956.8      102704.81      1.1303124e+09  7.2635568e-05  5.1719856e-07  7.2118369e-05  2.8589989e+09
   5545000   4.890361e-11   3471950.4      102710.84      1.1303083e+09  7.2635574e-05  5.1733762e-07  7.2118236e-05  2.8589975e+09
   5546000   4.891243e-11   3471956.9      102712.28      1.13031e+09    7.2635582e-05  5.1721036e-07  7.2118371e-05  2.8590012e+09
   5547000   4.8921249e-11  3471954.3      102714.28      1.1303084e+09  7.2635582e-05  5.1726434e-07  7.2118317e-05  2.8590006e+09
   5548000   4.8930069e-11  3471952.4      102715.32      1.1303074e+09  7.2635589e-05  5.1731133e-07  7.2118278e-05  2.8590008e+09
   5549000   4.8938888e-11  3471954.1      102712.27      1.130309e+09   7.2635599e-05  5.1728623e-07  7.2118313e-05  2.8590022e+09
   5550000   4.8947708e-11  3471951.1      102712.78      1.1303079e+09  7.2635599e-05  5.1734826e-07  7.2118251e-05  2.8590017e+09
   5551000   4.8956527e-11  3471953.4      102712.02      1.1303089e+09  7.2635592e-05  5.1729388e-07  7.2118298e-05  2.8590021e+09
   5552000   4.8965346e-11  3471950.1      102711.69      1.1303079e+09  7.2635591e-05  5.1736229e-07  7.2118229e-05  2.8590006e+09
   5553000   4.8974166e-11  3471948.8      102711.47      1.1303075e+09  7.2635589e-05  5.173856e-07   7.2118203e-05  2.8589998e+09
   5554000   4.8982985e-11  3471943.7      102707.43      1.1303072e+09  7.2635583e-05  5.1748582e-07  7.2118097e-05  2.8589973e+09
   5555000   4.8991805e-11  3471944.9      102703.01      1.130309e+09   7.2635585e-05  5.17463e-07    7.2118122e-05  2.8589977e+09
   5556000   4.9000624e-11  3471947.8      102704.15      1.1303096e+09  7.2635582e-05  5.1739979e-07  7.2118182e-05  2.8589979e+09
   5557000   4.9009443e-11  3471946.9      102704.32      1.1303093e+09  7.2635579e-05  5.1741447e-07  7.2118164e-05  2.858998e+09 
   5558000   4.9018263e-11  3471945.1      102703.62      1.1303089e+09  7.2635574e-05  5.174481e-07   7.2118126e-05  2.8589975e+09
   5559000   4.9027082e-11  3471954.7      102708.58      1.1303105e+09  7.2635569e-05  5.1724338e-07  7.2118325e-05  2.859001e+09 
   5560000   4.9035902e-11  3471954.5      102712.77      1.130309e+09   7.2635569e-05  5.1724745e-07  7.2118322e-05  2.8590006e+09
   5561000   4.9044721e-11  3471958.2      102714.63      1.1303096e+09  7.2635578e-05  5.1717944e-07  7.2118399e-05  2.8590016e+09
   5562000   4.905354e-11   3471962.1      102713.12      1.1303114e+09  7.2635585e-05  5.1710482e-07  7.211848e-05   2.859003e+09 
   5563000   4.906236e-11   3471947.8      102712.01      1.130307e+09   7.2635593e-05  5.1741054e-07  7.2118183e-05  2.8589988e+09
   5564000   4.9071179e-11  3471960        102716.53      1.1303096e+09  7.2635591e-05  5.1715674e-07  7.2118435e-05  2.8590048e+09
   5565000   4.9079999e-11  3471953.7      102714.99      1.130308e+09   7.2635603e-05  5.1729814e-07  7.2118305e-05  2.8590037e+09
   5566000   4.9088818e-11  3471952.6      102709.77      1.1303093e+09  7.2635599e-05  5.173178e-07   7.2118281e-05  2.8590029e+09
   5567000   4.9097637e-11  3471950        102707.97      1.1303091e+09  7.2635605e-05  5.1737814e-07  7.2118227e-05  2.8590029e+09
   5568000   4.9106457e-11  3471945.8      102705.73      1.1303084e+09  7.2635607e-05  5.1746682e-07  7.211814e-05   2.8590023e+09
   5569000   4.9115276e-11  3471929.2      102696.49      1.130306e+09   7.2635608e-05  5.1781189e-07  7.2117796e-05  2.8589963e+09
   5570000   4.9124096e-11  3471937.4      102694.48      1.1303094e+09  7.2635609e-05  5.1764292e-07  7.2117967e-05  2.8589987e+09
   5571000   4.9132915e-11  3471935.6      102693.6       1.1303091e+09  7.2635611e-05  5.176815e-07   7.2117929e-05  2.8589975e+09
   5572000   4.9141734e-11  3471938.6      102695.82      1.1303093e+09  7.2635613e-05  5.176225e-07   7.2117991e-05  2.858999e+09 
   5573000   4.9150554e-11  3471934.4      102694.23      1.1303084e+09  7.2635609e-05  5.1770501e-07  7.2117904e-05  2.8589969e+09
   5574000   4.9159373e-11  3471932.1      102690.78      1.1303088e+09  7.2635611e-05  5.1775551e-07  7.2117856e-05  2.8589957e+09
   5575000   4.9168193e-11  3471939.3      102695.96      1.1303095e+09  7.2635611e-05  5.1760496e-07  7.2118006e-05  2.8589987e+09
   5576000   4.9177012e-11  3471939.5      102699.09      1.1303085e+09  7.2635604e-05  5.1759373e-07  7.211801e-05   2.8589987e+09
   5577000   4.9185831e-11  3471938.3      102698.69      1.1303083e+09  7.2635602e-05  5.1761666e-07  7.2117986e-05  2.858998e+09 
   5578000   4.9194651e-11  3471945.3      102704.95      1.1303085e+09  7.2635602e-05  5.1747199e-07  7.211813e-05   2.8590009e+09
   5579000   4.920347e-11   3471942.9      102704.25      1.130308e+09   7.2635607e-05  5.1752652e-07  7.2118081e-05  2.8590008e+09
   5580000   4.921229e-11   3471935.4      102700.82      1.1303066e+09  7.2635613e-05  5.1768867e-07  7.2117924e-05  2.8589987e+09
   5581000   4.9221109e-11  3471939.7      102702.64      1.1303074e+09  7.2635605e-05  5.1759033e-07  7.2118015e-05  2.8589998e+09
   5582000   4.9229929e-11  3471939.7      102700.83      1.130308e+09   7.2635605e-05  5.175916e-07   7.2118014e-05  2.8589992e+09
   5583000   4.9238748e-11  3471942.9      102700.34      1.1303093e+09  7.263561e-05   5.1753018e-07  7.211808e-05   2.8590001e+09
   5584000   4.9247567e-11  3471941.1      102695.32      1.1303103e+09  7.2635603e-05  5.1755969e-07  7.2118043e-05  2.8589987e+09
   5585000   4.9256387e-11  3471936.1      102699.1       1.1303074e+09  7.2635598e-05  5.1765906e-07  7.2117939e-05  2.8589969e+09
   5586000   4.9265206e-11  3471938.2      102701.79      1.1303072e+09  7.2635594e-05  5.176118e-07   7.2117983e-05  2.8589977e+09
   5587000   4.9274026e-11  3471950        102702.01      1.1303111e+09  7.2635598e-05  5.1737058e-07  7.2118227e-05  2.8590019e+09
   5588000   4.9282845e-11  3471950.2      102702.67      1.1303109e+09  7.2635602e-05  5.1736924e-07  7.2118232e-05  2.8590024e+09
   5589000   4.9291664e-11  3471946.6      102705.05      1.1303089e+09  7.2635601e-05  5.1744393e-07  7.2118157e-05  2.8590015e+09
   5590000   4.9300484e-11  3471942.5      102705.35      1.1303074e+09  7.2635595e-05  5.1752307e-07  7.2118072e-05  2.8590002e+09
   5591000   4.9309303e-11  3471942.1      102708.34      1.1303063e+09  7.2635592e-05  5.1752801e-07  7.2118064e-05  2.8590004e+09
   5592000   4.9318123e-11  3471934.9      102707.72      1.1303041e+09  7.2635594e-05  5.1767885e-07  7.2117915e-05  2.8589982e+09
   5593000   4.9326942e-11  3471944.7      102708.25      1.1303072e+09  7.2635603e-05  5.1748407e-07  7.2118119e-05  2.8590022e+09
   5594000   4.9335761e-11  3471935.8      102702.31      1.1303062e+09  7.2635602e-05  5.1766965e-07  7.2117933e-05  2.8589981e+09
   5595000   4.9344581e-11  3471943.8      102700.88      1.1303094e+09  7.2635602e-05  5.1750282e-07  7.2118099e-05  2.8590008e+09
   5596000   4.93534e-11    3471935.8      102697.82      1.1303077e+09  7.2635595e-05  5.1766171e-07  7.2117934e-05  2.8589972e+09
   5597000   4.936222e-11   3471937.5      102701.04      1.1303072e+09  7.2635595e-05  5.1762538e-07  7.2117969e-05  2.858998e+09 
   5598000   4.9371039e-11  3471937.9      102699.74      1.1303078e+09  7.2635599e-05  5.1762187e-07  7.2117977e-05  2.8589985e+09
   5599000   4.9379858e-11  3471926.8      102696.26      1.1303052e+09  7.2635609e-05  5.1786217e-07  7.2117746e-05  2.8589953e+09
   5600000   4.9388678e-11  3471927.3      102694.04      1.1303061e+09  7.2635605e-05  5.1784893e-07  7.2117756e-05  2.8589956e+09
   5601000   4.9397497e-11  3471936.9      102698.95      1.1303077e+09  7.263561e-05   5.1765403e-07  7.2117956e-05  2.8589999e+09
   5602000   4.9406317e-11  3471939.9      102703.06      1.1303073e+09  7.2635613e-05  5.1759593e-07  7.2118018e-05  2.8590014e+09
   5603000   4.9415136e-11  3471937.7      102703.91      1.1303063e+09  7.2635607e-05  5.1763482e-07  7.2117972e-05  2.859e+09    
   5604000   4.9423955e-11  3471934.9      102703.7       1.1303054e+09  7.2635606e-05  5.1769208e-07  7.2117914e-05  2.858999e+09 
   5605000   4.9432775e-11  3471935.7      102705.57      1.1303051e+09  7.2635601e-05  5.1766974e-07  7.2117931e-05  2.8589988e+09
   5606000   4.9441594e-11  3471937.9      102708.83      1.1303047e+09  7.2635601e-05  5.1762413e-07  7.2117977e-05  2.8589988e+09
   5607000   4.9450414e-11  3471937.3      102706.57      1.1303053e+09  7.2635604e-05  5.1764073e-07  7.2117963e-05  2.8589981e+09
   5608000   4.9459233e-11  3471936.6      102703.61      1.130306e+09   7.2635601e-05  5.1765216e-07  7.2117949e-05  2.8589974e+09
   5609000   4.9468053e-11  3471939        102705.71      1.1303062e+09  7.26356e-05    5.1760096e-07  7.2117999e-05  2.8589984e+09
   5610000   4.9476872e-11  3471935.5      102705.88      1.1303049e+09  7.2635599e-05  5.1767222e-07  7.2117927e-05  2.8589972e+09
   5611000   4.9485691e-11  3471935.6      102704.39      1.1303055e+09  7.2635602e-05  5.1767375e-07  7.2117928e-05  2.8589974e+09
   5612000   4.9494511e-11  3471937.2      102709.61      1.1303043e+09  7.26356e-05    5.1763693e-07  7.2117963e-05  2.8589984e+09
   5613000   4.950333e-11   3471937.8      102713.09      1.1303033e+09  7.2635603e-05  5.1762924e-07  7.2117974e-05  2.8590001e+09
   5614000   4.951215e-11   3471935.8      102715.19      1.1303019e+09  7.2635604e-05  5.1767106e-07  7.2117933e-05  2.8589996e+09
   5615000   4.9520969e-11  3471956.6      102723.47      1.1303061e+09  7.2635607e-05  5.1724306e-07  7.2118364e-05  2.859007e+09 
   5616000   4.9529788e-11  3471953        102723.09      1.1303051e+09  7.2635603e-05  5.1731203e-07  7.2118291e-05  2.8590044e+09
   5617000   4.9538608e-11  3471956        102724.39      1.1303056e+09  7.2635604e-05  5.1724986e-07  7.2118354e-05  2.8590042e+09
   5618000   4.9547427e-11  3471960        102729.89      1.1303051e+09  7.2635595e-05  5.1715926e-07  7.2118436e-05  2.8590047e+09
   5619000   4.9556247e-11  3471956.5      102731.02      1.1303036e+09  7.2635576e-05  5.172126e-07   7.2118364e-05  2.8590024e+09
   5620000   4.9565066e-11  3471952.6      102727.43      1.1303034e+09  7.2635591e-05  5.1730993e-07  7.2118281e-05  2.8590022e+09
   5621000   4.9573885e-11  3471962        102733.01      1.1303047e+09  7.2635593e-05  5.1711593e-07  7.2118477e-05  2.8590063e+09
   5622000   4.9582705e-11  3471959        102732.18      1.130304e+09   7.2635595e-05  5.1718066e-07  7.2118414e-05  2.8590059e+09
   5623000   4.9591524e-11  3471955.7      102730.03      1.1303036e+09  7.2635591e-05  5.1724583e-07  7.2118346e-05  2.859005e+09 
   5624000   4.9600344e-11  3471948.7      102725.71      1.1303027e+09  7.2635597e-05  5.1739676e-07  7.2118201e-05  2.8590027e+09
   5625000   4.9609163e-11  3471941        102724.04      1.1303007e+09  7.2635598e-05  5.1755657e-07  7.2118041e-05  2.8589997e+09
   5626000   4.9617982e-11  3471940.9      102722.62      1.1303012e+09  7.2635588e-05  5.1754855e-07  7.211804e-05   2.8589998e+09
   5627000   4.9626802e-11  3471938.1      102719.98      1.1303011e+09  7.263559e-05   5.1760867e-07  7.2117981e-05  2.8589993e+09
   5628000   4.9635621e-11  3471936.7      102720.05      1.1303006e+09  7.2635595e-05  5.1764315e-07  7.2117952e-05  2.8589991e+09
   5629000   4.9644441e-11  3471937.8      102717.73      1.1303017e+09  7.26356e-05    5.1762506e-07  7.2117975e-05  2.8589991e+09
   5630000   4.965326e-11   3471953.9      102720.08      1.1303064e+09  7.2635597e-05  5.1728744e-07  7.211831e-05   2.8590038e+09
   5631000   4.9662079e-11  3471946.3      102718.25      1.1303044e+09  7.2635603e-05  5.1745271e-07  7.211815e-05   2.8590014e+09
   5632000   4.9670899e-11  3471936.6      102715.32      1.1303021e+09  7.2635601e-05  5.1765118e-07  7.211795e-05   2.8589992e+09
   5633000   4.9679718e-11  3471923.7      102709.69      1.1302997e+09  7.2635596e-05  5.1791475e-07  7.2117682e-05  2.8589949e+09
   5634000   4.9688538e-11  3471927.2      102708.74      1.1303012e+09  7.2635593e-05  5.1783767e-07  7.2117755e-05  2.8589957e+09
   5635000   4.9697357e-11  3471936.3      102709.75      1.1303039e+09  7.2635588e-05  5.1764496e-07  7.2117943e-05  2.8589977e+09
   5636000   4.9706176e-11  3471934.9      102709.97      1.1303034e+09  7.2635592e-05  5.1767795e-07  7.2117914e-05  2.8589969e+09
   5637000   4.9714996e-11  3471934.4      102709.02      1.1303035e+09  7.2635585e-05  5.1768098e-07  7.2117904e-05  2.8589964e+09
   5638000   4.9723815e-11  3471928.8      102708.55      1.1303018e+09  7.2635576e-05  5.1778862e-07  7.2117787e-05  2.8589944e+09
   5639000   4.9732635e-11  3471929.5      102708.43      1.1303021e+09  7.2635579e-05  5.1777783e-07  7.2117802e-05  2.8589949e+09
   5640000   4.9741454e-11  3471938.7      102715.04      1.1303029e+09  7.2635589e-05  5.1759611e-07  7.2117993e-05  2.8589992e+09
   5641000   4.9750274e-11  3471938.9      102715.16      1.130303e+09   7.2635587e-05  5.1758987e-07  7.2117997e-05  2.8589987e+09
   5642000   4.9759093e-11  3471939.9      102716.11      1.130303e+09   7.2635592e-05  5.1757308e-07  7.2118019e-05  2.8589994e+09
   5643000   4.9767912e-11  3471936.9      102715.97      1.130302e+09   7.263559e-05   5.1763438e-07  7.2117956e-05  2.8589978e+09
   5644000   4.9776732e-11  3471945.2      102716.1       1.1303048e+09  7.263559e-05   5.1746171e-07  7.2118128e-05  2.8590008e+09
   5645000   4.9785551e-11  3471936.5      102715.78      1.130302e+09   7.2635588e-05  5.1763954e-07  7.2117949e-05  2.8589981e+09
   5646000   4.9794371e-11  3471936.1      102718.42      1.1303009e+09  7.2635594e-05  5.1765385e-07  7.211794e-05   2.8589993e+09
   5647000   4.980319e-11   3471927.9      102715.38      1.1302992e+09  7.2635593e-05  5.1782355e-07  7.2117769e-05  2.8589965e+09
   5648000   4.9812009e-11  3471933.8      102719.55      1.1302998e+09  7.263559e-05   5.1769783e-07  7.2117892e-05  2.8589984e+09
   5649000   4.9820829e-11  3471939        102719.05      1.1303017e+09  7.2635585e-05  5.1758522e-07  7.2118e-05     2.8589997e+09
   5650000   4.9829648e-11  3471932        102717.07      1.1303e+09     7.2635581e-05  5.1772814e-07  7.2117853e-05  2.8589968e+09
   5651000   4.9838468e-11  3471926.6      102713.57      1.1302994e+09  7.2635587e-05  5.1784532e-07  7.2117742e-05  2.8589953e+09
   5652000   4.9847287e-11  3471929.1      102716.28      1.1302993e+09  7.2635582e-05  5.1778848e-07  7.2117794e-05  2.8589956e+09
   5653000   4.9856106e-11  3471935.2      102712.55      1.1303026e+09  7.2635589e-05  5.1766849e-07  7.2117921e-05  2.8589987e+09
   5654000   4.9864926e-11  3471923.7      102709.01      1.1302999e+09  7.2635594e-05  5.1791264e-07  7.2117681e-05  2.8589954e+09
   5655000   4.9873745e-11  3471930.8      102711.44      1.1303015e+09  7.2635599e-05  5.1776839e-07  7.211783e-05   2.8589987e+09
   5656000   4.9882565e-11  3471923.2      102711.45      1.1302989e+09  7.2635592e-05  5.1792014e-07  7.2117672e-05  2.8589951e+09
   5657000   4.9891384e-11  3471920.8      102708.83      1.130299e+09   7.2635596e-05  5.179746e-07   7.2117622e-05  2.8589944e+09
   5658000   4.9900203e-11  3471929        102712.55      1.1303005e+09  7.2635583e-05  5.1779187e-07  7.2117791e-05  2.858996e+09 
   5659000   4.9909023e-11  3471926.2      102708.89      1.1303008e+09  7.2635587e-05  5.178533e-07   7.2117734e-05  2.8589942e+09
   5660000   4.9917842e-11  3471929.8      102713.01      1.1303006e+09  7.2635588e-05  5.1777969e-07  7.2117808e-05  2.8589952e+09
   5661000   4.9926662e-11  3471929.2      102712.88      1.1303005e+09  7.2635585e-05  5.1778896e-07  7.2117796e-05  2.8589954e+09
   5662000   4.9935481e-11  3471930.2      102716.17      1.1302997e+09  7.2635582e-05  5.1776433e-07  7.2117818e-05  2.8589961e+09
   5663000   4.99443e-11    3471930.4      102718.63      1.130299e+09   7.263559e-05   5.1776807e-07  7.2117822e-05  2.8589975e+09
   5664000   4.995312e-11   3471928.1      102718.9       1.1302981e+09  7.2635581e-05  5.1780908e-07  7.2117772e-05  2.8589962e+09
   5665000   4.9961939e-11  3471931.7      102721.51      1.1302984e+09  7.2635589e-05  5.177414e-07   7.2117848e-05  2.8589982e+09
   5666000   4.9970759e-11  3471928.5      102721.63      1.1302973e+09  7.2635594e-05  5.1781258e-07  7.2117782e-05  2.8589968e+09
   5667000   4.9979578e-11  3471938.4      102721.48      1.1303007e+09  7.2635598e-05  5.1761008e-07  7.2117987e-05  2.8590002e+09
   5668000   4.9988398e-11  3471935.1      102719.92      1.1303001e+09  7.2635593e-05  5.1767475e-07  7.2117918e-05  2.858998e+09 
   5669000   4.9997217e-11  3471933.4      102720.58      1.1302993e+09  7.2635593e-05  5.1770892e-07  7.2117884e-05  2.8589966e+09
   5670000   5.0006036e-11  3471934.8      102720.37      1.1302998e+09  7.2635585e-05  5.1767325e-07  7.2117912e-05  2.8589963e+09
   5671000   5.0014856e-11  3471929.6      102720.18      1.1302982e+09  7.2635586e-05  5.1778241e-07  7.2117804e-05  2.8589951e+09
   5672000   5.0023675e-11  3471929.1      102719.82      1.1302981e+09  7.2635585e-05  5.177916e-07   7.2117793e-05  2.8589954e+09
   5673000   5.0032495e-11  3471923        102719.04      1.1302963e+09  7.2635588e-05  5.1792167e-07  7.2117667e-05  2.8589936e+09
   5674000   5.0041314e-11  3471928.4      102718.26      1.1302984e+09  7.2635589e-05  5.1781036e-07  7.2117779e-05  2.8589954e+09
   5675000   5.0050133e-11  3471932.7      102723.57      1.1302981e+09  7.2635586e-05  5.1771676e-07  7.2117869e-05  2.8589964e+09
   5676000   5.0058953e-11  3471938        102726.95      1.1302987e+09  7.2635582e-05  5.1760405e-07  7.2117978e-05  2.8589973e+09
   5677000   5.0067772e-11  3471938.2      102728.44      1.1302983e+09  7.2635578e-05  5.1759451e-07  7.2117983e-05  2.8589967e+09
   5678000   5.0076592e-11  3471932.7      102725.72      1.1302973e+09  7.2635578e-05  5.1771024e-07  7.2117868e-05  2.8589948e+09
   5679000   5.0085411e-11  3471934.2      102724.56      1.1302982e+09  7.2635581e-05  5.1768059e-07  7.21179e-05    2.8589957e+09
   5680000   5.009423e-11   3471921.9      102723.66      1.1302944e+09  7.2635581e-05  5.1793702e-07  7.2117644e-05  2.8589911e+09
   5681000   5.010305e-11   3471927.6      102723.87      1.1302963e+09  7.263558e-05   5.1781708e-07  7.2117762e-05  2.8589932e+09
   5682000   5.0111869e-11  3471924        102722.69      1.1302954e+09  7.2635586e-05  5.1789838e-07  7.2117688e-05  2.8589917e+09
   5683000   5.0120689e-11  3471929.3      102720.1       1.1302981e+09  7.2635583e-05  5.1778466e-07  7.2117798e-05  2.8589927e+09
   5684000   5.0129508e-11  3471929.7      102725.28      1.1302965e+09  7.263558e-05   5.1777294e-07  7.2117807e-05  2.8589939e+09
   5685000   5.0138327e-11  3471925.2      102725.89      1.1302948e+09  7.2635586e-05  5.1787294e-07  7.2117713e-05  2.8589933e+09
   5686000   5.0147147e-11  3471924.8      102727.19      1.1302942e+09  7.2635591e-05  5.1788656e-07  7.2117704e-05  2.858993e+09 
   5687000   5.0155966e-11  3471929.7      102724.72      1.1302967e+09  7.263559e-05   5.1778432e-07  7.2117806e-05  2.858994e+09 
   5688000   5.0164786e-11  3471933.8      102729.08      1.1302966e+09  7.2635595e-05  5.1770412e-07  7.2117891e-05  2.858996e+09 
   5689000   5.0173605e-11  3471934.6      102730.97      1.1302962e+09  7.2635595e-05  5.1768695e-07  7.2117908e-05  2.858997e+09 
   5690000   5.0182424e-11  3471936.1      102737.25      1.1302946e+09  7.2635598e-05  5.1765919e-07  7.2117939e-05  2.8589982e+09
   5691000   5.0191244e-11  3471939.3      102737.65      1.1302956e+09  7.2635602e-05  5.1759682e-07  7.2118005e-05  2.8589997e+09
   5692000   5.0200063e-11  3471932.6      102734.98      1.1302942e+09  7.2635603e-05  5.1773601e-07  7.2117867e-05  2.8589969e+09
   5693000   5.0208883e-11  3471939.1      102736.08      1.130296e+09   7.2635602e-05  5.1760037e-07  7.2118002e-05  2.8589988e+09
   5694000   5.0217702e-11  3471942.8      102739.49      1.1302961e+09  7.2635599e-05  5.1752098e-07  7.2118078e-05  2.8589996e+09
   5695000   5.0226521e-11  3471951.2      102743.9       1.1302975e+09  7.2635597e-05  5.173445e-07   7.2118253e-05  2.859003e+09 
   5696000   5.0235341e-11  3471941.7      102746.02      1.1302936e+09  7.2635591e-05  5.175366e-07   7.2118055e-05  2.8589992e+09
   5697000   5.024416e-11   3471953.4      102747.84      1.1302969e+09  7.2635588e-05  5.172893e-07   7.2118298e-05  2.8590029e+09
   5698000   5.025298e-11   3471940.6      102744.99      1.1302936e+09  7.2635591e-05  5.1755734e-07  7.2118033e-05  2.8589977e+09
   5699000   5.0261799e-11  3471941.8      102745.43      1.1302938e+09  7.2635592e-05  5.1753481e-07  7.2118057e-05  2.8589975e+09
   5700000   5.0270619e-11  3471949.7      102748.74      1.1302954e+09  7.263559e-05   5.1736713e-07  7.2118222e-05  2.8590004e+09
   5701000   5.0279438e-11  3471948.4      102749.21      1.1302947e+09  7.2635593e-05  5.1739913e-07  7.2118194e-05  2.8590009e+09
   5702000   5.0288257e-11  3471943.4      102748.31      1.1302934e+09  7.2635602e-05  5.1750979e-07  7.2118092e-05  2.8590001e+09
   5703000   5.0297077e-11  3471940.2      102751.42      1.1302913e+09  7.2635605e-05  5.1758085e-07  7.2118024e-05  2.859e+09    
   5704000   5.0305896e-11  3471940        102751.5       1.1302912e+09  7.2635604e-05  5.1758409e-07  7.211802e-05   2.8590001e+09
   5705000   5.0314716e-11  3471948.7      102754.8       1.130293e+09   7.2635603e-05  5.1740202e-07  7.2118201e-05  2.8590028e+09
   5706000   5.0323535e-11  3471951.7      102754.3       1.1302942e+09  7.2635606e-05  5.1734118e-07  7.2118264e-05  2.8590035e+09
   5707000   5.0332354e-11  3471938.5      102748.16      1.1302918e+09  7.263561e-05   5.176208e-07   7.2117989e-05  2.8589979e+09
   5708000   5.0341174e-11  3471945.2      102743.55      1.1302956e+09  7.2635602e-05  5.1747344e-07  7.2118129e-05  2.8590002e+09
   5709000   5.0349993e-11  3471932.7      102738.13      1.1302932e+09  7.2635603e-05  5.1773496e-07  7.2117868e-05  2.858996e+09 
   5710000   5.0358813e-11  3471930        102737.82      1.1302924e+09  7.2635602e-05  5.1778823e-07  7.2117813e-05  2.8589953e+09
   5711000   5.0367632e-11  3471929.6      102743.92      1.1302902e+09  7.2635599e-05  5.1779429e-07  7.2117805e-05  2.8589951e+09
   5712000   5.0376451e-11  3471936.1      102747.54      1.1302912e+09  7.2635602e-05  5.1766277e-07  7.211794e-05   2.8589977e+09
   5713000   5.0385271e-11  3471934        102746.62      1.1302908e+09  7.2635595e-05  5.1769983e-07  7.2117895e-05  2.8589957e+09
   5714000   5.039409e-11   3471934.3      102744.62      1.1302916e+09  7.2635596e-05  5.1769291e-07  7.2117903e-05  2.8589957e+09
   5715000   5.040291e-11   3471934.7      102742.67      1.1302924e+09  7.26356e-05    5.1768859e-07  7.2117911e-05  2.8589961e+09
   5716000   5.0411729e-11  3471934.1      102746.94      1.1302907e+09  7.2635602e-05  5.1770385e-07  7.2117898e-05  2.8589969e+09
   5717000   5.0420548e-11  3471932.2      102749.66      1.1302892e+09  7.2635604e-05  5.177452e-07   7.2117858e-05  2.8589969e+09
   5718000   5.0429368e-11  3471935.7      102751         1.1302899e+09  7.2635608e-05  5.1767744e-07  7.2117931e-05  2.8589987e+09
   5719000   5.0438187e-11  3471937.3      102749.83      1.1302908e+09  7.2635608e-05  5.1764452e-07  7.2117963e-05  2.8589996e+09
   5720000   5.0447007e-11  3471935.9      102749.99      1.1302903e+09  7.2635613e-05  5.1767896e-07  7.2117934e-05  2.8589998e+09
   5721000   5.0455826e-11  3471936.3      102753.02      1.1302894e+09  7.2635613e-05  5.1767042e-07  7.2117943e-05  2.859e+09    
   5722000   5.0464645e-11  3471939.7      102752.3       1.1302908e+09  7.2635611e-05  5.1759767e-07  7.2118014e-05  2.8590008e+09
   5723000   5.0473465e-11  3471938.8      102756.36      1.1302892e+09  7.2635615e-05  5.1761949e-07  7.2117995e-05  2.8590013e+09
   5724000   5.0482284e-11  3471928.8      102750.82      1.1302877e+09  7.263561e-05   5.1782244e-07  7.2117788e-05  2.8589973e+09
   5725000   5.0491104e-11  3471931.7      102748.78      1.1302893e+09  7.2635616e-05  5.1776802e-07  7.2117848e-05  2.8589988e+09
   5726000   5.0499923e-11  3471929.4      102748.65      1.1302886e+09  7.2635612e-05  5.178124e-07   7.21178e-05    2.8589975e+09
   5727000   5.0508743e-11  3471928        102745.69      1.1302891e+09  7.2635617e-05  5.178457e-07   7.2117771e-05  2.8589971e+09
   5728000   5.0517562e-11  3471928.3      102748.55      1.1302882e+09  7.2635621e-05  5.1784443e-07  7.2117777e-05  2.8589979e+09
   5729000   5.0526381e-11  3471927        102746.5       1.1302885e+09  7.2635624e-05  5.1787323e-07  7.2117751e-05  2.8589975e+09
   5730000   5.0535201e-11  3471932.4      102749.82      1.1302892e+09  7.2635622e-05  5.1775945e-07  7.2117862e-05  2.8589989e+09
   5731000   5.054402e-11   3471933.4      102752.3       1.1302887e+09  7.2635614e-05  5.1773165e-07  7.2117883e-05  2.8589987e+09
   5732000   5.055284e-11   3471938.2      102753.39      1.1302899e+09  7.2635618e-05  5.1763616e-07  7.2117982e-05  2.8590008e+09
   5733000   5.0561659e-11  3471933.6      102753.44      1.1302884e+09  7.2635617e-05  5.1772969e-07  7.2117887e-05  2.8589988e+09
   5734000   5.0570478e-11  3471933.3      102752.02      1.1302888e+09  7.2635621e-05  5.1773913e-07  7.2117882e-05  2.8589988e+09
   5735000   5.0579298e-11  3471941        102758.68      1.1302891e+09  7.2635617e-05  5.1757588e-07  7.2118041e-05  2.859002e+09 
   5736000   5.0588117e-11  3471938.7      102757.97      1.1302886e+09  7.2635615e-05  5.1762231e-07  7.2117992e-05  2.8590009e+09
   5737000   5.0596937e-11  3471935.1      102754.94      1.1302884e+09  7.2635608e-05  5.1768992e-07  7.2117918e-05  2.8589986e+09
   5738000   5.0605756e-11  3471935.2      102760.79      1.1302865e+09  7.2635608e-05  5.1768778e-07  7.211792e-05   2.8589983e+09
   5739000   5.0614575e-11  3471941        102760.62      1.1302885e+09  7.2635607e-05  5.1756646e-07  7.2118041e-05  2.8590001e+09
   5740000   5.0623395e-11  3471939.8      102760.99      1.1302879e+09  7.2635606e-05  5.1759039e-07  7.2118016e-05  2.8589993e+09
   5741000   5.0632214e-11  3471939.2      102758.96      1.1302884e+09  7.2635608e-05  5.1760355e-07  7.2118004e-05  2.8589995e+09
   5742000   5.0641034e-11  3471936.7      102757.2       1.1302882e+09  7.2635602e-05  5.17649e-07    7.2117953e-05  2.8589982e+09
   5743000   5.0649853e-11  3471934.4      102759.14      1.1302868e+09  7.2635597e-05  5.1769215e-07  7.2117905e-05  2.8589968e+09
   5744000   5.0658672e-11  3471940.9      102760.41      1.1302885e+09  7.26356e-05    5.1756129e-07  7.2118038e-05  2.8589986e+09
   5745000   5.0667492e-11  3471937.7      102755.8       1.130289e+09   7.2635606e-05  5.1763264e-07  7.2117973e-05  2.8589979e+09
   5746000   5.0676311e-11  3471926.6      102755.35      1.1302854e+09  7.2635604e-05  5.178622e-07   7.2117742e-05  2.8589941e+09
   5747000   5.0685131e-11  3471932.7      102755.46      1.1302874e+09  7.2635604e-05  5.1773421e-07  7.2117869e-05  2.8589967e+09
   5748000   5.069395e-11   3471937.7      102759.62      1.1302877e+09  7.2635607e-05  5.1763417e-07  7.2117973e-05  2.8589984e+09
   5749000   5.0702769e-11  3471934.2      102755.1       1.130288e+09   7.2635609e-05  5.1770821e-07  7.2117901e-05  2.8589969e+09
   5750000   5.0711589e-11  3471935.1      102760.17      1.1302866e+09  7.2635606e-05  5.1768638e-07  7.2117919e-05  2.8589973e+09
   5751000   5.0720408e-11  3471941.9      102761.63      1.1302884e+09  7.2635606e-05  5.1754723e-07  7.2118059e-05  2.8589997e+09
   5752000   5.0729228e-11  3471936.1      102764.19      1.1302856e+09  7.2635606e-05  5.1766542e-07  7.211794e-05   2.8589977e+09
   5753000   5.0738047e-11  3471944.3      102766.66      1.1302875e+09  7.2635603e-05  5.1749349e-07  7.2118109e-05  2.8590006e+09
   5754000   5.0746866e-11  3471942.9      102766.79      1.130287e+09   7.26356e-05    5.1751921e-07  7.2118081e-05  2.8589995e+09
   5755000   5.0755686e-11  3471939.6      102767.51      1.1302857e+09  7.2635596e-05  5.1758514e-07  7.2118011e-05  2.8589978e+09
   5756000   5.0764505e-11  3471945.6      102766.52      1.130288e+09   7.2635594e-05  5.1745821e-07  7.2118136e-05  2.8589999e+09
   5757000   5.0773325e-11  3471942.7      102765.06      1.1302875e+09  7.2635596e-05  5.1751979e-07  7.2118076e-05  2.8589992e+09
   5758000   5.0782144e-11  3471940.4      102762.97      1.1302875e+09  7.2635597e-05  5.1756868e-07  7.2118029e-05  2.8589987e+09
   5759000   5.0790964e-11  3471934.4      102763.08      1.1302854e+09  7.2635595e-05  5.1769216e-07  7.2117903e-05  2.8589963e+09
   5760000   5.0799783e-11  3471940.9      102763.52      1.1302875e+09  7.2635599e-05  5.1756009e-07  7.2118039e-05  2.8589997e+09
   5761000   5.0808602e-11  3471934.4      102762.93      1.1302855e+09  7.2635595e-05  5.1769044e-07  7.2117905e-05  2.8589977e+09
   5762000   5.0817422e-11  3471926.7      102761.08      1.1302835e+09  7.2635596e-05  5.1785228e-07  7.2117744e-05  2.8589956e+09
   5763000   5.0826241e-11  3471932.7      102761.42      1.1302854e+09  7.2635594e-05  5.177257e-07   7.2117869e-05  2.8589972e+09
   5764000   5.0835061e-11  3471935.8      102762.58      1.1302861e+09  7.2635592e-05  5.176581e-07   7.2117934e-05  2.8589974e+09
   5765000   5.084388e-11   3471934        102758.73      1.1302868e+09  7.2635588e-05  5.176916e-07   7.2117897e-05  2.858996e+09 
   5766000   5.0852699e-11  3471930        102759.71      1.1302851e+09  7.2635585e-05  5.1777284e-07  7.2117812e-05  2.858994e+09 
   5767000   5.0861519e-11  3471936.1      102761.28      1.1302866e+09  7.2635583e-05  5.1764407e-07  7.2117939e-05  2.8589951e+09
   5768000   5.0870338e-11  3471936.5      102763.92      1.1302859e+09  7.2635581e-05  5.1763325e-07  7.2117948e-05  2.8589944e+09
   5769000   5.0879158e-11  3471941.5      102765.47      1.130287e+09   7.2635579e-05  5.175266e-07   7.2118052e-05  2.8589956e+09
   5770000   5.0887977e-11  3471943.1      102768.12      1.1302867e+09  7.2635581e-05  5.1749708e-07  7.2118084e-05  2.8589967e+09
   5771000   5.0896796e-11  3471941.3      102767.18      1.1302864e+09  7.2635578e-05  5.1753087e-07  7.2118047e-05  2.8589963e+09
   5772000   5.0905616e-11  3471941.4      102773.49      1.1302843e+09  7.2635588e-05  5.1753779e-07  7.211805e-05   2.858998e+09 
   5773000   5.0914435e-11  3471945.7      102774.37      1.1302854e+09  7.2635601e-05  5.1746256e-07  7.2118138e-05  2.8590002e+09
   5774000   5.0923255e-11  3471937.8      102772.3       1.1302835e+09  7.2635604e-05  5.1762852e-07  7.2117975e-05  2.8589973e+09
   5775000   5.0932074e-11  3471939        102771.53      1.1302842e+09  7.2635605e-05  5.176048e-07   7.2118e-05     2.8589981e+09
   5776000   5.0940893e-11  3471941.6      102775.85      1.1302836e+09  7.2635593e-05  5.1753943e-07  7.2118054e-05  2.8589985e+09
   5777000   5.0949713e-11  3471949.8      102780.03      1.1302849e+09  7.2635592e-05  5.1736783e-07  7.2118224e-05  2.859001e+09 
   5778000   5.0958532e-11  3471954.7      102783.93      1.1302853e+09  7.26356e-05    5.1727358e-07  7.2118327e-05  2.8590027e+09
   5779000   5.0967352e-11  3471957.3      102788.71      1.1302845e+09  7.2635597e-05  5.1721813e-07  7.2118379e-05  2.8590037e+09
   5780000   5.0976171e-11  3471959.5      102789.12      1.1302851e+09  7.2635588e-05  5.1716349e-07  7.2118424e-05  2.859004e+09 
   5781000   5.098499e-11   3471963.5      102791.6       1.1302856e+09  7.263559e-05   5.1708152e-07  7.2118508e-05  2.8590054e+09
   5782000   5.099381e-11   3471962.3      102791.19      1.1302854e+09  7.2635584e-05  5.1710195e-07  7.2118483e-05  2.8590043e+09
   5783000   5.1002629e-11  3471952.1      102782.41      1.1302849e+09  7.2635583e-05  5.1731177e-07  7.2118271e-05  2.8590004e+09
   5784000   5.1011449e-11  3471942.7      102780.01      1.1302826e+09  7.2635585e-05  5.1750783e-07  7.2118077e-05  2.8589979e+09
   5785000   5.1020268e-11  3471947.4      102779.72      1.1302842e+09  7.263559e-05   5.1741648e-07  7.2118174e-05  2.8590004e+09
   5786000   5.1029088e-11  3471941.3      102776.62      1.1302832e+09  7.2635586e-05  5.1753913e-07  7.2118047e-05  2.8589969e+09
   5787000   5.1037907e-11  3471942.9      102777.69      1.1302834e+09  7.2635587e-05  5.1750653e-07  7.211808e-05   2.8589967e+09
   5788000   5.1046726e-11  3471944.7      102777.13      1.1302842e+09  7.2635587e-05  5.1746946e-07  7.2118118e-05  2.8589967e+09
   5789000   5.1055546e-11  3471947.1      102779.81      1.1302841e+09  7.2635584e-05  5.1741766e-07  7.2118167e-05  2.8589975e+09
   5790000   5.1064365e-11  3471950.1      102782.68      1.1302842e+09  7.2635571e-05  5.173403e-07   7.2118231e-05  2.8589975e+09
   5791000   5.1073185e-11  3471951.8      102781.83      1.130285e+09   7.2635572e-05  5.1730632e-07  7.2118266e-05  2.8589976e+09
   5792000   5.1082004e-11  3471954.3      102783.56      1.1302853e+09  7.2635573e-05  5.1725507e-07  7.2118318e-05  2.8589987e+09
   5793000   5.1090823e-11  3471945.4      102781.69      1.1302829e+09  7.2635566e-05  5.174339e-07   7.2118132e-05  2.8589946e+09
   5794000   5.1099643e-11  3471952.8      102788.78      1.130283e+09   7.263557e-05   5.1728379e-07  7.2118286e-05  2.8589981e+09
   5795000   5.1108462e-11  3471961.5      102793.65      1.1302843e+09  7.2635569e-05  5.1710186e-07  7.2118467e-05  2.8590016e+09
   5796000   5.1117282e-11  3471957.8      102790.93      1.130284e+09   7.2635571e-05  5.1718021e-07  7.2118391e-05  2.8589998e+09
   5797000   5.1126101e-11  3471955.4      102782.71      1.1302859e+09  7.2635576e-05  5.172355e-07   7.2118341e-05  2.858999e+09 
   5798000   5.113492e-11   3471947.4      102785.28      1.1302824e+09  7.2635576e-05  5.1740276e-07  7.2118174e-05  2.8589965e+09
   5799000   5.114374e-11   3471949.6      102787.55      1.1302823e+09  7.2635585e-05  5.173663e-07   7.2118219e-05  2.8589983e+09
   5800000   5.1152559e-11  3471950.1      102785.09      1.1302834e+09  7.2635591e-05  5.1736002e-07  7.2118231e-05  2.8589994e+09
   5801000   5.1161379e-11  3471946.9      102780.85      1.1302837e+09  7.2635586e-05  5.1742271e-07  7.2118163e-05  2.8589981e+09
   5802000   5.1170198e-11  3471940.3      102779.31      1.130282e+09   7.263559e-05   5.1756393e-07  7.2118026e-05  2.8589965e+09
   5803000   5.1179017e-11  3471941.9      102789.02      1.1302793e+09  7.2635593e-05  5.175326e-07   7.211806e-05   2.8589974e+09
   5804000   5.1187837e-11  3471952.9      102787.69      1.1302834e+09  7.2635596e-05  5.1730806e-07  7.2118288e-05  2.8590016e+09
   5805000   5.1196656e-11  3471948.3      102787.38      1.130282e+09   7.2635599e-05  5.1740669e-07  7.2118193e-05  2.8590001e+09
   5806000   5.1205476e-11  3471951.5      102786.68      1.1302833e+09  7.26356e-05    5.1733976e-07  7.211826e-05   2.8590018e+09
   5807000   5.1214295e-11  3471943.8      102785.56      1.1302811e+09  7.26356e-05    5.1750117e-07  7.2118099e-05  2.8590001e+09
   5808000   5.1223114e-11  3471941.4      102788.44      1.1302793e+09  7.2635604e-05  5.1755446e-07  7.211805e-05   2.8590001e+09
   5809000   5.1231934e-11  3471951.1      102791.62      1.1302815e+09  7.2635609e-05  5.173571e-07   7.2118251e-05  2.8590038e+09
   5810000   5.1240753e-11  3471954.7      102789.79      1.1302833e+09  7.263561e-05   5.1728542e-07  7.2118325e-05  2.8590041e+09
   5811000   5.1249573e-11  3471961        102791         1.130285e+09   7.2635603e-05  5.1714735e-07  7.2118456e-05  2.8590057e+09
   5812000   5.1258392e-11  3471950.4      102791.49      1.1302813e+09  7.2635603e-05  5.173655e-07   7.2118237e-05  2.8590024e+09
   5813000   5.1267211e-11  3471948.3      102790.6       1.1302809e+09  7.2635604e-05  5.1741065e-07  7.2118194e-05  2.8590024e+09
   5814000   5.1276031e-11  3471946.1      102789.07      1.1302807e+09  7.26356e-05    5.174534e-07   7.2118147e-05  2.8590014e+09
   5815000   5.128485e-11   3471948.6      102793.23      1.1302801e+09  7.263561e-05   5.1741083e-07  7.2118199e-05  2.8590031e+09
   5816000   5.129367e-11   3471934.3      102787.48      1.1302772e+09  7.2635598e-05  5.1769698e-07  7.2117901e-05  2.8589967e+09
   5817000   5.1302489e-11  3471944.5      102790.54      1.1302796e+09  7.2635607e-05  5.1749327e-07  7.2118113e-05  2.8590018e+09
   5818000   5.1311309e-11  3471943.9      102791.5       1.1302791e+09  7.2635601e-05  5.1750056e-07  7.21181e-05    2.8590012e+09
   5819000   5.1320128e-11  3471945.1      102792.38      1.1302792e+09  7.2635603e-05  5.1747696e-07  7.2118126e-05  2.8590014e+09
   5820000   5.1328947e-11  3471959        102797.45      1.1302822e+09  7.2635603e-05  5.1718729e-07  7.2118416e-05  2.8590064e+09
   5821000   5.1337767e-11  3471956.8      102796.6       1.1302817e+09  7.2635602e-05  5.1723209e-07  7.2118369e-05  2.8590056e+09
   5822000   5.1346586e-11  3471949.4      102796.43      1.1302793e+09  7.2635592e-05  5.1737575e-07  7.2118216e-05  2.8590025e+09
   5823000   5.1355406e-11  3471961.1      102802.17      1.1302813e+09  7.2635596e-05  5.1713683e-07  7.2118459e-05  2.8590065e+09
   5824000   5.1364225e-11  3471956.4      102806.31      1.1302784e+09  7.2635604e-05  5.1724222e-07  7.2118362e-05  2.8590053e+09
   5825000   5.1373044e-11  3471965.6      102808.74      1.1302806e+09  7.2635602e-05  5.1704896e-07  7.2118553e-05  2.8590092e+09
   5826000   5.1381864e-11  3471954.3      102804.8       1.1302782e+09  7.2635603e-05  5.1728515e-07  7.2118318e-05  2.8590059e+09
   5827000   5.1390683e-11  3471952.5      102803.16      1.1302781e+09  7.26356e-05    5.1732028e-07  7.2118279e-05  2.859005e+09 
   5828000   5.1399503e-11  3471959.8      102808.26      1.1302788e+09  7.2635612e-05  5.1717959e-07  7.2118432e-05  2.8590082e+09
   5829000   5.1408322e-11  3471958.3      102807.23      1.1302787e+09  7.2635615e-05  5.1721419e-07  7.2118401e-05  2.8590075e+09
   5830000   5.1417141e-11  3471958.3      102807.33      1.1302786e+09  7.2635616e-05  5.1721611e-07  7.21184e-05    2.8590081e+09
   5831000   5.1425961e-11  3471947.9      102805.57      1.1302758e+09  7.2635618e-05  5.1743366e-07  7.2118185e-05  2.8590051e+09
   5832000   5.143478e-11   3471945.2      102798.62      1.1302772e+09  7.2635621e-05  5.1749292e-07  7.2118128e-05  2.8590048e+09
   5833000   5.14436e-11    3471943.3      102794.83      1.1302778e+09  7.2635627e-05  5.1753895e-07  7.2118088e-05  2.8590041e+09
   5834000   5.1452419e-11  3471946.7      102797.39      1.1302781e+09  7.2635624e-05  5.1746404e-07  7.211816e-05   2.8590046e+09
   5835000   5.1461238e-11  3471950.1      102797.35      1.1302792e+09  7.2635628e-05  5.1739709e-07  7.2118231e-05  2.8590055e+09
   5836000   5.1470058e-11  3471948.2      102795.76      1.1302791e+09  7.2635625e-05  5.1743316e-07  7.2118192e-05  2.8590045e+09
   5837000   5.1478877e-11  3471942.8      102792.31      1.1302785e+09  7.2635605e-05  5.1752612e-07  7.2118079e-05  2.859001e+09 
   5838000   5.1487697e-11  3471935.8      102788.72      1.1302773e+09  7.2635599e-05  5.1766683e-07  7.2117933e-05  2.8589974e+09
   5839000   5.1496516e-11  3471945.4      102788.47      1.1302806e+09  7.2635601e-05  5.1746962e-07  7.2118131e-05  2.8590004e+09
   5840000   5.1505335e-11  3471942.2      102791.48      1.1302786e+09  7.2635599e-05  5.1753243e-07  7.2118067e-05  2.8589989e+09
   5841000   5.1514155e-11  3471946.3      102792.75      1.1302795e+09  7.2635595e-05  5.1744326e-07  7.2118151e-05  2.8590011e+09
   5842000   5.1522974e-11  3471939        102796.93      1.1302756e+09  7.26356e-05    5.176011e-07   7.2117999e-05  2.8589994e+09
   5843000   5.1531794e-11  3471951.7      102800.07      1.1302789e+09  7.2635605e-05  5.1734207e-07  7.2118263e-05  2.8590043e+09
   5844000   5.1540613e-11  3471953        102800.82      1.130279e+09   7.2635602e-05  5.1731235e-07  7.211829e-05   2.8590033e+09
   5845000   5.1549433e-11  3471944.4      102798.34      1.130277e+09   7.26356e-05    5.1748872e-07  7.2118112e-05  2.8589991e+09
   5846000   5.1558252e-11  3471948.8      102797.31      1.1302788e+09  7.2635596e-05  5.1739309e-07  7.2118203e-05  2.8590006e+09
   5847000   5.1567071e-11  3471953.4      102799.53      1.1302796e+09  7.2635596e-05  5.1729741e-07  7.2118298e-05  2.8590026e+09
   5848000   5.1575891e-11  3471952.4      102796.6       1.1302803e+09  7.2635596e-05  5.1731784e-07  7.2118278e-05  2.8590019e+09
   5849000   5.158471e-11   3471949.7      102799.5       1.1302784e+09  7.2635603e-05  5.1738165e-07  7.2118221e-05  2.8590011e+09
   5850000   5.159353e-11   3471954        102803.63      1.1302784e+09  7.2635601e-05  5.1729031e-07  7.2118311e-05  2.8590026e+09
   5851000   5.1602349e-11  3471956.6      102803.79      1.1302793e+09  7.26356e-05    5.172353e-07   7.2118365e-05  2.8590036e+09
   5852000   5.1611168e-11  3471957        102803.16      1.1302796e+09  7.2635598e-05  5.172257e-07   7.2118372e-05  2.8590042e+09
   5853000   5.1619988e-11  3471949.5      102803.16      1.1302771e+09  7.26356e-05    5.1738364e-07  7.2118217e-05  2.8590017e+09
   5854000   5.1628807e-11  3471954.2      102804.23      1.1302783e+09  7.2635608e-05  5.1729339e-07  7.2118315e-05  2.8590034e+09
   5855000   5.1637627e-11  3471961.4      102806.31      1.13028e+09    7.26356e-05    5.1713489e-07  7.2118465e-05  2.8590047e+09
   5856000   5.1646446e-11  3471959.4      102808.28      1.1302787e+09  7.2635597e-05  5.1717429e-07  7.2118423e-05  2.8590035e+09
   5857000   5.1655265e-11  3471959.2      102807.94      1.1302788e+09  7.2635602e-05  5.1718262e-07  7.211842e-05   2.8590037e+09
   5858000   5.1664085e-11  3471955.3      102809.59      1.1302769e+09  7.2635606e-05  5.1726787e-07  7.2118338e-05  2.8590027e+09
   5859000   5.1672904e-11  3471952.6      102805.1       1.1302775e+09  7.2635595e-05  5.1731379e-07  7.2118282e-05  2.8590013e+09
   5860000   5.1681724e-11  3471953.3      102804.6       1.1302779e+09  7.2635604e-05  5.1730752e-07  7.2118296e-05  2.8590023e+09
   5861000   5.1690543e-11  3471950.7      102804.57      1.130277e+09   7.2635609e-05  5.1736689e-07  7.2118242e-05  2.8590017e+09
   5862000   5.1699362e-11  3471962.1      102805.53      1.1302805e+09  7.2635605e-05  5.1712633e-07  7.2118479e-05  2.8590056e+09
   5863000   5.1708182e-11  3471951.7      102799.9       1.1302789e+09  7.2635601e-05  5.1733755e-07  7.2118264e-05  2.8590017e+09
   5864000   5.1717001e-11  3471942.9      102798.4       1.1302765e+09  7.2635598e-05  5.175176e-07   7.211808e-05   2.8589984e+09
   5865000   5.1725821e-11  3471949.7      102803.9       1.1302769e+09  7.2635597e-05  5.173763e-07   7.2118221e-05  2.8590011e+09
   5866000   5.173464e-11   3471951.4      102811.36      1.130275e+09   7.263563e-05   5.1737155e-07  7.2118258e-05  2.8590029e+09
   5867000   5.1743459e-11  3471953.2      102812.1       1.1302754e+09  7.263563e-05   5.1733412e-07  7.2118296e-05  2.8590039e+09
   5868000   5.1752279e-11  3471945.4      102810.93      1.1302731e+09  7.2635632e-05  5.1749866e-07  7.2118133e-05  2.8590012e+09
   5869000   5.1761098e-11  3471947.9      102807.65      1.130275e+09   7.2635628e-05  5.1744396e-07  7.2118184e-05  2.859001e+09 
   5870000   5.1769918e-11  3471944.7      102808.53      1.1302737e+09  7.2635618e-05  5.1750048e-07  7.2118117e-05  2.8589984e+09
   5871000   5.1778737e-11  3471950.6      102810.17      1.1302751e+09  7.2635614e-05  5.1737342e-07  7.2118241e-05  2.859e+09    
   5872000   5.1787556e-11  3471953.2      102809.49      1.1302762e+09  7.2635614e-05  5.1731919e-07  7.2118295e-05  2.8590003e+09
   5873000   5.1796376e-11  3471954.7      102809.44      1.1302767e+09  7.2635616e-05  5.1728954e-07  7.2118327e-05  2.8590006e+09
   5874000   5.1805195e-11  3471949.6      102804.22      1.1302768e+09  7.2635618e-05  5.1739791e-07  7.211822e-05   2.8589985e+09
   5875000   5.1814015e-11  3471944.8      102803.77      1.1302753e+09  7.2635621e-05  5.1750035e-07  7.2118121e-05  2.8589971e+09
   5876000   5.1822834e-11  3471953.9      102807.07      1.1302773e+09  7.2635621e-05  5.1731132e-07  7.211831e-05   2.8590011e+09
   5877000   5.1831654e-11  3471954.1      102811.4       1.1302759e+09  7.2635625e-05  5.1731148e-07  7.2118314e-05  2.8590021e+09
   5878000   5.1840473e-11  3471953.7      102815.55      1.1302744e+09  7.2635624e-05  5.1731872e-07  7.2118305e-05  2.859002e+09 
   5879000   5.1849292e-11  3471950.9      102818.41      1.1302725e+09  7.2635627e-05  5.1738015e-07  7.2118247e-05  2.8590012e+09
   5880000   5.1858112e-11  3471959.5      102821.44      1.1302743e+09  7.2635629e-05  5.1720476e-07  7.2118424e-05  2.8590049e+09
   5881000   5.1866931e-11  3471965.4      102827.4       1.1302743e+09  7.263563e-05   5.1708219e-07  7.2118548e-05  2.8590068e+09
   5882000   5.1875751e-11  3471970        102830.37      1.1302749e+09  7.2635635e-05  5.1699126e-07  7.2118644e-05  2.8590091e+09
   5883000   5.188457e-11   3471961.2      102826.29      1.1302733e+09  7.2635628e-05  5.1716792e-07  7.211846e-05   2.8590055e+09
   5884000   5.1893389e-11  3471966.4      102827.22      1.1302747e+09  7.2635625e-05  5.1705607e-07  7.2118569e-05  2.8590069e+09
   5885000   5.1902209e-11  3471963.4      102823.16      1.1302751e+09  7.2635627e-05  5.1712049e-07  7.2118506e-05  2.8590051e+09
   5886000   5.1911028e-11  3471966.7      102821.81      1.1302766e+09  7.2635627e-05  5.1705216e-07  7.2118575e-05  2.8590059e+09
   5887000   5.1919848e-11  3471962        102819.28      1.1302759e+09  7.2635623e-05  5.1714616e-07  7.2118477e-05  2.8590037e+09
   5888000   5.1928667e-11  3471956.6      102817.13      1.1302748e+09  7.2635621e-05  5.1725665e-07  7.2118365e-05  2.8590018e+09
   5889000   5.1937486e-11  3471956.7      102814.73      1.1302756e+09  7.2635621e-05  5.1725394e-07  7.2118367e-05  2.8590021e+09
   5890000   5.1946306e-11  3471950.8      102813.75      1.130274e+09   7.2635626e-05  5.1738248e-07  7.2118244e-05  2.8590006e+09
   5891000   5.1955125e-11  3471952.8      102811.64      1.1302754e+09  7.2635627e-05  5.1734084e-07  7.2118286e-05  2.8590021e+09
   5892000   5.1963945e-11  3471946.4      102815.22      1.130272e+09   7.2635626e-05  5.1747414e-07  7.2118152e-05  2.8590003e+09
   5893000   5.1972764e-11  3471955.1      102820.69      1.1302731e+09  7.2635627e-05  5.1729328e-07  7.2118334e-05  2.8590038e+09
   5894000   5.1981583e-11  3471961.3      102826.3       1.1302733e+09  7.2635621e-05  5.1715887e-07  7.2118462e-05  2.8590052e+09
   5895000   5.1990403e-11  3471958.1      102825.29      1.1302726e+09  7.2635618e-05  5.1722226e-07  7.2118396e-05  2.8590038e+09
   5896000   5.1999222e-11  3471958.1      102822.96      1.1302734e+09  7.2635615e-05  5.1721871e-07  7.2118397e-05  2.8590037e+09
   5897000   5.2008042e-11  3471960.9      102822.21      1.1302746e+09  7.2635616e-05  5.171602e-07   7.2118455e-05  2.8590043e+09
   5898000   5.2016861e-11  3471962.6      102820.53      1.1302757e+09  7.2635617e-05  5.17128e-07    7.2118489e-05  2.8590044e+09
   5899000   5.202568e-11   3471962.1      102821.66      1.1302751e+09  7.2635616e-05  5.1713706e-07  7.2118479e-05  2.8590041e+09
   5900000   5.20345e-11    3471961.5      102828.12      1.1302728e+09  7.2635617e-05  5.1715106e-07  7.2118466e-05  2.8590046e+09
   5901000   5.2043319e-11  3471957.8      102830.32      1.1302708e+09  7.2635619e-05  5.1722952e-07  7.211839e-05   2.8590035e+09
   5902000   5.2052139e-11  3471971        102836.58      1.1302731e+09  7.2635619e-05  5.1695539e-07  7.2118664e-05  2.8590093e+09
   5903000   5.2060958e-11  3471959.3      102833.6       1.1302702e+09  7.2635615e-05  5.1719336e-07  7.2118422e-05  2.8590047e+09
   5904000   5.2069778e-11  3471960        102830.29      1.1302715e+09  7.2635614e-05  5.1717929e-07  7.2118435e-05  2.8590043e+09
   5905000   5.2078597e-11  3471959.9      102827.98      1.1302723e+09  7.2635628e-05  5.1719563e-07  7.2118433e-05  2.8590041e+09
   5906000   5.2087416e-11  3471953.5      102821.47      1.1302723e+09  7.2635632e-05  5.1733131e-07  7.2118301e-05  2.8590023e+09
   5907000   5.2096236e-11  3471942.2      102814.09      1.130271e+09   7.2635631e-05  5.1756407e-07  7.2118067e-05  2.8589989e+09
   5908000   5.2105055e-11  3471936.6      102815.75      1.1302686e+09  7.2635642e-05  5.1769177e-07  7.211795e-05   2.8589981e+09
   5909000   5.2113875e-11  3471949.1      102817.57      1.1302721e+09  7.2635641e-05  5.1743167e-07  7.2118209e-05  2.8590025e+09
   5910000   5.2122694e-11  3471941.8      102817.66      1.1302697e+09  7.2635638e-05  5.1757946e-07  7.2118059e-05  2.8589995e+09
   5911000   5.2131513e-11  3471941.7      102816.29      1.1302701e+09  7.2635635e-05  5.1757906e-07  7.2118056e-05  2.8589985e+09
   5912000   5.2140333e-11  3471932.5      102810.56      1.1302689e+09  7.263563e-05   5.1776572e-07  7.2117864e-05  2.8589938e+09
   5913000   5.2149152e-11  3471940.7      102813.41      1.1302707e+09  7.2635632e-05  5.1759667e-07  7.2118035e-05  2.8589977e+09
   5914000   5.2157972e-11  3471938.7      102811.86      1.1302705e+09  7.263563e-05   5.1763745e-07  7.2117993e-05  2.8589974e+09
   5915000   5.2166791e-11  3471941.9      102816.53      1.1302701e+09  7.2635624e-05  5.1756387e-07  7.211806e-05   2.8589984e+09
   5916000   5.217561e-11   3471950.8      102820.42      1.1302717e+09  7.2635636e-05  5.1739226e-07  7.2118244e-05  2.8590018e+09
   5917000   5.218443e-11   3471951.4      102819.31      1.1302723e+09  7.2635627e-05  5.173702e-07   7.2118257e-05  2.8590008e+09
   5918000   5.2193249e-11  3471957.6      102823.77      1.1302729e+09  7.2635622e-05  5.1723588e-07  7.2118386e-05  2.8590031e+09
   5919000   5.2202069e-11  3471949.6      102821.63      1.1302709e+09  7.2635623e-05  5.1740363e-07  7.2118219e-05  2.8590009e+09
   5920000   5.2210888e-11  3471936.8      102815.37      1.1302687e+09  7.2635622e-05  5.1766805e-07  7.2117954e-05  2.8589964e+09
   5921000   5.2219707e-11  3471936.2      102811.53      1.1302698e+09  7.263562e-05   5.1767986e-07  7.211794e-05   2.8589963e+09
   5922000   5.2228527e-11  3471943.1      102814.74      1.1302711e+09  7.2635616e-05  5.1753199e-07  7.2118084e-05  2.8589981e+09
   5923000   5.2237346e-11  3471947.3      102816.17      1.130272e+09   7.2635612e-05  5.174407e-07   7.2118172e-05  2.8589987e+09
   5924000   5.2246166e-11  3471939.3      102811.96      1.1302707e+09  7.263562e-05   5.1761527e-07  7.2118005e-05  2.8589963e+09
   5925000   5.2254985e-11  3471936.7      102813.36      1.1302694e+09  7.2635618e-05  5.1766609e-07  7.2117952e-05  2.8589958e+09
   5926000   5.2263804e-11  3471941.2      102818.4       1.1302692e+09  7.2635612e-05  5.1756778e-07  7.2118044e-05  2.8589971e+09
   5927000   5.2272624e-11  3471952.8      102823.36      1.1302715e+09  7.263562e-05   5.1733279e-07  7.2118287e-05  2.8590014e+09
   5928000   5.2281443e-11  3471955.3      102822.21      1.1302727e+09  7.2635617e-05  5.1727801e-07  7.2118339e-05  2.8590017e+09
   5929000   5.2290263e-11  3471950.5      102825.74      1.1302699e+09  7.2635625e-05  5.1738779e-07  7.2118237e-05  2.8590016e+09
   5930000   5.2299082e-11  3471948.4      102826.02      1.1302691e+09  7.2635622e-05  5.174275e-07   7.2118195e-05  2.8590014e+09
   5931000   5.2307901e-11  3471948.3      102822.8       1.1302701e+09  7.263562e-05   5.1742838e-07  7.2118192e-05  2.859001e+09 
   5932000   5.2316721e-11  3471940.5      102820.03      1.1302684e+09  7.2635626e-05  5.1759459e-07  7.2118031e-05  2.8589982e+09
   5933000   5.232554e-11   3471947        102819.76      1.1302707e+09  7.2635628e-05  5.1746251e-07  7.2118165e-05  2.8590006e+09
   5934000   5.233436e-11   3471947.7      102821.61      1.1302703e+09  7.2635627e-05  5.1744666e-07  7.211818e-05   2.8590004e+09
   5935000   5.2343179e-11  3471944.1      102815.44      1.1302712e+09  7.2635627e-05  5.1752126e-07  7.2118106e-05  2.8589986e+09
   5936000   5.2351999e-11  3471945.2      102813.85      1.1302721e+09  7.2635619e-05  5.1749008e-07  7.2118129e-05  2.8589987e+09
   5937000   5.2360818e-11  3471943.2      102816.36      1.1302705e+09  7.2635616e-05  5.175299e-07   7.2118086e-05  2.8589982e+09
   5938000   5.2369637e-11  3471944.8      102821.89      1.1302693e+09  7.2635626e-05  5.1750552e-07  7.2118121e-05  2.8590001e+09
   5939000   5.2378457e-11  3471952.4      102821.43      1.130272e+09   7.2635622e-05  5.1734383e-07  7.2118278e-05  2.8590022e+09
   5940000   5.2387276e-11  3471942.2      102819.37      1.1302692e+09  7.2635621e-05  5.1755649e-07  7.2118065e-05  2.858998e+09 
   5941000   5.2396096e-11  3471950        102820.6       1.1302714e+09  7.2635624e-05  5.1739745e-07  7.2118227e-05  2.8590008e+09
   5942000   5.2404915e-11  3471949        102818.9       1.1302717e+09  7.2635623e-05  5.1741526e-07  7.2118207e-05  2.859e+09    
   5943000   5.2413734e-11  3471939.2      102812.08      1.1302707e+09  7.2635619e-05  5.1761522e-07  7.2118004e-05  2.8589963e+09
   5944000   5.2422554e-11  3471933.3      102809.57      1.1302695e+09  7.2635622e-05  5.1774076e-07  7.2117881e-05  2.8589949e+09
   5945000   5.2431373e-11  3471936.3      102814.07      1.130269e+09   7.2635621e-05  5.1767727e-07  7.2117944e-05  2.8589965e+09
   5946000   5.2440193e-11  3471941.3      102815.44      1.1302702e+09  7.2635622e-05  5.1757601e-07  7.2118046e-05  2.8589985e+09
   5947000   5.2449012e-11  3471931.1      102812.25      1.1302679e+09  7.2635627e-05  5.1779096e-07  7.2117836e-05  2.858995e+09 
   5948000   5.2457831e-11  3471944.8      102813.4       1.1302721e+09  7.2635628e-05  5.1750711e-07  7.2118121e-05  2.8590002e+09
   5949000   5.2466651e-11  3471933.7      102810.53      1.1302693e+09  7.2635632e-05  5.1774352e-07  7.2117889e-05  2.8589963e+09
   5950000   5.247547e-11   3471945.6      102819         1.1302705e+09  7.2635631e-05  5.1749435e-07  7.2118137e-05  2.8590013e+09
   5951000   5.248429e-11   3471946.4      102817.17      1.1302714e+09  7.2635628e-05  5.1747441e-07  7.2118154e-05  2.859001e+09 
   5952000   5.2493109e-11  3471944.7      102816.44      1.130271e+09   7.263563e-05   5.1751255e-07  7.2118118e-05  2.859001e+09 
   5953000   5.2501928e-11  3471946.1      102819.3       1.1302706e+09  7.2635634e-05  5.174868e-07   7.2118147e-05  2.8590025e+09
   5954000   5.2510748e-11  3471935.6      102816.53      1.130268e+09   7.2635634e-05  5.177046e-07   7.211793e-05   2.8589991e+09
   5955000   5.2519567e-11  3471937.4      102812.72      1.1302698e+09  7.2635626e-05  5.1765933e-07  7.2117967e-05  2.8589995e+09
   5956000   5.2528387e-11  3471934.3      102812.68      1.1302688e+09  7.2635625e-05  5.1772432e-07  7.2117901e-05  2.8589978e+09
   5957000   5.2537206e-11  3471932        102808.67      1.1302694e+09  7.2635625e-05  5.1777215e-07  7.2117853e-05  2.8589959e+09
   5958000   5.2546025e-11  3471933        102808.46      1.1302698e+09  7.2635623e-05  5.177468e-07   7.2117876e-05  2.8589965e+09
   5959000   5.2554845e-11  3471929.5      102803.6       1.1302702e+09  7.2635628e-05  5.1782549e-07  7.2117802e-05  2.8589963e+09
   5960000   5.2563664e-11  3471924.7      102800.31      1.1302697e+09  7.2635628e-05  5.1792546e-07  7.2117702e-05  2.8589951e+09
   5961000   5.2572484e-11  3471921.4      102794.47      1.1302706e+09  7.2635637e-05  5.1800239e-07  7.2117635e-05  2.8589951e+09
   5962000   5.2581303e-11  3471924.5      102798.17      1.1302704e+09  7.2635629e-05  5.1793077e-07  7.2117698e-05  2.8589964e+09
   5963000   5.2590123e-11  3471920.8      102796.26      1.1302698e+09  7.2635633e-05  5.1801104e-07  7.2117622e-05  2.8589952e+09
   5964000   5.2598942e-11  3471922.3      102798.3       1.1302696e+09  7.2635632e-05  5.1797974e-07  7.2117652e-05  2.8589949e+09
   5965000   5.2607761e-11  3471919.6      102793.25      1.1302704e+09  7.2635636e-05  5.1804071e-07  7.2117596e-05  2.8589943e+09
   5966000   5.2616581e-11  3471919.1      102789.72      1.1302714e+09  7.2635632e-05  5.18046e-07    7.2117586e-05  2.8589943e+09
   5967000   5.26254e-11    3471917.4      102791.49      1.1302702e+09  7.2635634e-05  5.1808399e-07  7.211755e-05   2.8589942e+09
   5968000   5.263422e-11   3471924.6      102798.68      1.1302702e+09  7.263564e-05   5.1793909e-07  7.2117701e-05  2.8589979e+09
   5969000   5.2643039e-11  3471922        102802.12      1.1302682e+09  7.2635647e-05  5.1799966e-07  7.2117647e-05  2.8589982e+09
   5970000   5.2651858e-11  3471919        102797.92      1.1302686e+09  7.2635648e-05  5.1806403e-07  7.2117584e-05  2.8589977e+09
   5971000   5.2660678e-11  3471919.7      102802.56      1.1302673e+09  7.263565e-05   5.1805035e-07  7.2117599e-05  2.8589978e+09
   5972000   5.2669497e-11  3471936        102809.19      1.1302705e+09  7.2635655e-05  5.1771841e-07  7.2117937e-05  2.8590036e+09
   5973000   5.2678317e-11  3471943.7      102809.93      1.1302729e+09  7.2635652e-05  5.1755374e-07  7.2118098e-05  2.8590057e+09
   5974000   5.2687136e-11  3471932.8      102809.49      1.1302694e+09  7.2635648e-05  5.1777787e-07  7.211787e-05   2.8590022e+09
   5975000   5.2695955e-11  3471919.6      102809.33      1.130265e+09   7.2635649e-05  5.1805137e-07  7.2117598e-05  2.8589989e+09
   5976000   5.2704775e-11  3471924.3      102811.77      1.1302658e+09  7.2635645e-05  5.1795063e-07  7.2117694e-05  2.8590014e+09
   5977000   5.2713594e-11  3471924.6      102810.1       1.1302664e+09  7.2635648e-05  5.1794815e-07  7.21177e-05    2.8590015e+09
   5978000   5.2722414e-11  3471917.3      102802.8       1.1302664e+09  7.2635655e-05  5.1810565e-07  7.2117549e-05  2.8589984e+09
   5979000   5.2731233e-11  3471921.6      102809.21      1.1302657e+09  7.2635653e-05  5.1801575e-07  7.2117637e-05  2.859e+09    
   5980000   5.2740052e-11  3471927.8      102808.78      1.1302679e+09  7.2635651e-05  5.1788483e-07  7.2117766e-05  2.8590017e+09
   5981000   5.2748872e-11  3471934.7      102812.99      1.1302688e+09  7.2635654e-05  5.1774346e-07  7.2117911e-05  2.8590037e+09
   5982000   5.2757691e-11  3471930.3      102813.36      1.1302672e+09  7.2635653e-05  5.1783377e-07  7.2117819e-05  2.8590019e+09
   5983000   5.2766511e-11  3471938.9      102814.54      1.1302697e+09  7.2635641e-05  5.1764307e-07  7.2117997e-05  2.8590042e+09
   5984000   5.277533e-11   3471933.1      102816.61      1.1302671e+09  7.2635647e-05  5.1776911e-07  7.2117878e-05  2.8590026e+09
   5985000   5.2784149e-11  3471935        102818.58      1.1302671e+09  7.2635646e-05  5.177294e-07   7.2117917e-05  2.8590033e+09
   5986000   5.2792969e-11  3471936.1      102816.72      1.1302681e+09  7.2635646e-05  5.1770637e-07  7.211794e-05   2.8590037e+09
   5987000   5.2801788e-11  3471931.4      102813.68      1.1302675e+09  7.2635644e-05  5.1780315e-07  7.2117841e-05  2.8590016e+09
   5988000   5.2810608e-11  3471930.1      102809.81      1.1302684e+09  7.2635647e-05  5.1783208e-07  7.2117815e-05  2.8590018e+09
   5989000   5.2819427e-11  3471914.1      102806.62      1.1302641e+09  7.2635649e-05  5.1816711e-07  7.2117482e-05  2.8589967e+09
   5990000   5.2828246e-11  3471910.7      102803.78      1.1302639e+09  7.2635643e-05  5.182322e-07   7.2117411e-05  2.8589949e+09
   5991000   5.2837066e-11  3471925        102808.18      1.1302672e+09  7.263565e-05   5.1794177e-07  7.2117708e-05  2.8590001e+09
   5992000   5.2845885e-11  3471927.9      102809.14      1.1302678e+09  7.2635655e-05  5.1788624e-07  7.2117768e-05  2.8590009e+09
   5993000   5.2854705e-11  3471923.7      102816.4       1.130264e+09   7.2635655e-05  5.1797287e-07  7.2117682e-05  2.8589996e+09
   5994000   5.2863524e-11  3471934.8      102821.65      1.130266e+09   7.2635653e-05  5.1774136e-07  7.2117912e-05  2.8590042e+09
   5995000   5.2872344e-11  3471937.3      102823.05      1.1302664e+09  7.2635652e-05  5.1768696e-07  7.2117965e-05  2.8590048e+09
   5996000   5.2881163e-11  3471941.3      102820.95      1.1302684e+09  7.2635654e-05  5.1760718e-07  7.2118047e-05  2.8590061e+09
   5997000   5.2889982e-11  3471927.9      102818.51      1.1302647e+09  7.2635655e-05  5.1788622e-07  7.2117769e-05  2.8590007e+09
   5998000   5.2898802e-11  3471933.9      102817.75      1.130267e+09   7.2635653e-05  5.1775856e-07  7.2117895e-05  2.8590024e+09
   5999000   5.2907621e-11  3471938.7      102823.35      1.1302667e+09  7.2635652e-05  5.176594e-07   7.2117992e-05  2.859004e+09 
   6000000   5.2916441e-11  3471941.5      102829         1.1302658e+09  7.2635652e-05  5.176005e-07   7.2118052e-05  2.8590048e+09
   6001000   5.292526e-11   3471939.9      102823.63      1.130267e+09   7.263565e-05   5.1763185e-07  7.2118018e-05  2.8590033e+09
   6002000   5.2934079e-11  3471938.4      102820.21      1.1302677e+09  7.2635656e-05  5.1766844e-07  7.2117988e-05  2.8590029e+09
   6003000   5.2942899e-11  3471933        102822.48      1.1302651e+09  7.2635657e-05  5.1778084e-07  7.2117876e-05  2.8590022e+09
   6004000   5.2951718e-11  3471931.6      102819.27      1.1302657e+09  7.2635657e-05  5.1781228e-07  7.2117845e-05  2.8590021e+09
   6005000   5.2960538e-11  3471929.5      102816.64      1.1302659e+09  7.2635663e-05  5.1785954e-07  7.2117803e-05  2.8590016e+09
   6006000   5.2969357e-11  3471936.4      102817.7       1.1302678e+09  7.2635665e-05  5.1772021e-07  7.2117945e-05  2.8590039e+09
   6007000   5.2978176e-11  3471931.9      102821.97      1.1302649e+09  7.2635651e-05  5.1779912e-07  7.2117852e-05  2.8590008e+09
   6008000   5.2986996e-11  3471927.3      102822.08      1.1302633e+09  7.2635648e-05  5.1789182e-07  7.2117756e-05  2.8589987e+09
   6009000   5.2995815e-11  3471919.3      102820.2       1.1302613e+09  7.2635641e-05  5.1805054e-07  7.2117591e-05  2.858995e+09 
   6010000   5.3004635e-11  3471932.3      102821.83      1.1302651e+09  7.2635642e-05  5.1778154e-07  7.211786e-05   2.8589994e+09
   6011000   5.3013454e-11  3471937.3      102828.16      1.1302646e+09  7.2635647e-05  5.1768256e-07  7.2117965e-05  2.8590015e+09
   6012000   5.3022273e-11  3471946.8      102829.79      1.1302673e+09  7.2635647e-05  5.1748626e-07  7.2118161e-05  2.8590052e+09
   6013000   5.3031093e-11  3471943.4      102831.43      1.1302656e+09  7.263565e-05   5.1756033e-07  7.211809e-05   2.859005e+09 
   6014000   5.3039912e-11  3471936.6      102829.54      1.1302639e+09  7.2635643e-05  5.1769336e-07  7.2117949e-05  2.8590022e+09
   6015000   5.3048732e-11  3471942.6      102836.3       1.1302637e+09  7.2635643e-05  5.1756784e-07  7.2118075e-05  2.8590044e+09
   6016000   5.3057551e-11  3471944.7      102834.18      1.1302651e+09  7.2635642e-05  5.1752358e-07  7.2118118e-05  2.8590049e+09
   6017000   5.306637e-11   3471952.6      102840.53      1.1302656e+09  7.2635637e-05  5.1735583e-07  7.2118281e-05  2.8590081e+09
   6018000   5.307519e-11   3471946.7      102843.07      1.1302628e+09  7.263563e-05   5.1746992e-07  7.211816e-05   2.8590057e+09
   6019000   5.3084009e-11  3471943.9      102840.53      1.1302627e+09  7.2635633e-05  5.1753135e-07  7.2118102e-05  2.8590039e+09
   6020000   5.3092829e-11  3471946.1      102837.7       1.1302644e+09  7.2635635e-05  5.1748828e-07  7.2118147e-05  2.8590041e+09
   6021000   5.3101648e-11  3471947.3      102836.87      1.1302651e+09  7.2635645e-05  5.1747302e-07  7.2118172e-05  2.8590054e+09
   6022000   5.3110468e-11  3471936.2      102829.92      1.1302637e+09  7.2635644e-05  5.1770271e-07  7.2117941e-05  2.8590011e+09
   6023000   5.3119287e-11  3471939.3      102829.22      1.130265e+09   7.2635642e-05  5.1763603e-07  7.2118006e-05  2.8590018e+09
   6024000   5.3128106e-11  3471937.7      102828.65      1.1302646e+09  7.2635638e-05  5.1766626e-07  7.2117972e-05  2.8590009e+09
   6025000   5.3136926e-11  3471936.5      102834.13      1.1302624e+09  7.2635633e-05  5.1768561e-07  7.2117948e-05  2.8590013e+09
   6026000   5.3145745e-11  3471932.3      102830.24      1.1302623e+09  7.263563e-05   5.1776865e-07  7.2117861e-05  2.8589996e+09
   6027000   5.3154565e-11  3471928.2      102823.2       1.1302632e+09  7.2635635e-05  5.1785914e-07  7.2117775e-05  2.858998e+09 
   6028000   5.3163384e-11  3471931.9      102823.36      1.1302644e+09  7.2635631e-05  5.1777909e-07  7.2117852e-05  2.8589987e+09
   6029000   5.3172203e-11  3471925.3      102821.76      1.1302628e+09  7.2635633e-05  5.1791769e-07  7.2117715e-05  2.8589966e+09
   6030000   5.3181023e-11  3471917.1      102817.76      1.1302613e+09  7.2635625e-05  5.1807939e-07  7.2117545e-05  2.8589931e+09
   6031000   5.3189842e-11  3471918.5      102821.55      1.1302606e+09  7.2635629e-05  5.1805458e-07  7.2117574e-05  2.8589943e+09
   6032000   5.3198662e-11  3471928.1      102824.77      1.1302627e+09  7.2635637e-05  5.1786358e-07  7.2117773e-05  2.8589983e+09
   6033000   5.3207481e-11  3471929.8      102826.77      1.1302626e+09  7.2635637e-05  5.1782926e-07  7.2117808e-05  2.8589982e+09
   6034000   5.32163e-11    3471935.1      102829.02      1.1302636e+09  7.2635628e-05  5.177093e-07   7.2117919e-05  2.8589991e+09
   6035000   5.322512e-11   3471934.1      102828.74      1.1302634e+09  7.2635635e-05  5.1773781e-07  7.2117897e-05  2.8589989e+09
   6036000   5.3233939e-11  3471937.6      102834.26      1.1302627e+09  7.2635641e-05  5.1767058e-07  7.211797e-05   2.8590008e+09
   6037000   5.3242759e-11  3471940.5      102841.37      1.1302613e+09  7.263564e-05   5.1760807e-07  7.2118032e-05  2.8590026e+09
   6038000   5.3251578e-11  3471941.6      102842.77      1.1302612e+09  7.2635645e-05  5.1759039e-07  7.2118054e-05  2.8590039e+09
   6039000   5.3260397e-11  3471939.4      102840.07      1.1302613e+09  7.2635651e-05  5.1764415e-07  7.2118007e-05  2.8590038e+09
   6040000   5.3269217e-11  3471933.8      102838.5       1.13026e+09    7.2635652e-05  5.1776104e-07  7.2117891e-05  2.8590019e+09
   6041000   5.3278036e-11  3471929.5      102834.87      1.1302598e+09  7.2635658e-05  5.1785696e-07  7.2117801e-05  2.8590016e+09
   6042000   5.3286856e-11  3471924.4      102831.3       1.1302593e+09  7.2635654e-05  5.1795736e-07  7.2117697e-05  2.8589997e+09
   6043000   5.3295675e-11  3471921.1      102831.87      1.130258e+09   7.2635654e-05  5.1802515e-07  7.2117628e-05  2.858998e+09 
   6044000   5.3304494e-11  3471929.1      102833.41      1.1302601e+09  7.2635654e-05  5.1785947e-07  7.2117794e-05  2.859e+09    
   6045000   5.3313314e-11  3471931.6      102832.22      1.1302614e+09  7.2635645e-05  5.1779897e-07  7.2117846e-05  2.8589995e+09
   6046000   5.3322133e-11  3471931.4      102832.71      1.1302611e+09  7.263564e-05   5.1779804e-07  7.2117842e-05  2.8589985e+09
   6047000   5.3330953e-11  3471940.3      102835.93      1.1302631e+09  7.263564e-05   5.1761313e-07  7.2118027e-05  2.8590014e+09
   6048000   5.3339772e-11  3471937.9      102840.89      1.1302606e+09  7.2635641e-05  5.1766364e-07  7.2117978e-05  2.8590006e+09
   6049000   5.3348591e-11  3471937.9      102837.86      1.1302616e+09  7.2635642e-05  5.1766563e-07  7.2117976e-05  2.8590016e+09
   6050000   5.3357411e-11  3471933.4      102832.82      1.1302618e+09  7.2635639e-05  5.177558e-07   7.2117883e-05  2.8590004e+09
   6051000   5.336623e-11   3471924.7      102832.28      1.130259e+09   7.2635641e-05  5.1793908e-07  7.2117702e-05  2.8589974e+09
   6052000   5.337505e-11   3471927.9      102830.44      1.1302607e+09  7.263565e-05   5.1788053e-07  7.211777e-05   2.8589995e+09
   6053000   5.3383869e-11  3471928.3      102832.73      1.1302601e+09  7.263565e-05   5.1787235e-07  7.2117777e-05  2.8590004e+09
   6054000   5.3392689e-11  3471924.7      102827.46      1.1302606e+09  7.2635652e-05  5.1794989e-07  7.2117702e-05  2.8589996e+09
   6055000   5.3401508e-11  3471913.6      102826.18      1.1302573e+09  7.2635648e-05  5.1817593e-07  7.2117472e-05  2.8589952e+09
   6056000   5.3410327e-11  3471920.4      102826.27      1.1302596e+09  7.263565e-05   5.1803712e-07  7.2117613e-05  2.8589974e+09
   6057000   5.3419147e-11  3471918.4      102824.9       1.1302594e+09  7.2635642e-05  5.1807031e-07  7.2117572e-05  2.8589948e+09
   6058000   5.3427966e-11  3471924.9      102824.59      1.1302617e+09  7.2635638e-05  5.179314e-07   7.2117706e-05  2.8589964e+09
   6059000   5.3436786e-11  3471924.2      102824.11      1.1302616e+09  7.2635636e-05  5.1794345e-07  7.2117693e-05  2.8589956e+09
   6060000   5.3445605e-11  3471932.2      102828.5       1.1302628e+09  7.2635633e-05  5.1777398e-07  7.2117859e-05  2.8589987e+09
   6061000   5.3454424e-11  3471931.3      102831.28      1.1302616e+09  7.2635638e-05  5.1779866e-07  7.211784e-05   2.8589992e+09
   6062000   5.3463244e-11  3471922.6      102832.98      1.1302581e+09  7.2635639e-05  5.179796e-07   7.2117659e-05  2.8589964e+09
   6063000   5.3472063e-11  3471928.1      102833.81      1.1302597e+09  7.2635643e-05  5.178689e-07   7.2117774e-05  2.8589991e+09
   6064000   5.3480883e-11  3471927        102834.34      1.1302591e+09  7.2635646e-05  5.1789516e-07  7.2117751e-05  2.8589985e+09
   6065000   5.3489702e-11  3471925.6      102837.31      1.1302576e+09  7.2635641e-05  5.179209e-07   7.211772e-05   2.8589971e+09
   6066000   5.3498521e-11  3471931.3      102836.47      1.1302598e+09  7.2635636e-05  5.1779632e-07  7.2117839e-05  2.858999e+09 
   6067000   5.3507341e-11  3471920.5      102834.1       1.130257e+09   7.2635636e-05  5.180201e-07   7.2117616e-05  2.8589955e+09
   6068000   5.351616e-11   3471921.9      102833.3       1.1302577e+09  7.2635631e-05  5.1798762e-07  7.2117643e-05  2.8589965e+09
   6069000   5.352498e-11   3471928.6      102837.17      1.1302587e+09  7.2635629e-05  5.1784579e-07  7.2117783e-05  2.8589987e+09
   6070000   5.3533799e-11  3471926.6      102837.67      1.1302579e+09  7.2635626e-05  5.1788265e-07  7.2117743e-05  2.8589968e+09
   6071000   5.3542618e-11  3471920.5      102833.08      1.1302573e+09  7.2635625e-05  5.1801027e-07  7.2117615e-05  2.8589938e+09
   6072000   5.3551438e-11  3471927.8      102835.18      1.1302591e+09  7.2635625e-05  5.1785695e-07  7.2117768e-05  2.8589966e+09
   6073000   5.3560257e-11  3471930.3      102833.45      1.1302605e+09  7.2635627e-05  5.1780796e-07  7.2117819e-05  2.8589975e+09
   6074000   5.3569077e-11  3471926.7      102834.64      1.1302589e+09  7.263563e-05   5.1788603e-07  7.2117744e-05  2.8589966e+09
   6075000   5.3577896e-11  3471917.3      102835.83      1.1302553e+09  7.2635629e-05  5.1808091e-07  7.2117548e-05  2.8589929e+09
   6076000   5.3586715e-11  3471924.3      102830.13      1.1302596e+09  7.2635631e-05  5.1793608e-07  7.2117695e-05  2.8589963e+09
   6077000   5.3595535e-11  3471918.7      102845.58      1.1302526e+09  7.2635602e-05  5.1802494e-07  7.2117577e-05  2.8589944e+09
   6078000   5.3604354e-11  3471908.2      102842.35      1.1302501e+09  7.26356e-05    5.1824092e-07  7.2117359e-05  2.8589904e+09
   6079000   5.3613174e-11  3471913.5      102839.5       1.1302529e+09  7.2635592e-05  5.1812236e-07  7.211747e-05   2.8589915e+09
   6080000   5.3621993e-11  3471912.9      102840.32      1.1302524e+09  7.2635588e-05  5.181299e-07   7.2117458e-05  2.8589901e+09
   6081000   5.3630813e-11  3471914.7      102835.58      1.1302546e+09  7.2635588e-05  5.1809327e-07  7.2117495e-05  2.8589902e+09
   6082000   5.3639632e-11  3471914.9      102843.46      1.130252e+09   7.263559e-05   5.1809092e-07  7.2117499e-05  2.8589914e+09
   6083000   5.3648451e-11  3471917.2      102850.23      1.1302505e+09  7.2635583e-05  5.1803531e-07  7.2117548e-05  2.8589925e+09
   6084000   5.3657271e-11  3471920.6      102851.34      1.1302513e+09  7.2635588e-05  5.1796996e-07  7.2117618e-05  2.8589937e+09
   6085000   5.366609e-11   3471923.7      102857.99      1.1302501e+09  7.2635594e-05  5.1791195e-07  7.2117682e-05  2.8589948e+09
   6086000   5.367491e-11   3471927.4      102861.15      1.1302503e+09  7.2635591e-05  5.1783345e-07  7.2117758e-05  2.8589955e+09
   6087000   5.3683729e-11  3471931.5      102859.08      1.1302523e+09  7.2635592e-05  5.1774808e-07  7.2117844e-05  2.8589965e+09
   6088000   5.3692548e-11  3471932.3      102862.8       1.1302514e+09  7.2635591e-05  5.1772964e-07  7.2117861e-05  2.8589965e+09
   6089000   5.3701368e-11  3471926.9      102864.2       1.1302491e+09  7.2635594e-05  5.1784684e-07  7.2117747e-05  2.8589945e+09
   6090000   5.3710187e-11  3471937.4      102866.56      1.1302518e+09  7.2635592e-05  5.1762506e-07  7.2117967e-05  2.8589977e+09
   6091000   5.3719007e-11  3471938.1      102868.03      1.1302516e+09  7.2635584e-05  5.1760208e-07  7.2117982e-05  2.8589967e+09
   6092000   5.3727826e-11  3471935.8      102871.02      1.1302498e+09  7.2635584e-05  5.1765014e-07  7.2117934e-05  2.8589955e+09
   6093000   5.3736645e-11  3471942.7      102875.19      1.1302507e+09  7.2635581e-05  5.1750399e-07  7.2118077e-05  2.8589982e+09
   6094000   5.3745465e-11  3471946.9      102878.55      1.130251e+09   7.2635589e-05  5.1742596e-07  7.2118163e-05  2.8589999e+09
   6095000   5.3754284e-11  3471946.6      102876.58      1.1302516e+09  7.2635593e-05  5.1743537e-07  7.2118158e-05  2.8589996e+09
   6096000   5.3763104e-11  3471941.1      102876.84      1.1302496e+09  7.2635584e-05  5.1753965e-07  7.2118044e-05  2.858997e+09 
   6097000   5.3771923e-11  3471948.3      102879.92      1.130251e+09   7.2635582e-05  5.1738958e-07  7.2118193e-05  2.8589999e+09
   6098000   5.3780742e-11  3471951.9      102886.47      1.13025e+09    7.2635593e-05  5.1732468e-07  7.2118268e-05  2.8590019e+09
   6099000   5.3789562e-11  3471954.4      102889.45      1.1302499e+09  7.2635593e-05  5.1727232e-07  7.211832e-05   2.8590024e+09
   6100000   5.3798381e-11  3471963.8      102890.96      1.1302525e+09  7.2635598e-05  5.1708286e-07  7.2118515e-05  2.8590063e+09
   6101000   5.3807201e-11  3471955.5      102889.75      1.1302501e+09  7.263559e-05   5.1724828e-07  7.2118342e-05  2.859003e+09 
   6102000   5.381602e-11   3471955        102889.67      1.13025e+09    7.2635588e-05  5.1725676e-07  7.2118331e-05  2.8590026e+09
   6103000   5.3824839e-11  3471949.9      102885.56      1.1302497e+09  7.2635587e-05  5.1736058e-07  7.2118226e-05  2.8590003e+09
   6104000   5.3833659e-11  3471953.8      102884.92      1.1302512e+09  7.2635587e-05  5.172796e-07   7.2118307e-05  2.8590013e+09
   6105000   5.3842478e-11  3471946.1      102884.54      1.1302487e+09  7.2635581e-05  5.1743486e-07  7.2118146e-05  2.8589979e+09
   6106000   5.3851298e-11  3471952.2      102886.63      1.1302501e+09  7.2635578e-05  5.1730345e-07  7.2118275e-05  2.8590003e+09
   6107000   5.3860117e-11  3471947.6      102884.92      1.1302491e+09  7.2635575e-05  5.173977e-07   7.2118178e-05  2.8589976e+09
   6108000   5.3868936e-11  3471943.1      102879.32      1.1302495e+09  7.2635577e-05  5.1749326e-07  7.2118084e-05  2.8589956e+09
   6109000   5.3877756e-11  3471939.8      102875.4       1.1302497e+09  7.263558e-05   5.1756402e-07  7.2118016e-05  2.8589948e+09
   6110000   5.3886575e-11  3471936.2      102878.25      1.1302475e+09  7.2635581e-05  5.1763999e-07  7.2117941e-05  2.8589939e+09
   6111000   5.3895395e-11  3471937.2      102875.9       1.1302487e+09  7.2635584e-05  5.1762141e-07  7.2117963e-05  2.858995e+09 
   6112000   5.3904214e-11  3471942.3      102874.39      1.1302509e+09  7.2635585e-05  5.1751642e-07  7.2118068e-05  2.8589968e+09
   6113000   5.3913034e-11  3471942.5      102879.49      1.1302492e+09  7.2635591e-05  5.1751967e-07  7.2118071e-05  2.8589971e+09
   6114000   5.3921853e-11  3471940.9      102879.43      1.1302487e+09  7.263558e-05   5.1754205e-07  7.2118038e-05  2.8589953e+09
   6115000   5.3930672e-11  3471951.7      102884.28      1.1302507e+09  7.2635586e-05  5.1732234e-07  7.2118263e-05  2.8589996e+09
   6116000   5.3939492e-11  3471943.1      102880.78      1.130249e+09   7.2635577e-05  5.1749153e-07  7.2118086e-05  2.8589951e+09
   6117000   5.3948311e-11  3471948.9      102886.6       1.130249e+09   7.2635574e-05  5.1736802e-07  7.2118206e-05  2.8589972e+09
   6118000   5.3957131e-11  3471946.4      102892.23      1.1302462e+09  7.2635572e-05  5.1741925e-07  7.2118152e-05  2.8589967e+09
   6119000   5.396595e-11   3471955        102895.16      1.1302482e+09  7.2635578e-05  5.1724609e-07  7.2118331e-05  2.8590005e+09
   6120000   5.3974769e-11  3471960.8      102896.24      1.1302497e+09  7.2635586e-05  5.1713431e-07  7.2118452e-05  2.8590033e+09
   6121000   5.3983589e-11  3471954.7      102896.34      1.1302477e+09  7.2635586e-05  5.1726021e-07  7.2118326e-05  2.8590012e+09
   6122000   5.3992408e-11  3471951.2      102895.96      1.1302466e+09  7.2635583e-05  5.1732956e-07  7.2118253e-05  2.8590002e+09
   6123000   5.4001228e-11  3471951.5      102892.27      1.130248e+09   7.2635588e-05  5.1732823e-07  7.211826e-05   2.8590002e+09
   6124000   5.4010047e-11  3471945        102889.41      1.1302467e+09  7.2635589e-05  5.1746614e-07  7.2118123e-05  2.8589975e+09
   6125000   5.4018866e-11  3471941        102888.89      1.1302456e+09  7.2635584e-05  5.1754273e-07  7.2118041e-05  2.8589956e+09
   6126000   5.4027686e-11  3471948.8      102892.35      1.130247e+09   7.2635587e-05  5.1738528e-07  7.2118202e-05  2.8589989e+09
   6127000   5.4036505e-11  3471944.4      102892.25      1.1302456e+09  7.2635589e-05  5.1747664e-07  7.2118112e-05  2.8589973e+09
   6128000   5.4045325e-11  3471942.7      102892.57      1.1302449e+09  7.2635593e-05  5.1751558e-07  7.2118077e-05  2.858997e+09 
   6129000   5.4054144e-11  3471942.2      102896.04      1.1302436e+09  7.2635585e-05  5.1752031e-07  7.2118065e-05  2.8589969e+09
   6130000   5.4062963e-11  3471951.9      102900.3       1.1302454e+09  7.2635587e-05  5.1731997e-07  7.2118267e-05  2.8590007e+09
   6131000   5.4071783e-11  3471950.6      102905.39      1.1302433e+09  7.2635584e-05  5.1734477e-07  7.2118239e-05  2.8589997e+09
   6132000   5.4080602e-11  3471951.1      102905.89      1.1302433e+09  7.2635585e-05  5.1733332e-07  7.2118251e-05  2.8589995e+09
   6133000   5.4089422e-11  3471946.8      102899.09      1.1302441e+09  7.2635581e-05  5.1742044e-07  7.2118161e-05  2.858997e+09 
   6134000   5.4098241e-11  3471947.4      102898.8       1.1302444e+09  7.2635575e-05  5.1740195e-07  7.2118173e-05  2.8589964e+09
   6135000   5.410706e-11   3471944.3      102900.21      1.1302429e+09  7.2635585e-05  5.1747653e-07  7.2118109e-05  2.8589959e+09
   6136000   5.411588e-11   3471946.8      102900.46      1.1302436e+09  7.2635577e-05  5.1741647e-07  7.2118161e-05  2.8589959e+09
   6137000   5.4124699e-11  3471948.5      102902.4       1.1302436e+09  7.2635562e-05  5.1736469e-07  7.2118197e-05  2.858995e+09 
   6138000   5.4133519e-11  3471957.5      102907.62      1.1302448e+09  7.2635564e-05  5.171796e-07   7.2118384e-05  2.8589983e+09
   6139000   5.4142338e-11  3471955.4      102911.79      1.1302427e+09  7.2635565e-05  5.1722596e-07  7.2118339e-05  2.8589976e+09
   6140000   5.4151157e-11  3471952.4      102914.15      1.1302409e+09  7.2635574e-05  5.1729647e-07  7.2118277e-05  2.8589981e+09
   6141000   5.4159977e-11  3471952.9      102916.01      1.1302405e+09  7.2635574e-05  5.1728535e-07  7.2118288e-05  2.8589991e+09
   6142000   5.4168796e-11  3471955.6      102913.09      1.1302424e+09  7.2635575e-05  5.1723136e-07  7.2118344e-05  2.8590006e+09
   6143000   5.4177616e-11  3471950.7      102915.39      1.13024e+09    7.2635578e-05  5.1733541e-07  7.2118243e-05  2.8589991e+09
   6144000   5.4186435e-11  3471952        102915.07      1.1302405e+09  7.2635579e-05  5.1730896e-07  7.211827e-05   2.8589995e+09
   6145000   5.4195255e-11  3471945.9      102912.5       1.1302393e+09  7.263558e-05   5.1743679e-07  7.2118144e-05  2.8589966e+09
   6146000   5.4204074e-11  3471945.6      102909.49      1.1302402e+09  7.2635579e-05  5.1744272e-07  7.2118136e-05  2.8589958e+09
   6147000   5.4212893e-11  3471947.1      102910.34      1.1302404e+09  7.2635568e-05  5.1740047e-07  7.2118168e-05  2.8589957e+09
   6148000   5.4221713e-11  3471948.8      102910.08      1.1302411e+09  7.2635557e-05  5.1735294e-07  7.2118204e-05  2.8589959e+09
   6149000   5.4230532e-11  3471943.7      102910.12      1.1302394e+09  7.2635567e-05  5.1746957e-07  7.2118098e-05  2.8589949e+09
   6150000   5.4239352e-11  3471945.9      102910.95      1.1302398e+09  7.263557e-05   5.1742699e-07  7.2118143e-05  2.8589962e+09
   6151000   5.4248171e-11  3471946.8      102914.06      1.1302391e+09  7.2635563e-05  5.1740189e-07  7.2118161e-05  2.8589966e+09
   6152000   5.425699e-11   3471953.1      102914.47      1.1302411e+09  7.2635563e-05  5.1727089e-07  7.2118292e-05  2.8589992e+09
   6153000   5.426581e-11   3471947.9      102914.84      1.1302392e+09  7.2635559e-05  5.1737566e-07  7.2118183e-05  2.8589971e+09
   6154000   5.4274629e-11  3471950.6      102915.6       1.1302398e+09  7.2635567e-05  5.1732674e-07  7.211824e-05   2.8589991e+09
   6155000   5.4283449e-11  3471949.3      102911.95      1.1302406e+09  7.2635565e-05  5.1735208e-07  7.2118213e-05  2.858998e+09 
   6156000   5.4292268e-11  3471949.7      102913.55      1.1302402e+09  7.263557e-05   5.1734931e-07  7.2118221e-05  2.8589978e+09
   6157000   5.4301087e-11  3471952        102910.78      1.1302419e+09  7.263557e-05   5.1730076e-07  7.2118269e-05  2.8589986e+09
   6158000   5.4309907e-11  3471948.5      102913.33      1.1302399e+09  7.2635571e-05  5.1737447e-07  7.2118197e-05  2.8589982e+09
   6159000   5.4318726e-11  3471942.5      102910.16      1.130239e+09   7.2635564e-05  5.1749125e-07  7.2118073e-05  2.8589957e+09
   6160000   5.4327546e-11  3471941.2      102906.79      1.1302396e+09  7.2635568e-05  5.1752397e-07  7.2118044e-05  2.8589949e+09
   6161000   5.4336365e-11  3471947.9      102907.68      1.1302416e+09  7.2635564e-05  5.1737897e-07  7.2118185e-05  2.8589969e+09
   6162000   5.4345184e-11  3471937.3      102905.4       1.1302388e+09  7.2635565e-05  5.1759987e-07  7.2117965e-05  2.8589935e+09
   6163000   5.4354004e-11  3471940.8      102906.77      1.1302395e+09  7.2635565e-05  5.1752698e-07  7.2118038e-05  2.8589955e+09
   6164000   5.4362823e-11  3476606        105548.36      1.130921e+09   7.2732501e-05  5.1756112e-07  7.221494e-05   2.8628053e+09
   6165000   5.4371643e-11  3476595.5      105546.16      1.1309182e+09  7.2732496e-05  5.1777441e-07  7.2214722e-05  2.862801e+09 
   6166000   5.4380462e-11  3476599.4      105541.36      1.1309211e+09  7.2732494e-05  5.1768996e-07  7.2214804e-05  2.8628016e+09
   6167000   5.4389281e-11  3476602.7      105541.88      1.1309221e+09  7.2732492e-05  5.1761944e-07  7.2214873e-05  2.8628026e+09
   6168000   5.4398101e-11  3476601.6      105543.58      1.1309211e+09  7.2732495e-05  5.1764634e-07  7.2214849e-05  2.8628028e+09
   6169000   5.440692e-11   3476600.6      105541.3       1.1309215e+09  7.2732492e-05  5.1766409e-07  7.2214828e-05  2.8628022e+09
   6170000   5.441574e-11   3476604.8      105544.53      1.1309219e+09  7.2732496e-05  5.1757874e-07  7.2214917e-05  2.8628042e+09
   6171000   5.4424559e-11  3476594.7      105542.89      1.130919e+09   7.2732497e-05  5.1779006e-07  7.2214707e-05  2.8628006e+09
   6172000   5.4433379e-11  3476603        105544.86      1.1309211e+09  7.2732495e-05  5.1761677e-07  7.2214878e-05  2.8628036e+09
   6173000   5.4442198e-11  3476602.5      105544.19      1.1309212e+09  7.2732497e-05  5.1762859e-07  7.2214869e-05  2.8628036e+09
   6174000   5.4451017e-11  3476607.2      105549.99      1.1309208e+09  7.27325e-05    5.1753351e-07  7.2214966e-05  2.8628056e+09
   6175000   5.4459837e-11  3476613.7      105552.89      1.1309221e+09  7.2732502e-05  5.1740059e-07  7.2215102e-05  2.8628082e+09
   6176000   5.4468656e-11  3476609.5      105548.91      1.130922e+09   7.2732505e-05  5.1749012e-07  7.2215015e-05  2.8628069e+09
   6177000   5.4477476e-11  3476601.8      105546.49      1.1309202e+09  7.2732509e-05  5.1765405e-07  7.2214854e-05  2.8628045e+09
   6178000   5.4486295e-11  3476601.9      105548.2       1.1309197e+09  7.2732505e-05  5.1764907e-07  7.2214856e-05  2.8628043e+09
   6179000   5.4495114e-11  3476603.5      105548.66      1.13092e+09    7.273251e-05   5.1762112e-07  7.2214889e-05  2.8628056e+09
   6180000   5.4503934e-11  3476604.1      105545.79      1.1309212e+09  7.2732512e-05  5.176109e-07   7.2214901e-05  2.8628061e+09
   6181000   5.4512753e-11  3476597.5      105542.66      1.13092e+09    7.2732516e-05  5.1775265e-07  7.2214764e-05  2.8628041e+09
   6182000   5.4521573e-11  3476596        105538.44      1.1309209e+09  7.2732517e-05  5.1778346e-07  7.2214733e-05  2.8628034e+09
   6183000   5.4530392e-11  3476591.2      105538.18      1.1309194e+09  7.273251e-05   5.1787712e-07  7.2214633e-05  2.8628007e+09
   6184000   5.4539211e-11  3476600.3      105540.41      1.1309217e+09  7.2732509e-05  5.1768624e-07  7.2214823e-05  2.862804e+09 
   6185000   5.4548031e-11  3476595.8      105539.98      1.1309204e+09  7.2732501e-05  5.1777138e-07  7.2214729e-05  2.8628018e+09
   6186000   5.455685e-11   3476591.6      105540.04      1.1309189e+09  7.273251e-05   5.1786869e-07  7.2214642e-05  2.8628006e+09
   6187000   5.456567e-11   3476591.7      105539.37      1.1309192e+09  7.2732508e-05  5.1786343e-07  7.2214644e-05  2.8628003e+09
   6188000   5.4574489e-11  3476588.8      105538.59      1.1309185e+09  7.2732514e-05  5.1793062e-07  7.2214583e-05  2.8627999e+09
   6189000   5.4583308e-11  3476585.6      105535.8       1.1309183e+09  7.2732511e-05  5.1799379e-07  7.2214517e-05  2.8627993e+09
   6190000   5.4592128e-11  3476578.2      105540.05      1.1309144e+09  7.2732506e-05  5.1814246e-07  7.2214364e-05  2.8627969e+09
   6191000   5.4600947e-11  3476588.2      105541.06      1.1309175e+09  7.2732509e-05  5.1793683e-07  7.2214572e-05  2.8628005e+09
   6192000   5.4609767e-11  3476594.9      105542.02      1.1309194e+09  7.2732513e-05  5.1780199e-07  7.2214711e-05  2.8628025e+09
   6193000   5.4618586e-11  3476593.1      105543.21      1.1309184e+09  7.2732517e-05  5.1784297e-07  7.2214674e-05  2.862802e+09 
   6194000   5.4627405e-11  3476597.4      105548.03      1.1309182e+09  7.273252e-05   5.1775828e-07  7.2214762e-05  2.8628049e+09
   6195000   5.4636225e-11  3476588        105549.22      1.1309147e+09  7.2732513e-05  5.1794629e-07  7.2214566e-05  2.8628015e+09
   6196000   5.4645044e-11  3476593.5      105544.77      1.130918e+09   7.2732505e-05  5.1782501e-07  7.221468e-05   2.8628025e+09
   6197000   5.4653864e-11  3476596.1      105550.02      1.1309171e+09  7.2732509e-05  5.1777277e-07  7.2214736e-05  2.8628033e+09
   6198000   5.4662683e-11  3476607.4      105553.22      1.1309198e+09  7.2732509e-05  5.1753951e-07  7.2214969e-05  2.8628074e+09
   6199000   5.4671502e-11  3476605.7      105556.11      1.1309183e+09  7.2732514e-05  5.1757945e-07  7.2214935e-05  2.8628073e+09
   6200000   5.4680322e-11  3476603.2      105556.26      1.1309174e+09  7.2732517e-05  5.1763485e-07  7.2214882e-05  2.8628069e+09
   6201000   5.4689141e-11  3476595.6      105549.64      1.1309171e+09  7.2732518e-05  5.1779231e-07  7.2214726e-05  2.8628041e+09
   6202000   5.4697961e-11  3476599.3      105551.92      1.1309175e+09  7.273252e-05   5.1771892e-07  7.2214801e-05  2.8628056e+09
   6203000   5.470678e-11   3476611.6      105560.24      1.1309189e+09  7.2732518e-05  5.1746054e-07  7.2215057e-05  2.8628097e+09
   6204000   5.47156e-11    3476605        105557.25      1.1309177e+09  7.2732526e-05  5.17605e-07    7.2214921e-05  2.8628077e+09
   6205000   5.4724419e-11  3476608.5      105559.09      1.1309182e+09  7.2732517e-05  5.1752457e-07  7.2214992e-05  2.8628086e+09
   6206000   5.4733238e-11  3476609.8      105559.73      1.1309185e+09  7.2732514e-05  5.1749334e-07  7.2215021e-05  2.8628086e+09
   6207000   5.4742058e-11  3476610.3      105557.32      1.1309194e+09  7.273252e-05   5.1749061e-07  7.2215029e-05  2.8628083e+09
   6208000   5.4750877e-11  3476611.4      105553.95      1.1309209e+09  7.2732521e-05  5.1746926e-07  7.2215052e-05  2.8628088e+09
   6209000   5.4759697e-11  3476611        105560.06      1.1309187e+09  7.2732519e-05  5.1747425e-07  7.2215045e-05  2.8628095e+09
   6210000   5.4768516e-11  3476603.3      105560.76      1.1309159e+09  7.273252e-05   5.1763556e-07  7.2214885e-05  2.8628074e+09
   6211000   5.4777335e-11  3476606.1      105562.11      1.1309164e+09  7.2732517e-05  5.175742e-07   7.2214943e-05  2.8628082e+09
   6212000   5.4786155e-11  3476610.7      105563.18      1.1309176e+09  7.2732518e-05  5.1747983e-07  7.2215039e-05  2.8628094e+09
   6213000   5.4794974e-11  3476614        105563.38      1.1309187e+09  7.2732516e-05  5.1740845e-07  7.2215108e-05  2.8628097e+09
   6214000   5.4803794e-11  3476610        105564.94      1.1309168e+09  7.2732517e-05  5.174932e-07   7.2215024e-05  2.862808e+09 
   6215000   5.4812613e-11  3476615.3      105565.46      1.1309184e+09  7.2732515e-05  5.1738111e-07  7.2215134e-05  2.8628096e+09
   6216000   5.4821432e-11  3476611.6      105562.27      1.1309182e+09  7.2732521e-05  5.1746374e-07  7.2215058e-05  2.862809e+09 
   6217000   5.4830252e-11  3476596.4      105552.6       1.1309164e+09  7.2732521e-05  5.177789e-07   7.2214743e-05  2.8628041e+09
   6218000   5.4839071e-11  3476593.2      105554.87      1.1309145e+09  7.2732524e-05  5.1784859e-07  7.2214675e-05  2.8628034e+09
   6219000   5.4847891e-11  3476605.3      105559.97      1.1309169e+09  7.273252e-05   5.1759291e-07  7.2214927e-05  2.8628076e+09
   6220000   5.485671e-11   3476610.1      105564.4       1.130917e+09   7.2732521e-05  5.174948e-07   7.2215026e-05  2.8628094e+09
   6221000   5.4865529e-11  3476606.6      105568.95      1.1309143e+09  7.2732519e-05  5.1756521e-07  7.2214954e-05  2.8628089e+09
   6222000   5.4874349e-11  3476608        105572.58      1.1309135e+09  7.2732514e-05  5.1753264e-07  7.2214982e-05  2.8628102e+09
   6223000   5.4883168e-11  3476604.8      105574.21      1.1309119e+09  7.2732512e-05  5.1759614e-07  7.2214915e-05  2.8628093e+09
   6224000   5.4891988e-11  3476603        105566.36      1.130914e+09   7.273251e-05   5.1763063e-07  7.2214879e-05  2.8628077e+09
   6225000   5.4900807e-11  3476605.1      105565.48      1.1309149e+09  7.2732512e-05  5.1759016e-07  7.2214922e-05  2.8628076e+09
   6226000   5.4909626e-11  3476605        105560.28      1.1309166e+09  7.2732504e-05  5.1758474e-07  7.2214919e-05  2.8628062e+09
   6227000   5.4918446e-11  3476611        105565.36      1.130917e+09   7.2732498e-05  5.1745331e-07  7.2215045e-05  2.8628082e+09
   6228000   5.4927265e-11  3476605.3      105565.31      1.1309151e+09  7.2732503e-05  5.175759e-07   7.2214927e-05  2.8628071e+09
   6229000   5.4936085e-11  3476605.3      105567.85      1.1309142e+09  7.2732506e-05  5.1757898e-07  7.2214927e-05  2.8628082e+09
   6230000   5.4944904e-11  3476606.3      105565.41      1.1309154e+09  7.2732508e-05  5.1756049e-07  7.2214947e-05  2.8628087e+09
   6231000   5.4953724e-11  3476598.7      105559.4       1.1309148e+09  7.273251e-05   5.1772089e-07  7.2214789e-05  2.8628049e+09
   6232000   5.4962543e-11  3476599.1      105562.36      1.130914e+09   7.2732513e-05  5.1771585e-07  7.2214797e-05  2.8628051e+09
   6233000   5.4971362e-11  3476601.7      105562.8       1.1309147e+09  7.2732511e-05  5.176582e-07   7.2214852e-05  2.8628064e+09
   6234000   5.4980182e-11  3476601.7      105561.87      1.130915e+09   7.2732504e-05  5.1765137e-07  7.2214852e-05  2.8628063e+09
   6235000   5.4989001e-11  3476600        105561.41      1.1309146e+09  7.2732515e-05  5.1769837e-07  7.2214817e-05  2.8628064e+09
   6236000   5.4997821e-11  3476596.7      105557.21      1.1309149e+09  7.2732521e-05  5.177737e-07   7.2214748e-05  2.8628053e+09
   6237000   5.500664e-11   3476592.6      105556.03      1.1309139e+09  7.2732521e-05  5.1785867e-07  7.2214663e-05  2.8628041e+09
   6238000   5.5015459e-11  3476604.6      105561.72      1.130916e+09   7.2732518e-05  5.1760622e-07  7.2214912e-05  2.8628085e+09
   6239000   5.5024279e-11  3476602.3      105566.93      1.1309135e+09  7.2732525e-05  5.1766187e-07  7.2214863e-05  2.8628077e+09
   6240000   5.5033098e-11  3476606.4      105567.28      1.1309148e+09  7.2732521e-05  5.175718e-07   7.2214949e-05  2.862808e+09 
   6241000   5.5041918e-11  3476609.7      105565.81      1.1309164e+09  7.2732519e-05  5.1750125e-07  7.2215018e-05  2.8628092e+09
   6242000   5.5050737e-11  3476597.4      105559.29      1.1309144e+09  7.2732519e-05  5.1775715e-07  7.2214761e-05  2.8628051e+09
   6243000   5.5059556e-11  3476592.6      105558.87      1.130913e+09   7.2732523e-05  5.1786055e-07  7.2214662e-05  2.8628037e+09
   6244000   5.5068376e-11  3476603.2      105562.19      1.1309154e+09  7.273253e-05   5.1764593e-07  7.2214884e-05  2.8628079e+09
   6245000   5.5077195e-11  3476600.7      105561.8       1.1309147e+09  7.2732521e-05  5.1769039e-07  7.221483e-05   2.862806e+09 
   6246000   5.5086015e-11  3476598.4      105561.89      1.1309139e+09  7.2732521e-05  5.1773859e-07  7.2214782e-05  2.862805e+09 
   6247000   5.5094834e-11  3476596.6      105563.19      1.1309129e+09  7.2732522e-05  5.1777544e-07  7.2214747e-05  2.8628048e+09
   6248000   5.5103653e-11  3476590.2      105562.35      1.130911e+09   7.2732529e-05  5.1791569e-07  7.2214613e-05  2.8628035e+09
   6249000   5.5112473e-11  3476595.9      105565.63      1.1309118e+09  7.2732532e-05  5.1779975e-07  7.2214732e-05  2.8628063e+09
   6250000   5.5121292e-11  3476592.3      105564.14      1.1309111e+09  7.2732531e-05  5.1787379e-07  7.2214657e-05  2.8628044e+09
   6251000   5.5130112e-11  3476598        105564.51      1.1309129e+09  7.273253e-05   5.1775603e-07  7.2214774e-05  2.8628059e+09
   6252000   5.5138931e-11  3476601.3      105570.23      1.1309121e+09  7.273253e-05   5.1768552e-07  7.2214844e-05  2.8628067e+09
   6253000   5.514775e-11   3476611.7      105578.96      1.1309127e+09  7.2732526e-05  5.1746687e-07  7.2215059e-05  2.8628103e+09
   6254000   5.515657e-11   3476613.3      105582.51      1.130912e+09   7.2732518e-05  5.1742427e-07  7.2215094e-05  2.86281e+09  
   6255000   5.5165389e-11  3476622.2      105583.61      1.1309146e+09  7.2732522e-05  5.1724399e-07  7.2215278e-05  2.8628134e+09
   6256000   5.5174209e-11  3476632.6      105587.98      1.1309166e+09  7.2732519e-05  5.1702641e-07  7.2215493e-05  2.8628165e+09
   6257000   5.5183028e-11  3476626.9      105591.34      1.1309136e+09  7.2732526e-05  5.1714986e-07  7.2215376e-05  2.8628152e+09
   6258000   5.5191847e-11  3476622.6      105587.5       1.1309135e+09  7.2732524e-05  5.1723866e-07  7.2215285e-05  2.8628133e+09
   6259000   5.5200667e-11  3476619.7      105585.26      1.1309133e+09  7.2732524e-05  5.1729771e-07  7.2215226e-05  2.8628124e+09
   6260000   5.5209486e-11  3476614        105582.82      1.1309121e+09  7.2732524e-05  5.1741723e-07  7.2215107e-05  2.862811e+09 
   6261000   5.5218306e-11  3476617.5      105582.28      1.1309135e+09  7.2732523e-05  5.1734427e-07  7.2215179e-05  2.862812e+09 
   6262000   5.5227125e-11  3476615.8      105583.07      1.1309127e+09  7.2732524e-05  5.17379e-07    7.2215145e-05  2.8628111e+09
   6263000   5.5235945e-11  3476617.1      105584.42      1.1309126e+09  7.2732522e-05  5.1735111e-07  7.2215171e-05  2.862811e+09 
   6264000   5.5244764e-11  3476620        105582.83      1.1309142e+09  7.2732519e-05  5.1728746e-07  7.2215232e-05  2.8628115e+09
   6265000   5.5253583e-11  3476615.7      105582.21      1.1309129e+09  7.2732516e-05  5.1737444e-07  7.2215142e-05  2.8628098e+09
   6266000   5.5262403e-11  3476616.5      105581.33      1.1309135e+09  7.2732521e-05  5.1736155e-07  7.221516e-05   2.8628109e+09
   6267000   5.5271222e-11  3476612.2      105580.58      1.1309123e+09  7.2732516e-05  5.174452e-07   7.2215071e-05  2.8628098e+09
   6268000   5.5280042e-11  3476605.5      105579.98      1.1309103e+09  7.2732524e-05  5.1759288e-07  7.2214931e-05  2.862809e+09 
   6269000   5.5288861e-11  3476614.9      105583.41      1.1309123e+09  7.2732519e-05  5.1739295e-07  7.2215126e-05  2.8628125e+09
   6270000   5.529768e-11   3476610.2      105581.64      1.1309113e+09  7.2732518e-05  5.1748961e-07  7.2215029e-05  2.8628099e+09
   6271000   5.53065e-11    3476609.9      105578.73      1.1309121e+09  7.2732521e-05  5.1749978e-07  7.2215021e-05  2.8628096e+09
   6272000   5.5315319e-11  3476609.7      105578.45      1.1309122e+09  7.2732523e-05  5.1750475e-07  7.2215018e-05  2.8628098e+09
   6273000   5.5324139e-11  3476616.9      105582.07      1.1309134e+09  7.2732521e-05  5.1735313e-07  7.2215167e-05  2.8628124e+09
   6274000   5.5332958e-11  3476618        105586.68      1.1309122e+09  7.2732518e-05  5.1732827e-07  7.221519e-05   2.8628125e+09
   6275000   5.5341777e-11  3476619.3      105587.1       1.1309125e+09  7.2732523e-05  5.1730666e-07  7.2215217e-05  2.8628123e+09
   6276000   5.5350597e-11  3476615.5      105580.81      1.1309133e+09  7.2732512e-05  5.1737471e-07  7.2215138e-05  2.8628091e+09
   6277000   5.5359416e-11  3476611.3      105578.64      1.1309126e+09  7.273251e-05   5.1745877e-07  7.2215051e-05  2.8628075e+09
   6278000   5.5368236e-11  3476599.3      105572.37      1.1309107e+09  7.2732509e-05  5.177063e-07   7.2214802e-05  2.8628032e+09
   6279000   5.5377055e-11  3476604.3      105571.11      1.1309128e+09  7.2732516e-05  5.1761026e-07  7.2214906e-05  2.8628058e+09
   6280000   5.5385874e-11  3476602.6      105568.36      1.1309132e+09  7.2732516e-05  5.1764565e-07  7.2214871e-05  2.8628052e+09
   6281000   5.5394694e-11  3476609.2      105574.24      1.1309134e+09  7.273252e-05   5.1751245e-07  7.2215008e-05  2.8628082e+09
   6282000   5.5403513e-11  3476600.5      105574.81      1.1309103e+09  7.2732513e-05  5.1768699e-07  7.2214826e-05  2.8628045e+09
   6283000   5.5412333e-11  3476607.1      105578.69      1.1309112e+09  7.2732504e-05  5.175407e-07   7.2214963e-05  2.862806e+09 
   6284000   5.5421152e-11  3476616.3      105584.99      1.1309122e+09  7.2732501e-05  5.1734537e-07  7.2215156e-05  2.8628085e+09
   6285000   5.5429971e-11  3476617.9      105585.65      1.1309125e+09  7.2732505e-05  5.1731628e-07  7.2215189e-05  2.8628086e+09
   6286000   5.5438791e-11  3476623        105587.78      1.1309135e+09  7.2732496e-05  5.1720279e-07  7.2215294e-05  2.8628095e+09
   6287000   5.544761e-11   3476621.5      105588.95      1.1309126e+09  7.2732501e-05  5.1723754e-07  7.2215264e-05  2.8628097e+09
   6288000   5.545643e-11   3476614.2      105586.06      1.1309111e+09  7.2732506e-05  5.1739425e-07  7.2215111e-05  2.862807e+09 
   6289000   5.5465249e-11  3476620.4      105589.05      1.1309122e+09  7.2732518e-05  5.1727796e-07  7.221524e-05   2.8628105e+09
   6290000   5.5474069e-11  3476620.4      105589.63      1.130912e+09   7.2732518e-05  5.1727692e-07  7.2215241e-05  2.8628105e+09
   6291000   5.5482888e-11  3476622.4      105589.58      1.1309127e+09  7.2732509e-05  5.1722691e-07  7.2215283e-05  2.862811e+09 
   6292000   5.5491707e-11  3476617.2      105606.7       1.1309052e+09  7.2732659e-05  5.1748537e-07  7.2215174e-05  2.862812e+09 
   6293000   5.5500527e-11  3476620.7      105606.44      1.1309065e+09  7.2732656e-05  5.1740918e-07  7.2215247e-05  2.862813e+09 
   6294000   5.5509346e-11  3476623        105608.78      1.1309065e+09  7.2732656e-05  5.1736142e-07  7.2215295e-05  2.8628137e+09
   6295000   5.5518166e-11  3476617        105606.67      1.1309052e+09  7.2732656e-05  5.1748592e-07  7.221517e-05   2.8628119e+09
   6296000   5.5526985e-11  3476613.1      105601.59      1.1309056e+09  7.2732655e-05  5.1756733e-07  7.2215088e-05  2.8628098e+09
   6297000   5.5535804e-11  3476616.3      105595.89      1.1309085e+09  7.2732664e-05  5.1750928e-07  7.2215154e-05  2.8628116e+09
   6298000   5.5544624e-11  3476605        105593.76      1.1309055e+09  7.2732664e-05  5.1774382e-07  7.2214921e-05  2.8628078e+09
   6299000   5.5553443e-11  3476612.9      105598.67      1.1309065e+09  7.2732668e-05  5.1758437e-07  7.2215084e-05  2.8628114e+09
   6300000   5.5562263e-11  3476622.4      105598.68      1.1309096e+09  7.273267e-05   5.1738925e-07  7.2215281e-05  2.862815e+09 
   6301000   5.5571082e-11  3476613        105592.61      1.1309085e+09  7.2732677e-05  5.1759156e-07  7.2215085e-05  2.8628122e+09
   6302000   5.5579901e-11  3476607.4      105590.08      1.1309075e+09  7.2732675e-05  5.1770525e-07  7.221497e-05   2.8628101e+09
   6303000   5.5588721e-11  3476610.2      105591.02      1.1309081e+09  7.2732663e-05  5.1763383e-07  7.2215029e-05  2.8628098e+09
   6304000   5.559754e-11   3476607        105589.23      1.1309077e+09  7.2732668e-05  5.1770644e-07  7.2214962e-05  2.8628087e+09
   6305000   5.560636e-11   3476618.8      105594.22      1.1309099e+09  7.2732666e-05  5.1745953e-07  7.2215207e-05  2.8628129e+09
   6306000   5.5615179e-11  3476608.8      105588.26      1.1309086e+09  7.2732666e-05  5.1766645e-07  7.2214999e-05  2.8628096e+09
   6307000   5.5623998e-11  3476609.9      105589.23      1.1309086e+09  7.2732664e-05  5.1764186e-07  7.2215022e-05  2.8628113e+09
   6308000   5.5632818e-11  3476598.5      105585.85      1.1309059e+09  7.2732669e-05  5.1788335e-07  7.2214785e-05  2.8628082e+09
   6309000   5.5641637e-11  3476603.5      105587.34      1.1309071e+09  7.2732667e-05  5.177787e-07   7.2214889e-05  2.8628104e+09
   6310000   5.5650457e-11  3476596.4      105581.43      1.1309067e+09  7.2732667e-05  5.1792501e-07  7.2214742e-05  2.8628069e+09
   6311000   5.5659276e-11  3476603.2      105581.43      1.130909e+09   7.2732665e-05  5.1778296e-07  7.2214882e-05  2.8628092e+09
   6312000   5.5668095e-11  3476599.1      105579.48      1.1309082e+09  7.2732668e-05  5.1787132e-07  7.2214797e-05  2.862808e+09 
   6313000   5.5676915e-11  3476594.4      105580.23      1.1309064e+09  7.2732666e-05  5.179654e-07   7.22147e-05    2.8628062e+09
   6314000   5.5685734e-11  3476595.6      105577.05      1.1309079e+09  7.2732663e-05  5.1793886e-07  7.2214724e-05  2.8628064e+09
   6315000   5.5694554e-11  3476600.5      105580.77      1.1309083e+09  7.2732656e-05  5.1782865e-07  7.2214827e-05  2.862808e+09 
   6316000   5.5703373e-11  3476605.9      105585.83      1.1309084e+09  7.2732662e-05  5.1772363e-07  7.2214938e-05  2.8628108e+09
   6317000   5.5712192e-11  3476605.3      105585.72      1.1309083e+09  7.2732662e-05  5.1773508e-07  7.2214927e-05  2.8628106e+09
   6318000   5.5721012e-11  3476604.2      105587.84      1.1309072e+09  7.2732665e-05  5.1776191e-07  7.2214903e-05  2.8628106e+09
   6319000   5.5729831e-11  3476607.4      105588.64      1.130908e+09   7.273266e-05   5.1768939e-07  7.2214971e-05  2.8628124e+09
   6320000   5.5738651e-11  3476602.5      105593.88      1.1309046e+09  7.2732667e-05  5.1779782e-07  7.2214869e-05  2.8628118e+09
   6321000   5.574747e-11   3476614.5      105598.62      1.130907e+09   7.2732671e-05  5.1755365e-07  7.2215118e-05  2.8628164e+09
   6322000   5.575629e-11   3476613.6      105599.15      1.1309065e+09  7.2732667e-05  5.1756817e-07  7.2215099e-05  2.862815e+09 
   6323000   5.5765109e-11  3476613.4      105598.18      1.1309068e+09  7.2732668e-05  5.1757287e-07  7.2215095e-05  2.8628146e+09
   6324000   5.5773928e-11  3476614.2      105598.46      1.130907e+09   7.2732662e-05  5.1755077e-07  7.2215112e-05  2.8628144e+09
   6325000   5.5782748e-11  3476612        105597.07      1.1309067e+09  7.2732656e-05  5.1758913e-07  7.2215067e-05  2.8628127e+09
   6326000   5.5791567e-11  3476610        105596.04      1.1309064e+09  7.2732665e-05  5.1764039e-07  7.2215024e-05  2.8628126e+09
   6327000   5.5800387e-11  3476612.1      105593.33      1.130908e+09   7.2732666e-05  5.1759931e-07  7.2215067e-05  2.8628133e+09
   6328000   5.5809206e-11  3476610.4      105591.83      1.1309079e+09  7.2732653e-05  5.1762075e-07  7.2215032e-05  2.8628116e+09
   6329000   5.5818025e-11  3476608        105593.7       1.1309065e+09  7.2732651e-05  5.1766859e-07  7.2214982e-05  2.8628101e+09
   6330000   5.5826845e-11  3476619.2      105600.42      1.130908e+09   7.2732659e-05  5.1744325e-07  7.2215216e-05  2.8628144e+09
   6331000   5.5835664e-11  3476614.9      105596.25      1.130908e+09   7.273266e-05   5.1753428e-07  7.2215126e-05  2.8628129e+09
   6332000   5.5844484e-11  3476604.3      105590.72      1.1309062e+09  7.2732651e-05  5.1774537e-07  7.2214906e-05  2.8628086e+09
   6333000   5.5853303e-11  3476602        105593.83      1.1309044e+09  7.273266e-05   5.1780231e-07  7.2214858e-05  2.8628088e+09
   6334000   5.5862122e-11  3476600.2      105585.01      1.1309068e+09  7.2732661e-05  5.1784027e-07  7.2214821e-05  2.8628075e+09
   6335000   5.5870942e-11  3476603.5      105582.7       1.1309087e+09  7.2732666e-05  5.1777761e-07  7.2214889e-05  2.8628082e+09
   6336000   5.5879761e-11  3476612.1      105585.48      1.1309106e+09  7.2732661e-05  5.1759385e-07  7.2215067e-05  2.8628106e+09
   6337000   5.5888581e-11  3476612.1      105589.39      1.1309093e+09  7.2732665e-05  5.1759808e-07  7.2215067e-05  2.8628114e+09
   6338000   5.58974e-11    3476606.1      105593.08      1.1309061e+09  7.2732662e-05  5.1771927e-07  7.2214943e-05  2.8628105e+09
   6339000   5.5906219e-11  3476599.6      105593.47      1.1309037e+09  7.2732675e-05  5.1786817e-07  7.2214807e-05  2.8628096e+09
   6340000   5.5915039e-11  3476605.6      105597.25      1.1309045e+09  7.2732675e-05  5.1774314e-07  7.2214932e-05  2.8628113e+09
   6341000   5.5923858e-11  3476607.3      105594.32      1.130906e+09   7.2732679e-05  5.1771174e-07  7.2214968e-05  2.8628121e+09
   6342000   5.5932678e-11  3476602.1      105596.38      1.1309036e+09  7.2732675e-05  5.1781599e-07  7.2214859e-05  2.8628095e+09
   6343000   5.5941497e-11  3476612.8      105599.18      1.1309063e+09  7.2732667e-05  5.1758482e-07  7.2215083e-05  2.8628122e+09
   6344000   5.5950316e-11  3476618.5      105603.55      1.1309067e+09  7.2732664e-05  5.1746393e-07  7.22152e-05    2.8628142e+09
   6345000   5.5959136e-11  3476610.9      105607.88      1.1309027e+09  7.2732665e-05  5.1762253e-07  7.2215042e-05  2.8628122e+09
   6346000   5.5967955e-11  3476613.7      105612.18      1.1309022e+09  7.2732668e-05  5.1756594e-07  7.2215102e-05  2.8628143e+09
   6347000   5.5976775e-11  3476616.9      105611.33      1.1309036e+09  7.2732676e-05  5.175082e-07   7.2215167e-05  2.8628164e+09
   6348000   5.5985594e-11  3476615.3      105611.54      1.130903e+09   7.2732681e-05  5.1754658e-07  7.2215135e-05  2.8628161e+09
   6349000   5.5994414e-11  3476619        105610.65      1.1309045e+09  7.2732677e-05  5.1746697e-07  7.221521e-05   2.8628169e+09
   6350000   5.6003233e-11  3476611.6      105608.77      1.1309027e+09  7.273267e-05   5.1761235e-07  7.2215058e-05  2.8628134e+09
   6351000   5.6012052e-11  3476605        105608.5       1.1309005e+09  7.2732669e-05  5.1774872e-07  7.221492e-05   2.8628113e+09
   6352000   5.6020872e-11  3476610.3      105607.66      1.1309026e+09  7.2732668e-05  5.1763821e-07  7.221503e-05   2.8628139e+09
   6353000   5.6029691e-11  3476606.5      105606.15      1.1309018e+09  7.2732671e-05  5.1772038e-07  7.221495e-05   2.8628127e+09
   6354000   5.6038511e-11  3476614.1      105608.71      1.1309035e+09  7.2732667e-05  5.1755662e-07  7.221511e-05   2.862815e+09 
   6355000   5.604733e-11   3476611.7      105609.46      1.1309025e+09  7.2732672e-05  5.1761249e-07  7.221506e-05   2.8628143e+09
   6356000   5.6056149e-11  3476604        105605.29      1.1309013e+09  7.273267e-05   5.1776964e-07  7.22149e-05    2.8628115e+09
   6357000   5.6064969e-11  3476604.4      105602.71      1.1309023e+09  7.273267e-05   5.1776304e-07  7.2214907e-05  2.8628126e+09
   6358000   5.6073788e-11  3476601.2      105600.64      1.1309019e+09  7.2732678e-05  5.1783768e-07  7.2214841e-05  2.8628125e+09
   6359000   5.6082608e-11  3476606.9      105600.35      1.1309039e+09  7.2732685e-05  5.177255e-07   7.2214959e-05  2.8628151e+09
   6360000   5.6091427e-11  3476606.7      105599.04      1.1309043e+09  7.2732685e-05  5.1772939e-07  7.2214956e-05  2.8628153e+09
   6361000   5.6100246e-11  3476598        105597.44      1.1309019e+09  7.2732681e-05  5.1790702e-07  7.2214774e-05  2.8628118e+09
   6362000   5.6109066e-11  3476592.7      105591.57      1.1309021e+09  7.2732679e-05  5.1801292e-07  7.2214666e-05  2.8628096e+09
   6363000   5.6117885e-11  3476607.9      105594.65      1.1309061e+09  7.2732675e-05  5.1769511e-07  7.221498e-05   2.862815e+09 
   6364000   5.6126705e-11  3476595.7      105592.01      1.1309029e+09  7.2732676e-05  5.1794859e-07  7.2214728e-05  2.8628108e+09
   6365000   5.6135524e-11  3476597.8      105597.38      1.1309018e+09  7.2732671e-05  5.179001e-07   7.2214771e-05  2.8628114e+09
   6366000   5.6144343e-11  3476601.3      105598.55      1.1309026e+09  7.2732671e-05  5.1782671e-07  7.2214844e-05  2.8628123e+09
   6367000   5.6153163e-11  3476601.3      105596.68      1.1309033e+09  7.2732672e-05  5.1782854e-07  7.2214844e-05  2.8628121e+09
   6368000   5.6161982e-11  3476606.6      105599.51      1.1309041e+09  7.2732664e-05  5.1770929e-07  7.2214954e-05  2.862814e+09 
   6369000   5.6170802e-11  3476605.3      105602.07      1.1309028e+09  7.2732655e-05  5.1772858e-07  7.2214926e-05  2.862813e+09 
   6370000   5.6179621e-11  3476605.7      105604.39      1.1309022e+09  7.2732656e-05  5.1772059e-07  7.2214936e-05  2.8628133e+09
   6371000   5.618844e-11   3476597.1      105608.83      1.1308978e+09  7.2732653e-05  5.1789695e-07  7.2214756e-05  2.8628094e+09
   6372000   5.619726e-11   3476610        105607.78      1.1309025e+09  7.2732659e-05  5.1763468e-07  7.2215024e-05  2.8628141e+09
   6373000   5.6206079e-11  3476607.8      105607.9       1.1309017e+09  7.2732667e-05  5.1768968e-07  7.2214977e-05  2.8628138e+09
   6374000   5.6214899e-11  3476607.3      105606.67      1.1309019e+09  7.2732667e-05  5.176984e-07   7.2214968e-05  2.862814e+09 
   6375000   5.6223718e-11  3476605.9      105603.82      1.1309024e+09  7.2732667e-05  5.1772867e-07  7.2214938e-05  2.8628135e+09
   6376000   5.6232537e-11  3476604.6      105605.79      1.1309013e+09  7.2732662e-05  5.1774963e-07  7.2214913e-05  2.8628128e+09
   6377000   5.6241357e-11  3476604.1      105605.62      1.1309012e+09  7.2732665e-05  5.1776378e-07  7.2214901e-05  2.8628127e+09
   6378000   5.6250176e-11  3476617.5      105614.31      1.1309028e+09  7.273266e-05   5.1748107e-07  7.2215179e-05  2.8628168e+09
   6379000   5.6258996e-11  3476611.8      105613.35      1.1309012e+09  7.273266e-05   5.1759948e-07  7.2215061e-05  2.8628138e+09
   6380000   5.6267815e-11  3476621.3      105612.71      1.1309046e+09  7.2732658e-05  5.1739866e-07  7.2215259e-05  2.8628167e+09
   6381000   5.6276635e-11  3476621.4      105616.15      1.1309035e+09  7.2732652e-05  5.1738996e-07  7.2215262e-05  2.8628163e+09
   6382000   5.6285454e-11  3476624.4      105619.63      1.1309033e+09  7.2732657e-05  5.1733529e-07  7.2215322e-05  2.8628184e+09
   6383000   5.6294273e-11  3476622.3      105623.07      1.1309015e+09  7.2732666e-05  5.1738687e-07  7.2215279e-05  2.8628182e+09
   6384000   5.6303093e-11  3476609.4      105624.05      1.1308968e+09  7.2732674e-05  5.1766232e-07  7.2215011e-05  2.8628138e+09
   6385000   5.6311912e-11  3476619        105619.68      1.1309015e+09  7.2732667e-05  5.1745673e-07  7.2215211e-05  2.8628168e+09
   6386000   5.6320732e-11  3476617.2      105622.82      1.1308998e+09  7.2732668e-05  5.1749545e-07  7.2215173e-05  2.8628165e+09
   6387000   5.6329551e-11  3476604.3      105620.59      1.1308962e+09  7.2732667e-05  5.1776228e-07  7.2214905e-05  2.8628111e+09
   6388000   5.633837e-11   3476612.6      105619.4       1.1308994e+09  7.273267e-05   5.1759283e-07  7.2215077e-05  2.8628135e+09
   6389000   5.634719e-11   3476608.8      105617.06      1.1308989e+09  7.2732671e-05  5.176716e-07   7.2214999e-05  2.8628111e+09
   6390000   5.6356009e-11  3476613.5      105618.81      1.1308999e+09  7.2732673e-05  5.1757579e-07  7.2215097e-05  2.862813e+09 
   6391000   5.6364829e-11  3476615.2      105621.44      1.1308996e+09  7.2732673e-05  5.1754194e-07  7.2215132e-05  2.8628135e+09
   6392000   5.6373648e-11  3476621        105622.95      1.1309011e+09  7.2732671e-05  5.1741857e-07  7.2215252e-05  2.8628152e+09
   6393000   5.6382467e-11  3476619        105625.05      1.1308997e+09  7.2732667e-05  5.1745641e-07  7.2215211e-05  2.8628138e+09
   6394000   5.6391287e-11  3476624.4      105621.96      1.1309025e+09  7.273266e-05   5.1733638e-07  7.2215323e-05  2.8628146e+09
   6395000   5.6400106e-11  3476619.5      105621.48      1.1309011e+09  7.2732656e-05  5.1743473e-07  7.2215222e-05  2.8628125e+09
   6396000   5.6408926e-11  3476615.6      105620.26      1.1309002e+09  7.2732654e-05  5.1751339e-07  7.221514e-05   2.862811e+09 
   6397000   5.6417745e-11  3476613.4      105619.66      1.1308996e+09  7.2732668e-05  5.1757334e-07  7.2215095e-05  2.8628115e+09
   6398000   5.6426564e-11  3476616.8      105621.85      1.1309e+09     7.2732667e-05  5.1750198e-07  7.2215165e-05  2.8628128e+09
   6399000   5.6435384e-11  3476624.8      105630.96      1.1308997e+09  7.2732662e-05  5.1733035e-07  7.2215332e-05  2.8628161e+09
   6400000   5.6444203e-11  3476629        105634.51      1.1308999e+09  7.2732665e-05  5.1724662e-07  7.2215418e-05  2.8628174e+09
   6401000   5.6453023e-11  3476623.8      105630.02      1.1308996e+09  7.2732676e-05  5.1736519e-07  7.2215311e-05  2.8628161e+09
   6402000   5.6461842e-11  3476622.1      105628.63      1.1308995e+09  7.273268e-05   5.1740482e-07  7.2215275e-05  2.862816e+09 
   6403000   5.6470661e-11  3476618.4      105630.84      1.1308976e+09  7.2732673e-05  5.1747499e-07  7.2215198e-05  2.8628141e+09
   6404000   5.6479481e-11  3476626.7      105633.12      1.1308996e+09  7.2732673e-05  5.1730103e-07  7.2215372e-05  2.862817e+09 
   6405000   5.64883e-11    3476626        105633.16      1.1308993e+09  7.2732669e-05  5.1731199e-07  7.2215357e-05  2.8628161e+09
   6406000   5.649712e-11   3476625.2      105632.44      1.1308993e+09  7.2732666e-05  5.1732741e-07  7.2215339e-05  2.8628151e+09
   6407000   5.6505939e-11  3476624.4      105634.92      1.1308982e+09  7.2732667e-05  5.1734383e-07  7.2215323e-05  2.8628149e+09
   6408000   5.6514759e-11  3476628.2      105640.29      1.1308977e+09  7.2732662e-05  5.1725941e-07  7.2215403e-05  2.8628161e+09
   6409000   5.6523578e-11  3476627        105639.73      1.1308975e+09  7.2732657e-05  5.1727926e-07  7.2215378e-05  2.8628156e+09
   6410000   5.6532397e-11  3476628.4      105638.47      1.1308984e+09  7.2732656e-05  5.1724935e-07  7.2215407e-05  2.8628161e+09
   6411000   5.6541217e-11  3476622.3      105634.41      1.1308977e+09  7.2732657e-05  5.1737725e-07  7.221528e-05   2.8628136e+09
   6412000   5.6550036e-11  3476616.6      105635.73      1.1308953e+09  7.2732664e-05  5.1750227e-07  7.2215162e-05  2.862812e+09 
   6413000   5.6558856e-11  3476623.5      105640.64      1.130896e+09   7.2732662e-05  5.1735836e-07  7.2215304e-05  2.8628148e+09
   6414000   5.6567675e-11  3476630.2      105640.92      1.1308982e+09  7.2732664e-05  5.1721942e-07  7.2215444e-05  2.8628179e+09
   6415000   5.6576494e-11  3476624.7      105643.22      1.1308955e+09  7.2732665e-05  5.1733682e-07  7.2215329e-05  2.8628163e+09
   6416000   5.6585314e-11  3476616.5      105640.13      1.1308938e+09  7.2732667e-05  5.1750713e-07  7.221516e-05   2.862813e+09 
   6417000   5.6594133e-11  3476626.6      105646.85      1.1308949e+09  7.2732673e-05  5.1730512e-07  7.2215368e-05  2.8628174e+09
   6418000   5.6602953e-11  3476618        105642.47      1.1308935e+09  7.2732669e-05  5.1747784e-07  7.2215191e-05  2.862814e+09 
   6419000   5.6611772e-11  3476623.1      105639.39      1.1308963e+09  7.273268e-05   5.1738267e-07  7.2215297e-05  2.8628171e+09
   6420000   5.6620591e-11  3476610.8      105634.63      1.1308938e+09  7.273268e-05   5.1763879e-07  7.2215041e-05  2.8628123e+09
   6421000   5.6629411e-11  3476606.7      105636.63      1.1308917e+09  7.2732677e-05  5.1772128e-07  7.2214956e-05  2.8628105e+09
   6422000   5.663823e-11   3476610.3      105639.81      1.1308918e+09  7.2732675e-05  5.1764557e-07  7.2215029e-05  2.8628116e+09
   6423000   5.664705e-11   3476612.3      105638.93      1.1308928e+09  7.2732669e-05  5.1759597e-07  7.2215073e-05  2.8628115e+09
   6424000   5.6655869e-11  3476622.7      105640.07      1.1308959e+09  7.2732673e-05  5.173864e-07   7.2215287e-05  2.8628156e+09
   6425000   5.6664688e-11  3476610.4      105637.64      1.1308926e+09  7.2732663e-05  5.1763082e-07  7.2215032e-05  2.86281e+09  
   6426000   5.6673508e-11  3476609.5      105639.95      1.1308915e+09  7.2732668e-05  5.1765324e-07  7.2215014e-05  2.8628105e+09
   6427000   5.6682327e-11  3476617.8      105643.3       1.1308932e+09  7.2732673e-05  5.1748607e-07  7.2215187e-05  2.8628146e+09
   6428000   5.6691147e-11  3476614.6      105647.17      1.1308908e+09  7.2732672e-05  5.1755267e-07  7.2215119e-05  2.8628135e+09
   6429000   5.6699966e-11  3476615.4      105645.27      1.1308917e+09  7.2732668e-05  5.1753183e-07  7.2215136e-05  2.8628138e+09
   6430000   5.6708785e-11  3476613.1      105642.5       1.1308919e+09  7.2732662e-05  5.1757358e-07  7.2215088e-05  2.8628122e+09
   6431000   5.6717605e-11  3476607.3      105640.51      1.1308906e+09  7.2732661e-05  5.176942e-07   7.2214967e-05  2.8628098e+09
   6432000   5.6726424e-11  3476614.8      105643.66      1.1308921e+09  7.2732652e-05  5.1752807e-07  7.2215124e-05  2.8628113e+09
   6433000   5.6735244e-11  3476615.3      105644.26      1.130892e+09   7.2732659e-05  5.1752534e-07  7.2215134e-05  2.8628118e+09
   6434000   5.6744063e-11  3476615.2      105643.43      1.1308923e+09  7.2732654e-05  5.1752316e-07  7.2215131e-05  2.8628114e+09
   6435000   5.6752882e-11  3476613.1      105640.61      1.1308925e+09  7.2732651e-05  5.1756171e-07  7.2215089e-05  2.8628104e+09
   6436000   5.6761702e-11  3476614.9      105638.33      1.1308939e+09  7.2732652e-05  5.175253e-07   7.2215127e-05  2.862811e+09 
   6437000   5.6770521e-11  3476608.3      105637.62      1.1308919e+09  7.273265e-05   5.1766064e-07  7.221499e-05   2.8628081e+09
   6438000   5.6779341e-11  3476618.8      105644.44      1.1308931e+09  7.2732651e-05  5.1744461e-07  7.2215206e-05  2.8628119e+09
   6439000   5.678816e-11   3476615.4      105643.31      1.1308924e+09  7.273266e-05   5.1752351e-07  7.2215136e-05  2.8628112e+09
   6440000   5.679698e-11   3476608.6      105641.42      1.1308907e+09  7.2732657e-05  5.1766268e-07  7.2214994e-05  2.8628088e+09
   6441000   5.6805799e-11  3476605        105634.64      1.1308918e+09  7.2732659e-05  5.1773855e-07  7.2214921e-05  2.8628075e+09
   6442000   5.6814618e-11  3476604.6      105634.08      1.1308919e+09  7.2732654e-05  5.1774165e-07  7.2214913e-05  2.8628068e+09
   6443000   5.6823438e-11  3476609.7      105636.98      1.1308926e+09  7.2732652e-05  5.1763562e-07  7.2215017e-05  2.8628078e+09
   6444000   5.6832257e-11  3476614.2      105637.42      1.1308939e+09  7.2732652e-05  5.1754138e-07  7.2215111e-05  2.8628091e+09
   6445000   5.6841077e-11  3476610.3      105637.39      1.1308927e+09  7.2732649e-05  5.1761863e-07  7.221503e-05   2.8628069e+09
   6446000   5.6849896e-11  3476617        105641.78      1.1308934e+09  7.273265e-05   5.1748136e-07  7.2215168e-05  2.8628097e+09
   6447000   5.6858715e-11  3476613.2      105641.38      1.1308923e+09  7.2732655e-05  5.1756484e-07  7.2215091e-05  2.8628089e+09
   6448000   5.6867535e-11  3476610.1      105640.54      1.1308915e+09  7.2732652e-05  5.1762592e-07  7.2215026e-05  2.8628079e+09
   6449000   5.6876354e-11  3476604.7      105644.7       1.1308883e+09  7.273266e-05   5.1774686e-07  7.2214913e-05  2.8628077e+09
   6450000   5.6885174e-11  3476601.2      105645.24      1.130887e+09   7.273266e-05   5.1781939e-07  7.2214841e-05  2.8628064e+09
   6451000   5.6893993e-11  3476609.3      105648.52      1.1308886e+09  7.2732658e-05  5.1764828e-07  7.221501e-05   2.862809e+09 
   6452000   5.6902812e-11  3476619        105649.47      1.1308915e+09  7.2732661e-05  5.1745055e-07  7.221521e-05   2.8628121e+09
   6453000   5.6911632e-11  3476607.9      105652.87      1.1308867e+09  7.2732659e-05  5.1767914e-07  7.221498e-05   2.8628078e+09
   6454000   5.6920451e-11  3476611.4      105655.2       1.130887e+09   7.2732658e-05  5.1760541e-07  7.2215052e-05  2.8628092e+09
   6455000   5.6929271e-11  3476618.3      105657.06      1.1308887e+09  7.2732673e-05  5.1747756e-07  7.2215196e-05  2.8628126e+09
   6456000   5.693809e-11   3476621.4      105658.9       1.1308892e+09  7.2732676e-05  5.174159e-07   7.221526e-05   2.8628138e+09
   6457000   5.6946909e-11  3476613.2      105657.29      1.130887e+09   7.2732676e-05  5.1758596e-07  7.221509e-05   2.8628111e+09
   6458000   5.6955729e-11  3476618.7      105659.02      1.1308882e+09  7.2732678e-05  5.1747304e-07  7.2215205e-05  2.8628136e+09
   6459000   5.6964548e-11  3476620.5      105659.49      1.1308887e+09  7.2732669e-05  5.1742778e-07  7.2215242e-05  2.8628142e+09
   6460000   5.6973368e-11  3476613.6      105658.65      1.1308866e+09  7.2732671e-05  5.1757222e-07  7.2215099e-05  2.8628118e+09
   6461000   5.6982187e-11  3476623.4      105665.64      1.1308876e+09  7.2732665e-05  5.1736338e-07  7.2215301e-05  2.8628151e+09
   6462000   5.6991006e-11  3476618.9      105668.03      1.1308853e+09  7.2732664e-05  5.1745461e-07  7.2215209e-05  2.8628135e+09
   6463000   5.6999826e-11  3476619.2      105665.73      1.1308861e+09  7.2732667e-05  5.1745254e-07  7.2215214e-05  2.8628143e+09
   6464000   5.7008645e-11  3476626.9      105669.55      1.1308875e+09  7.2732663e-05  5.1728731e-07  7.2215375e-05  2.8628168e+09
   6465000   5.7017465e-11  3476627.7      105668.01      1.1308882e+09  7.2732671e-05  5.1727994e-07  7.2215391e-05  2.8628171e+09
   6466000   5.7026284e-11  3476626.4      105669.05      1.1308875e+09  7.273267e-05   5.1730501e-07  7.2215365e-05  2.8628159e+09
   6467000   5.7035104e-11  3476620.3      105662.71      1.1308875e+09  7.2732663e-05  5.1742472e-07  7.2215238e-05  2.8628123e+09
   6468000   5.7043923e-11  3476627.2      105660.92      1.1308905e+09  7.2732663e-05  5.172815e-07   7.2215381e-05  2.8628149e+09
   6469000   5.7052742e-11  3476620.2      105659.31      1.1308886e+09  7.2732658e-05  5.1742229e-07  7.2215235e-05  2.8628119e+09
   6470000   5.7061562e-11  3476629.3      105662.6       1.1308906e+09  7.2732662e-05  5.172372e-07   7.2215425e-05  2.8628157e+09
   6471000   5.7070381e-11  3476626.5      105667.74      1.1308879e+09  7.273266e-05   5.1729311e-07  7.2215367e-05  2.8628151e+09
   6472000   5.7079201e-11  3476618.3      105664.97      1.1308861e+09  7.2732659e-05  5.174618e-07   7.2215197e-05  2.8628127e+09
   6473000   5.708802e-11   3476623.6      105664.69      1.130888e+09   7.273266e-05   5.1735456e-07  7.2215306e-05  2.8628148e+09
   6474000   5.7096839e-11  3476618.2      105666.5       1.1308856e+09  7.2732669e-05  5.1747455e-07  7.2215194e-05  2.8628133e+09
   6475000   5.7105659e-11  3476619.2      105665.49      1.1308862e+09  7.2732665e-05  5.1745044e-07  7.2215215e-05  2.8628135e+09
   6476000   5.7114478e-11  3476622        105664.1       1.1308877e+09  7.2732667e-05  5.173932e-07   7.2215274e-05  2.8628149e+09
   6477000   5.7123298e-11  3476611.7      105665.25      1.1308838e+09  7.2732665e-05  5.1760628e-07  7.2215059e-05  2.8628111e+09
   6478000   5.7132117e-11  3476615.8      105661.33      1.1308865e+09  7.273266e-05   5.1751522e-07  7.2215145e-05  2.8628119e+09
   6479000   5.7140936e-11  3476622.6      105661.53      1.1308887e+09  7.2732657e-05  5.173707e-07   7.2215286e-05  2.8628134e+09
   6480000   5.7149756e-11  3476626.1      105661.25      1.13089e+09    7.2732661e-05  5.1730257e-07  7.2215358e-05  2.862815e+09 
   6481000   5.7158575e-11  3476623.7      105664.66      1.130888e+09   7.2732655e-05  5.1734663e-07  7.2215308e-05  2.8628145e+09
   6482000   5.7167395e-11  3476615.4      105660.45      1.1308867e+09  7.2732648e-05  5.1751087e-07  7.2215137e-05  2.8628115e+09
   6483000   5.7176214e-11  3476620.1      105658.99      1.1308887e+09  7.2732651e-05  5.1741645e-07  7.2215235e-05  2.8628135e+09
   6484000   5.7185033e-11  3476614        105656.84      1.1308874e+09  7.2732662e-05  5.1755454e-07  7.2215107e-05  2.8628117e+09
   6485000   5.7193853e-11  3476618.2      105658.76      1.1308881e+09  7.2732662e-05  5.1746773e-07  7.2215194e-05  2.862814e+09 
   6486000   5.7202672e-11  3476612.7      105662.11      1.1308852e+09  7.273266e-05   5.1758043e-07  7.221508e-05   2.8628127e+09
   6487000   5.7211492e-11  3476613.7      105661.32      1.1308858e+09  7.2732664e-05  5.1756333e-07  7.2215101e-05  2.8628131e+09
   6488000   5.7220311e-11  3476620.6      105663.36      1.1308874e+09  7.2732663e-05  5.1741777e-07  7.2215245e-05  2.8628152e+09
   6489000   5.722913e-11   3476623.3      105662.98      1.1308884e+09  7.2732662e-05  5.1736279e-07  7.22153e-05    2.8628157e+09
   6490000   5.723795e-11   3476614.6      105663.36      1.1308854e+09  7.2732666e-05  5.1754565e-07  7.221512e-05   2.862813e+09 
   6491000   5.7246769e-11  3476607.4      105655.74      1.1308855e+09  7.2732677e-05  5.177083e-07   7.2214969e-05  2.8628113e+09
   6492000   5.7255589e-11  3476602.6      105654.1       1.1308845e+09  7.2732661e-05  5.1779082e-07  7.221487e-05   2.8628083e+09
   6493000   5.7264408e-11  3476608.9      105655.35      1.1308862e+09  7.2732662e-05  5.1766071e-07  7.2215001e-05  2.8628106e+09
   6494000   5.7273227e-11  3476618.7      105662.17      1.1308872e+09  7.2732663e-05  5.1745951e-07  7.2215204e-05  2.8628144e+09
   6495000   5.7282047e-11  3476621.2      105668.59      1.1308859e+09  7.2732665e-05  5.1740911e-07  7.2215256e-05  2.8628162e+09
   6496000   5.7290866e-11  3476619.3      105672.45      1.130884e+09   7.2732673e-05  5.1745518e-07  7.2215218e-05  2.8628162e+09
   6497000   5.7299686e-11  3476627.4      105673.44      1.1308863e+09  7.2732681e-05  5.1729648e-07  7.2215385e-05  2.8628196e+09
   6498000   5.7308505e-11  3476625.3      105672.59      1.1308859e+09  7.2732683e-05  5.1734121e-07  7.2215342e-05  2.8628188e+09
   6499000   5.7317325e-11  3476616.8      105666.1       1.1308852e+09  7.2732683e-05  5.1751831e-07  7.2215165e-05  2.8628155e+09
   6500000   5.7326144e-11  3476618.3      105665.15      1.130886e+09   7.2732684e-05  5.1748899e-07  7.2215196e-05  2.8628164e+09
   6501000   5.7334963e-11  3476606.5      105663.78      1.1308826e+09  7.2732689e-05  5.1773746e-07  7.2214951e-05  2.8628123e+09
   6502000   5.7343783e-11  3476614.8      105666.6       1.1308844e+09  7.2732693e-05  5.1756933e-07  7.2215123e-05  2.8628157e+09
   6503000   5.7352602e-11  3476616.1      105668.26      1.1308843e+09  7.2732689e-05  5.1753809e-07  7.2215151e-05  2.862815e+09 
   6504000   5.7361422e-11  3476624.4      105669.15      1.1308867e+09  7.2732696e-05  5.1737361e-07  7.2215322e-05  2.8628181e+09
   6505000   5.7370241e-11  3476619.5      105670.88      1.1308845e+09  7.2732682e-05  5.1746113e-07  7.2215221e-05  2.8628156e+09
   6506000   5.737906e-11   3476614.3      105671.86      1.1308825e+09  7.273269e-05   5.1757658e-07  7.2215113e-05  2.8628145e+09
   6507000   5.738788e-11   3476616.1      105670.3       1.1308836e+09  7.27327e-05    5.1754933e-07  7.2215151e-05  2.8628165e+09
   6508000   5.7396699e-11  3476624        105677.65      1.1308838e+09  7.2732703e-05  5.1738681e-07  7.2215316e-05  2.8628199e+09
   6509000   5.7405519e-11  3476620.7      105678.93      1.1308823e+09  7.2732696e-05  5.1744939e-07  7.2215247e-05  2.8628178e+09
   6510000   5.7414338e-11  3476627.5      105680.46      1.130884e+09   7.27327e-05    5.1731171e-07  7.2215388e-05  2.8628196e+09
   6511000   5.7423157e-11  3476631.5      105681.44      1.130885e+09   7.2732694e-05  5.1722364e-07  7.2215471e-05  2.8628202e+09
   6512000   5.7431977e-11  3476625.8      105680.93      1.1308833e+09  7.2732694e-05  5.1734183e-07  7.2215352e-05  2.8628178e+09
   6513000   5.7440796e-11  3476625.3      105682.4       1.1308826e+09  7.2732686e-05  5.1734504e-07  7.2215341e-05  2.8628177e+09
   6514000   5.7449616e-11  3476629.1      105683.52      1.1308835e+09  7.2732687e-05  5.1726535e-07  7.2215422e-05  2.8628195e+09
   6515000   5.7458435e-11  3476630.1      105686.31      1.1308829e+09  7.2732688e-05  5.1724563e-07  7.2215442e-05  2.8628197e+09
   6516000   5.7467254e-11  3476632.9      105685.74      1.1308841e+09  7.2732688e-05  5.1718806e-07  7.22155e-05    2.8628204e+09
   6517000   5.7476074e-11  3476630.4      105684.03      1.1308838e+09  7.2732676e-05  5.1722851e-07  7.2215448e-05  2.8628186e+09
   6518000   5.7484893e-11  3476622.3      105682.3       1.1308816e+09  7.2732672e-05  5.1739321e-07  7.2215279e-05  2.8628152e+09
   6519000   5.7493713e-11  3476628.3      105682.1       1.1308838e+09  7.2732672e-05  5.1726689e-07  7.2215405e-05  2.8628169e+09
   6520000   5.7502532e-11  3476635.4      105681.41      1.1308863e+09  7.273267e-05   5.1711973e-07  7.2215551e-05  2.862819e+09 
   6521000   5.7511351e-11  3476627.3      105679.97      1.1308841e+09  7.2732677e-05  5.1729294e-07  7.2215384e-05  2.8628166e+09
   6522000   5.7520171e-11  3476632.2      105685.23      1.130884e+09   7.2732673e-05  5.171878e-07   7.2215485e-05  2.8628186e+09
   6523000   5.752899e-11   3476634.8      105685.74      1.1308847e+09  7.2732675e-05  5.1713662e-07  7.2215538e-05  2.86282e+09  
   6524000   5.753781e-11   3476634.2      105684.46      1.1308849e+09  7.2732679e-05  5.1715294e-07  7.2215527e-05  2.86282e+09  
   6525000   5.7546629e-11  3476627.9      105683.09      1.1308833e+09  7.2732676e-05  5.1728002e-07  7.2215396e-05  2.862817e+09 
   6526000   5.7555449e-11  3476628.8      105683.11      1.1308836e+09  7.273268e-05   5.1726513e-07  7.2215415e-05  2.8628177e+09
   6527000   5.7564268e-11  3476631.4      105681.84      1.1308849e+09  7.273268e-05   5.1721088e-07  7.2215469e-05  2.8628193e+09
   6528000   5.7573087e-11  3476625.8      105678         1.1308843e+09  7.2732681e-05  5.1732906e-07  7.2215352e-05  2.862818e+09 
   6529000   5.7581907e-11  3476613.6      105671.4       1.1308824e+09  7.2732685e-05  5.1758498e-07  7.22151e-05    2.8628136e+09
   6530000   5.7590726e-11  3476611.8      105667.52      1.1308831e+09  7.2732678e-05  5.1761675e-07  7.2215061e-05  2.8628122e+09
   6531000   5.7599546e-11  3476617.2      105672         1.1308834e+09  7.2732677e-05  5.175028e-07   7.2215174e-05  2.8628142e+09
   6532000   5.7608365e-11  3476617.2      105673.63      1.1308828e+09  7.2732677e-05  5.1750432e-07  7.2215173e-05  2.8628143e+09
   6533000   5.7617184e-11  3476621.3      105674.02      1.1308841e+09  7.2732672e-05  5.174138e-07   7.2215258e-05  2.8628158e+09
   6534000   5.7626004e-11  3476627.7      105679.14      1.1308845e+09  7.2732673e-05  5.1728173e-07  7.2215391e-05  2.8628186e+09
   6535000   5.7634823e-11  3476621.8      105682.44      1.1308814e+09  7.2732678e-05  5.1740837e-07  7.221527e-05   2.8628165e+09
   6536000   5.7643643e-11  3476624.4      105681.08      1.1308828e+09  7.2732676e-05  5.1735185e-07  7.2215324e-05  2.8628174e+09
   6537000   5.7652462e-11  3476624.2      105676.43      1.1308843e+09  7.2732675e-05  5.1735565e-07  7.2215319e-05  2.8628169e+09
   6538000   5.7661281e-11  3476624        105681.21      1.1308826e+09  7.2732679e-05  5.1736484e-07  7.2215314e-05  2.8628171e+09
   6539000   5.7670101e-11  3476623.7      105676.32      1.1308841e+09  7.2732678e-05  5.1736927e-07  7.2215309e-05  2.8628164e+09
   6540000   5.767892e-11   3476620.4      105670.51      1.130885e+09   7.2732671e-05  5.1743088e-07  7.221524e-05   2.8628144e+09
   6541000   5.768774e-11   3476615.5      105670.49      1.1308833e+09  7.2732666e-05  5.1752732e-07  7.2215138e-05  2.8628125e+09
   6542000   5.7696559e-11  3476611.8      105669.56      1.1308824e+09  7.2732663e-05  5.176008e-07   7.2215062e-05  2.8628112e+09
   6543000   5.7705378e-11  3476616.6      105675.17      1.1308821e+09  7.2732657e-05  5.1749676e-07  7.221516e-05   2.8628131e+09
   6544000   5.7714198e-11  3476617.8      105673.29      1.1308831e+09  7.2732655e-05  5.1747013e-07  7.2215185e-05  2.8628133e+09
   6545000   5.7723017e-11  3476617.1      105675.39      1.1308822e+09  7.273266e-05   5.1748931e-07  7.2215171e-05  2.8628137e+09
   6546000   5.7731837e-11  3476619.1      105671.87      1.1308841e+09  7.2732661e-05  5.1744676e-07  7.2215214e-05  2.8628143e+09
   6547000   5.7740656e-11  3476614.9      105671.79      1.1308827e+09  7.2732671e-05  5.1754492e-07  7.2215126e-05  2.8628139e+09
   6548000   5.7749475e-11  3476605.7      105669.81      1.1308803e+09  7.2732675e-05  5.1773996e-07  7.2214935e-05  2.8628108e+09
   6549000   5.7758295e-11  3476611        105666.6       1.1308831e+09  7.2732675e-05  5.1762983e-07  7.2215045e-05  2.8628131e+09
   6550000   5.7767114e-11  3476610.3      105665.7       1.1308832e+09  7.2732669e-05  5.1763967e-07  7.2215029e-05  2.8628123e+09
   6551000   5.7775934e-11  3476603.1      105662.17      1.1308819e+09  7.2732679e-05  5.1779864e-07  7.221488e-05   2.8628102e+09
   6552000   5.7784753e-11  3476608.3      105663.13      1.1308834e+09  7.2732675e-05  5.176868e-07   7.2214989e-05  2.8628123e+09
   6553000   5.7793572e-11  3476605.4      105669.21      1.1308804e+09  7.2732675e-05  5.1774751e-07  7.2214928e-05  2.8628117e+09
   6554000   5.7802392e-11  3476608.6      105669.54      1.1308813e+09  7.273268e-05   5.1768433e-07  7.2214995e-05  2.8628134e+09
   6555000   5.7811211e-11  3476606.9      105669.3       1.1308808e+09  7.2732682e-05  5.1772283e-07  7.2214959e-05  2.8628131e+09
   6556000   5.7820031e-11  3476608.7      105673.6       1.13088e+09    7.2732677e-05  5.1768006e-07  7.2214997e-05  2.8628137e+09
   6557000   5.782885e-11   3476611.6      105669.24      1.1308824e+09  7.2732679e-05  5.1762198e-07  7.2215057e-05  2.8628144e+09
   6558000   5.783767e-11   3476609.3      105668.58      1.1308819e+09  7.2732677e-05  5.1766754e-07  7.221501e-05   2.8628129e+09
   6559000   5.7846489e-11  3476605.6      105669.93      1.1308802e+09  7.2732677e-05  5.1774509e-07  7.2214932e-05  2.8628116e+09
   6560000   5.7855308e-11  3476608        105671.03      1.1308806e+09  7.2732671e-05  5.1768978e-07  7.2214982e-05  2.8628131e+09
   6561000   5.7864128e-11  3476596.7      105667.98      1.1308779e+09  7.2732675e-05  5.1792743e-07  7.2214747e-05  2.8628098e+09
   6562000   5.7872947e-11  3476601.6      105670.56      1.1308786e+09  7.2732673e-05  5.1782442e-07  7.2214849e-05  2.8628113e+09
   6563000   5.7881767e-11  3476599.6      105668.63      1.1308786e+09  7.2732678e-05  5.1786961e-07  7.2214808e-05  2.8628104e+09
   6564000   5.7890586e-11  3476606.9      105669.42      1.1308808e+09  7.2732674e-05  5.1771435e-07  7.221496e-05   2.8628128e+09
   6565000   5.7899405e-11  3476612.8      105675.89      1.1308806e+09  7.2732671e-05  5.1758758e-07  7.2215083e-05  2.8628148e+09
   6566000   5.7908225e-11  3476607.9      105673.06      1.1308799e+09  7.2732678e-05  5.1769672e-07  7.2214981e-05  2.8628135e+09
   6567000   5.7917044e-11  3476607.7      105669.58      1.130881e+09   7.2732677e-05  5.1769991e-07  7.2214977e-05  2.8628135e+09
   6568000   5.7925864e-11  3476599.9      105671.37      1.1308778e+09  7.2732681e-05  5.1786573e-07  7.2214815e-05  2.8628118e+09
   6569000   5.7934683e-11  3476594.8      105667.46      1.1308774e+09  7.2732675e-05  5.1796654e-07  7.2214708e-05  2.8628099e+09
   6570000   5.7943502e-11  3476594.8      105668.2       1.1308772e+09  7.2732679e-05  5.1796964e-07  7.2214709e-05  2.8628098e+09
   6571000   5.7952322e-11  3476606.3      105668.65      1.1308809e+09  7.2732682e-05  5.1773517e-07  7.2214947e-05  2.8628136e+09
   6572000   5.7961141e-11  3476603.2      105665.16      1.130881e+09   7.2732677e-05  5.1779517e-07  7.2214882e-05  2.8628118e+09
   6573000   5.7969961e-11  3476595.7      105658.44      1.1308807e+09  7.2732679e-05  5.1795194e-07  7.2214727e-05  2.8628092e+09
   6574000   5.797878e-11   3476595.3      105658         1.1308807e+09  7.2732671e-05  5.1795187e-07  7.2214719e-05  2.8628083e+09
   6575000   5.7987599e-11  3476594.4      105657.22      1.1308807e+09  7.2732671e-05  5.1797157e-07  7.2214699e-05  2.8628077e+09
   6576000   5.7996419e-11  3476591.3      105656.42      1.1308799e+09  7.2732675e-05  5.180394e-07   7.2214636e-05  2.8628066e+09
   6577000   5.8005238e-11  3476587.7      105656.33      1.1308787e+09  7.2732682e-05  5.181212e-07   7.2214561e-05  2.8628061e+09
   6578000   5.8014058e-11  3476594.5      105656.1       1.1308811e+09  7.2732681e-05  5.179793e-07   7.2214702e-05  2.8628092e+09
   6579000   5.8022877e-11  3476590.4      105659.68      1.1308785e+09  7.2732687e-05  5.1807004e-07  7.2214617e-05  2.8628084e+09
   6580000   5.8031696e-11  3476598.1      105659.73      1.1308811e+09  7.273269e-05   5.1791356e-07  7.2214777e-05  2.8628109e+09
   6581000   5.8040516e-11  3476598.8      105659.12      1.1308815e+09  7.2732694e-05  5.1790129e-07  7.2214792e-05  2.8628106e+09
   6582000   5.8049335e-11  3476603.4      105663.26      1.1308817e+09  7.2732696e-05  5.1780871e-07  7.2214887e-05  2.8628125e+09
   6583000   5.8058155e-11  3476597.7      105659.1       1.1308812e+09  7.2732682e-05  5.1791282e-07  7.2214769e-05  2.8628092e+09
   6584000   5.8066974e-11  3476595.8      105661.21      1.1308798e+09  7.2732691e-05  5.179622e-07   7.2214729e-05  2.8628099e+09
   6585000   5.8075794e-11  3476600.1      105667.88      1.130879e+09   7.2732695e-05  5.1787618e-07  7.2214819e-05  2.8628122e+09
   6586000   5.8084613e-11  3476607.7      105668.89      1.1308813e+09  7.2732688e-05  5.1771064e-07  7.2214977e-05  2.8628145e+09
   6587000   5.8093432e-11  3476597.5      105666.67      1.1308786e+09  7.2732686e-05  5.1792184e-07  7.2214764e-05  2.8628106e+09
   6588000   5.8102252e-11  3476604.4      105668.96      1.1308801e+09  7.2732683e-05  5.1777583e-07  7.2214907e-05  2.8628126e+09
   6589000   5.8111071e-11  3476601.1      105669.69      1.1308788e+09  7.2732692e-05  5.1785275e-07  7.2214839e-05  2.8628114e+09
   6590000   5.8119891e-11  3476604.5      105668.34      1.1308804e+09  7.2732697e-05  5.177874e-07   7.221491e-05   2.8628133e+09
   6591000   5.812871e-11   3476608.3      105668.22      1.1308817e+09  7.2732696e-05  5.1770781e-07  7.2214989e-05  2.8628159e+09
   6592000   5.8137529e-11  3476595.6      105668.46      1.1308773e+09  7.2732701e-05  5.1797582e-07  7.2214725e-05  2.862812e+09 
   6593000   5.8146349e-11  3476592.7      105667.08      1.1308768e+09  7.2732704e-05  5.1803902e-07  7.2214665e-05  2.8628108e+09
   6594000   5.8155168e-11  3476596.6      105670.19      1.1308771e+09  7.2732686e-05  5.1793991e-07  7.2214746e-05  2.8628102e+09
   6595000   5.8163988e-11  3476599.4      105671.05      1.1308777e+09  7.2732689e-05  5.1788476e-07  7.2214804e-05  2.8628116e+09
   6596000   5.8172807e-11  3476599.4      105675.92      1.1308761e+09  7.2732694e-05  5.1788987e-07  7.2214804e-05  2.8628121e+09
   6597000   5.8181626e-11  3476603.4      105672.82      1.1308785e+09  7.2732696e-05  5.1780845e-07  7.2214887e-05  2.8628138e+09
   6598000   5.8190446e-11  3476596.6      105677.2       1.1308747e+09  7.2732688e-05  5.1794332e-07  7.2214745e-05  2.8628111e+09
   6599000   5.8199265e-11  3476611.5      105681.66      1.1308783e+09  7.273268e-05   5.1762444e-07  7.2215056e-05  2.8628156e+09
   6600000   5.8208085e-11  3476611.7      105682.49      1.130878e+09   7.2732686e-05  5.1762616e-07  7.221506e-05   2.8628151e+09
   6601000   5.8216904e-11  3476615.4      105679.52      1.1308803e+09  7.2732678e-05  5.1754108e-07  7.2215137e-05  2.8628154e+09
   6602000   5.8225723e-11  3476619        105687.22      1.1308789e+09  7.2732679e-05  5.1746849e-07  7.221521e-05   2.8628172e+09
   6603000   5.8234543e-11  3476620.7      105686.14      1.1308798e+09  7.273267e-05   5.1742461e-07  7.2215246e-05  2.8628172e+09
   6604000   5.8243362e-11  3476615        105684.02      1.1308786e+09  7.2732671e-05  5.1754163e-07  7.2215129e-05  2.8628149e+09
   6605000   5.8252182e-11  3476616.6      105679         1.1308809e+09  7.2732672e-05  5.1751041e-07  7.2215161e-05  2.8628151e+09
   6606000   5.8261001e-11  3476611.6      105680.47      1.1308787e+09  7.2732669e-05  5.1761215e-07  7.2215057e-05  2.8628134e+09
   6607000   5.826982e-11   3476620.2      105689.02      1.1308787e+09  7.2732665e-05  5.1742835e-07  7.2215236e-05  2.862817e+09 
   6608000   5.827864e-11   3476621.6      105692.49      1.130878e+09   7.2732667e-05  5.1740256e-07  7.2215265e-05  2.8628182e+09
   6609000   5.8287459e-11  3476617.8      105694.58      1.130876e+09   7.2732671e-05  5.1748507e-07  7.2215186e-05  2.8628171e+09
   6610000   5.8296279e-11  3476629.4      105698.93      1.1308785e+09  7.2732672e-05  5.1724488e-07  7.2215427e-05  2.8628211e+09
   6611000   5.8305098e-11  3476630.9      105703         1.1308776e+09  7.2732675e-05  5.1721762e-07  7.2215457e-05  2.8628217e+09
   6612000   5.8313917e-11  3476632.3      105703.8       1.1308778e+09  7.273267e-05   5.1718145e-07  7.2215488e-05  2.8628219e+09
   6613000   5.8322737e-11  3476627.6      105702.64      1.1308766e+09  7.2732665e-05  5.1727423e-07  7.221539e-05   2.8628195e+09
   6614000   5.8331556e-11  3476620.9      105698.01      1.1308759e+09  7.2732664e-05  5.174134e-07   7.2215251e-05  2.8628166e+09
   6615000   5.8340376e-11  3476628.1      105699.06      1.130878e+09   7.2732672e-05  5.1727238e-07  7.2215399e-05  2.8628194e+09
   6616000   5.8349195e-11  3476627.3      105699.45      1.1308776e+09  7.2732679e-05  5.1729572e-07  7.2215383e-05  2.8628192e+09
   6617000   5.8358015e-11  3476615.8      105694.35      1.1308754e+09  7.2732681e-05  5.1753709e-07  7.2215144e-05  2.8628153e+09
   6618000   5.8366834e-11  3476614.8      105686.16      1.1308779e+09  7.2732683e-05  5.1755916e-07  7.2215124e-05  2.8628156e+09
   6619000   5.8375653e-11  3476603        105683.02      1.130875e+09   7.2732678e-05  5.1779905e-07  7.2214879e-05  2.8628115e+09
   6620000   5.8384473e-11  3476603.3      105681.86      1.1308754e+09  7.2732681e-05  5.177973e-07   7.2214884e-05  2.8628115e+09
   6621000   5.8393292e-11  3476603.6      105682.75      1.1308752e+09  7.2732685e-05  5.1779411e-07  7.2214891e-05  2.8628105e+09
   6622000   5.8402112e-11  3476612.8      105687.12      1.1308769e+09  7.273269e-05   5.1760729e-07  7.2215082e-05  2.8628134e+09
   6623000   5.8410931e-11  3476616.2      105691.62      1.1308765e+09  7.273269e-05   5.1753715e-07  7.2215153e-05  2.8628155e+09
   6624000   5.841975e-11   3476608        105694.14      1.1308729e+09  7.2732682e-05  5.1769854e-07  7.2214983e-05  2.8628127e+09
   6625000   5.842857e-11   3476612.8      105697.98      1.1308732e+09  7.2732687e-05  5.1760544e-07  7.2215081e-05  2.8628149e+09
   6626000   5.8437389e-11  3476618.2      105698.87      1.1308747e+09  7.2732689e-05  5.1749582e-07  7.2215193e-05  2.8628163e+09
   6627000   5.8446209e-11  3476621        105701.27      1.1308749e+09  7.2732685e-05  5.1743336e-07  7.2215252e-05  2.8628164e+09
   6628000   5.8455028e-11  3476621.3      105699.77      1.1308755e+09  7.2732688e-05  5.1742892e-07  7.2215259e-05  2.8628166e+09
   6629000   5.8463847e-11  3476617.7      105702.83      1.1308732e+09  7.2732689e-05  5.1750576e-07  7.2215184e-05  2.862816e+09 
   6630000   5.8472667e-11  3476617.2      105702.7       1.1308731e+09  7.2732685e-05  5.1751232e-07  7.2215173e-05  2.8628154e+09
   6631000   5.8481486e-11  3476617.2      105699.1       1.1308743e+09  7.2732682e-05  5.1750876e-07  7.2215174e-05  2.8628144e+09
   6632000   5.8490306e-11  3476615        105698.88      1.1308737e+09  7.2732683e-05  5.175548e-07   7.2215128e-05  2.8628129e+09
   6633000   5.8499125e-11  3476622.4      105699.7       1.1308759e+09  7.2732668e-05  5.1738697e-07  7.2215281e-05  2.8628141e+09
   6634000   5.8507944e-11  3476612.7      105701.93      1.1308719e+09  7.2732677e-05  5.1759627e-07  7.2215081e-05  2.8628115e+09
   6635000   5.8516764e-11  3476626.2      105708.11      1.1308743e+09  7.273268e-05   5.1731878e-07  7.2215361e-05  2.8628171e+09
   6636000   5.8525583e-11  3476628.7      105713.5       1.1308734e+09  7.2732678e-05  5.1726645e-07  7.2215412e-05  2.862818e+09 
   6637000   5.8534403e-11  3476621.2      105710.88      1.1308717e+09  7.2732672e-05  5.1741512e-07  7.2215257e-05  2.8628147e+09
   6638000   5.8543222e-11  3476619.2      105708.4       1.1308719e+09  7.2732666e-05  5.1745131e-07  7.2215215e-05  2.8628131e+09
   6639000   5.8552041e-11  3476617.2      105705.58      1.1308721e+09  7.2732659e-05  5.174858e-07   7.2215173e-05  2.8628112e+09
   6640000   5.8560861e-11  3476616.5      105706.89      1.1308715e+09  7.2732665e-05  5.1750574e-07  7.2215159e-05  2.862811e+09 
   6641000   5.856968e-11   3476617.9      105705.84      1.1308723e+09  7.2732667e-05  5.1747819e-07  7.2215189e-05  2.8628115e+09
   6642000   5.85785e-11    3476619.6      105704.42      1.1308733e+09  7.2732676e-05  5.1745311e-07  7.2215223e-05  2.8628136e+09
   6643000   5.8587319e-11  3476618.5      105706.47      1.1308723e+09  7.2732665e-05  5.1746455e-07  7.2215201e-05  2.8628133e+09
   6644000   5.8596139e-11  3476612.2      105708.65      1.1308695e+09  7.2732666e-05  5.1759539e-07  7.221507e-05   2.8628118e+09
   6645000   5.8604958e-11  3476609.7      105709.04      1.1308685e+09  7.2732671e-05  5.1765256e-07  7.2215019e-05  2.8628114e+09
   6646000   5.8613777e-11  3476613.6      105708.63      1.1308699e+09  7.2732668e-05  5.1756936e-07  7.2215099e-05  2.862812e+09 
   6647000   5.8622597e-11  3476609.8      105710.44      1.1308681e+09  7.2732677e-05  5.1765707e-07  7.221502e-05   2.8628111e+09
   6648000   5.8631416e-11  3476616.2      105713.14      1.1308693e+09  7.2732679e-05  5.1752704e-07  7.2215152e-05  2.8628142e+09
   6649000   5.8640236e-11  3476605.2      105701.67      1.1308694e+09  7.2732677e-05  5.1775257e-07  7.2214925e-05  2.8628099e+09
   6650000   5.8649055e-11  3476597.4      105697.16      1.1308683e+09  7.2732678e-05  5.1791577e-07  7.2214762e-05  2.862807e+09 
   6651000   5.8657874e-11  3476608.9      105704.29      1.1308698e+09  7.2732677e-05  5.1767515e-07  7.2215001e-05  2.8628113e+09
   6652000   5.8666694e-11  3476598.8      105702         1.1308672e+09  7.2732675e-05  5.1788309e-07  7.2214792e-05  2.8628074e+09
   6653000   5.8675513e-11  3476597.3      105699.91      1.1308674e+09  7.2732673e-05  5.1791325e-07  7.221476e-05   2.862807e+09 
   6654000   5.8684333e-11  3476602.1      105704.05      1.1308676e+09  7.2732671e-05  5.1781045e-07  7.2214861e-05  2.8628087e+09
   6655000   5.8693152e-11  3476601.2      105706.49      1.1308665e+09  7.2732669e-05  5.178289e-07   7.2214841e-05  2.8628086e+09
   6656000   5.8701971e-11  3476611.7      105709.81      1.1308689e+09  7.2732665e-05  5.1760469e-07  7.221506e-05   2.8628125e+09
   6657000   5.8710791e-11  3476614.5      105709.67      1.1308699e+09  7.2732666e-05  5.1754962e-07  7.2215117e-05  2.8628137e+09
   6658000   5.871961e-11   3476603.2      105707.86      1.1308667e+09  7.2732669e-05  5.1778507e-07  7.2214884e-05  2.8628098e+09
   6659000   5.872843e-11   3476611.2      105709.85      1.1308687e+09  7.2732666e-05  5.1761774e-07  7.2215048e-05  2.8628123e+09
   6660000   5.8737249e-11  3476619.5      105715.24      1.1308697e+09  7.2732659e-05  5.1743738e-07  7.2215222e-05  2.8628144e+09
   6661000   5.8746068e-11  3476626.6      105715.88      1.1308719e+09  7.2732656e-05  5.1728616e-07  7.2215369e-05  2.8628162e+09
   6662000   5.8754888e-11  3476630.3      105722.21      1.130871e+09   7.2732659e-05  5.172134e-07   7.2215446e-05  2.8628187e+09
   6663000   5.8763707e-11  3476626.6      105723.95      1.1308692e+09  7.2732661e-05  5.1729223e-07  7.2215369e-05  2.8628185e+09
   6664000   5.8772527e-11  3476617        105719.91      1.1308673e+09  7.2732666e-05  5.1749719e-07  7.2215169e-05  2.862816e+09 
   6665000   5.8781346e-11  3476615.3      105718.67      1.1308671e+09  7.2732666e-05  5.1753248e-07  7.2215134e-05  2.8628155e+09
   6666000   5.8790165e-11  3476614.5      105718.69      1.1308669e+09  7.2732665e-05  5.1754869e-07  7.2215117e-05  2.8628142e+09
   6667000   5.8798985e-11  3476621        105719.66      1.1308687e+09  7.2732676e-05  5.1742424e-07  7.2215252e-05  2.8628171e+09
   6668000   5.8807804e-11  3476616.9      105715.69      1.1308687e+09  7.2732673e-05  5.1750563e-07  7.2215168e-05  2.8628154e+09
   6669000   5.8816624e-11  3476614.2      105717.9       1.130867e+09   7.2732672e-05  5.1756083e-07  7.2215111e-05  2.8628147e+09
   6670000   5.8825443e-11  3476610        105713.67      1.130867e+09   7.2732672e-05  5.1764771e-07  7.2215025e-05  2.8628132e+09
   6671000   5.8834262e-11  3476602.6      105715.44      1.130864e+09   7.2732671e-05  5.1779963e-07  7.2214871e-05  2.8628101e+09
   6672000   5.8843082e-11  3476616.5      105716.06      1.1308684e+09  7.2732674e-05  5.1751434e-07  7.2215159e-05  2.8628152e+09
   6673000   5.8851901e-11  3476616.4      105720.5       1.1308669e+09  7.2732672e-05  5.1751407e-07  7.2215158e-05  2.8628156e+09
   6674000   5.8860721e-11  3476615.8      105723.31      1.1308658e+09  7.2732667e-05  5.1752355e-07  7.2215144e-05  2.8628153e+09
   6675000   5.886954e-11   3476616.3      105722.84      1.1308661e+09  7.2732661e-05  5.1750585e-07  7.2215155e-05  2.862815e+09 
   6676000   5.887836e-11   3476618.4      105725.13      1.130866e+09   7.2732666e-05  5.1746664e-07  7.2215199e-05  2.8628164e+09
   6677000   5.8887179e-11  3476614.5      105725.51      1.1308646e+09  7.2732667e-05  5.1754946e-07  7.2215117e-05  2.8628147e+09
   6678000   5.8895998e-11  3476622.2      105722.88      1.1308681e+09  7.2732673e-05  5.1739597e-07  7.2215277e-05  2.8628178e+09
   6679000   5.8904818e-11  3476624.4      105728.16      1.130867e+09   7.2732677e-05  5.1735376e-07  7.2215323e-05  2.8628186e+09
   6680000   5.8913637e-11  3476623.3      105728.82      1.1308664e+09  7.2732677e-05  5.1737769e-07  7.2215299e-05  2.8628181e+09
   6681000   5.8922457e-11  3476615.3      105723.77      1.1308654e+09  7.2732676e-05  5.175411e-07   7.2215134e-05  2.8628152e+09
   6682000   5.8931276e-11  3476620        105724.2       1.1308669e+09  7.2732684e-05  5.1745113e-07  7.2215233e-05  2.8628182e+09
   6683000   5.8940095e-11  3476620.9      105726.74      1.1308663e+09  7.2732683e-05  5.1743201e-07  7.2215251e-05  2.8628192e+09
   6684000   5.8948915e-11  3476608.3      105715.61      1.1308658e+09  7.2732693e-05  5.177039e-07   7.2214989e-05  2.8628154e+09
   6685000   5.8957734e-11  3476597.7      105707.87      1.1308649e+09  7.2732701e-05  5.1793195e-07  7.2214769e-05  2.8628123e+09
   6686000   5.8966554e-11  3476597.7      105704.6       1.1308659e+09  7.2732694e-05  5.1792622e-07  7.2214768e-05  2.8628121e+09
   6687000   5.8975373e-11  3476587        105700.28      1.1308638e+09  7.2732695e-05  5.1814787e-07  7.2214547e-05  2.8628079e+09
   6688000   5.8984192e-11  3476594.7      105702.9       1.1308655e+09  7.2732693e-05  5.1798724e-07  7.2214706e-05  2.8628099e+09
   6689000   5.8993012e-11  3476597.8      105701.02      1.1308672e+09  7.2732693e-05  5.179227e-07   7.2214771e-05  2.8628106e+09
   6690000   5.9001831e-11  3476590.5      105701.34      1.1308646e+09  7.273269e-05   5.1807132e-07  7.2214619e-05  2.8628082e+09
   6691000   5.9010651e-11  3476600        105704.87      1.1308666e+09  7.2732685e-05  5.1786877e-07  7.2214816e-05  2.8628124e+09
   6692000   5.901947e-11   3476595.7      105708.58      1.130864e+09   7.2732688e-05  5.1796063e-07  7.2214728e-05  2.8628119e+09
   6693000   5.9028289e-11  3476596.1      105707.74      1.1308643e+09  7.273269e-05   5.1795571e-07  7.2214735e-05  2.8628118e+09
   6694000   5.9037109e-11  3476602.1      105707.52      1.1308665e+09  7.273269e-05   5.1782956e-07  7.2214861e-05  2.8628133e+09
   6695000   5.9045928e-11  3476596.8      105705.68      1.1308653e+09  7.2732681e-05  5.179301e-07   7.221475e-05   2.8628098e+09
   6696000   5.9054748e-11  3476598.5      105704.88      1.1308661e+09  7.2732677e-05  5.1789131e-07  7.2214786e-05  2.8628105e+09
   6697000   5.9063567e-11  3476597        105709.65      1.130864e+09   7.2732679e-05  5.1792404e-07  7.2214755e-05  2.8628104e+09
   6698000   5.9072386e-11  3476599.8      105712.99      1.1308638e+09  7.2732684e-05  5.178721e-07   7.2214812e-05  2.8628123e+09
   6699000   5.9081206e-11  3476600.9      105714.34      1.1308637e+09  7.2732687e-05  5.1785269e-07  7.2214834e-05  2.8628135e+09
   6700000   5.9090025e-11  3476596.7      105714.1       1.1308624e+09  7.2732683e-05  5.1793597e-07  7.2214747e-05  2.862812e+09 
   6701000   5.9098845e-11  3476594.1      105715.21      1.1308612e+09  7.2732681e-05  5.1798847e-07  7.2214693e-05  2.8628115e+09
   6702000   5.9107664e-11  3476593        105715.23      1.1308608e+09  7.2732687e-05  5.1801563e-07  7.2214671e-05  2.8628116e+09
   6703000   5.9116484e-11  3476592.8      105714.67      1.1308609e+09  7.2732689e-05  5.1802217e-07  7.2214667e-05  2.8628113e+09
   6704000   5.9125303e-11  3476596.6      105712.79      1.1308629e+09  7.2732682e-05  5.1793509e-07  7.2214747e-05  2.8628114e+09
   6705000   5.9134122e-11  3476603.1      105718.57      1.1308631e+09  7.2732677e-05  5.1779626e-07  7.2214881e-05  2.8628134e+09
   6706000   5.9142942e-11  3476606.9      105723.7       1.1308626e+09  7.2732673e-05  5.1771294e-07  7.221496e-05   2.862814e+09 
   6707000   5.9151761e-11  3476614.1      105725.42      1.1308645e+09  7.2732676e-05  5.1756646e-07  7.221511e-05   2.862817e+09 
   6708000   5.9160581e-11  3476610.5      105726.72      1.1308628e+09  7.2732679e-05  5.1764434e-07  7.2215035e-05  2.8628159e+09
   6709000   5.91694e-11    3476608.1      105726.61      1.1308621e+09  7.2732669e-05  5.1768419e-07  7.2214985e-05  2.8628143e+09
   6710000   5.9178219e-11  3476613.9      105729.52      1.130863e+09   7.2732682e-05  5.1757797e-07  7.2215104e-05  2.8628175e+09
   6711000   5.9187039e-11  3476610.5      105730.44      1.1308616e+09  7.2732676e-05  5.1764156e-07  7.2215034e-05  2.8628158e+09
   6712000   5.9195858e-11  3476606.6      105722.77      1.1308629e+09  7.273268e-05   5.1772619e-07  7.2214954e-05  2.8628136e+09
   6713000   5.9204678e-11  3476616.2      105728.56      1.1308641e+09  7.2732681e-05  5.1752843e-07  7.2215153e-05  2.8628172e+09
   6714000   5.9213497e-11  3476613.5      105729.25      1.130863e+09   7.2732682e-05  5.1758672e-07  7.2215096e-05  2.8628168e+09
   6715000   5.9222316e-11  3476606.3      105727.28      1.1308613e+09  7.2732681e-05  5.1773314e-07  7.2214948e-05  2.8628144e+09
   6716000   5.9231136e-11  3476602.6      105722.59      1.1308616e+09  7.2732678e-05  5.1780677e-07  7.2214871e-05  2.8628132e+09
   6717000   5.9239955e-11  3476595        105719.92      1.1308599e+09  7.2732675e-05  5.1796185e-07  7.2214713e-05  2.8628097e+09
   6718000   5.9248775e-11  3476599.7      105723.62      1.1308603e+09  7.2732672e-05  5.1786155e-07  7.2214811e-05  2.8628105e+09
   6719000   5.9257594e-11  3476610.8      105728.93      1.1308622e+09  7.2732669e-05  5.1762789e-07  7.2215042e-05  2.8628137e+09
   6720000   5.9266413e-11  3476606.1      105729.16      1.1308605e+09  7.2732668e-05  5.1772492e-07  7.2214943e-05  2.8628116e+09
   6721000   5.9275233e-11  3476607.8      105732.91      1.1308599e+09  7.273268e-05   5.1770073e-07  7.2214979e-05  2.8628139e+09
   6722000   5.9284052e-11  3476609.8      105734.8       1.1308599e+09  7.2732675e-05  5.1765479e-07  7.2215021e-05  2.8628146e+09
   6723000   5.9292872e-11  3476613.7      105734.79      1.1308612e+09  7.2732672e-05  5.1757212e-07  7.22151e-05    2.8628156e+09
   6724000   5.9301691e-11  3476609.7      105736.88      1.1308592e+09  7.2732672e-05  5.1765515e-07  7.2215017e-05  2.8628134e+09
   6725000   5.931051e-11   3476624.2      105746.64      1.1308608e+09  7.2732679e-05  5.1735948e-07  7.221532e-05   2.8628179e+09
   6726000   5.931933e-11   3476626.2      105748.51      1.1308608e+09  7.2732672e-05  5.1731118e-07  7.221536e-05   2.8628172e+09
   6727000   5.9328149e-11  3476630.2      105752.38      1.1308609e+09  7.2732686e-05  5.1724155e-07  7.2215444e-05  2.8628196e+09
   6728000   5.9336969e-11  3476630        105753.74      1.1308604e+09  7.2732676e-05  5.1723591e-07  7.221544e-05   2.8628189e+09
   6729000   5.9345788e-11  3476625        105754.93      1.1308583e+09  7.2732683e-05  5.1734686e-07  7.2215336e-05  2.862818e+09 
   6730000   5.9354607e-11  3476624.2      105752.63      1.1308588e+09  7.2732675e-05  5.1735682e-07  7.2215318e-05  2.862817e+09 
   6731000   5.9363427e-11  3476621.1      105752.3       1.1308578e+09  7.2732684e-05  5.1743047e-07  7.2215254e-05  2.8628169e+09
   6732000   5.9372246e-11  3476622.3      105750.75      1.1308588e+09  7.2732687e-05  5.1740675e-07  7.221528e-05   2.8628176e+09
   6733000   5.9381066e-11  3476619.2      105748.34      1.1308585e+09  7.2732689e-05  5.1747433e-07  7.2215215e-05  2.8628157e+09
   6734000   5.9389885e-11  3476626.5      105749.57      1.1308606e+09  7.2732686e-05  5.1731871e-07  7.2215368e-05  2.8628178e+09
   6735000   5.9398705e-11  3476616.2      105747.06      1.130858e+09   7.2732686e-05  5.1753269e-07  7.2215154e-05  2.8628137e+09
   6736000   5.9407524e-11  3476621        105747.61      1.1308594e+09  7.2732692e-05  5.1744066e-07  7.2215252e-05  2.8628155e+09
   6737000   5.9416343e-11  3476619.8      105748.85      1.1308586e+09  7.2732694e-05  5.1746648e-07  7.2215228e-05  2.8628152e+09
   6738000   5.9425163e-11  3476625.1      105753.09      1.1308589e+09  7.2732694e-05  5.173575e-07   7.2215337e-05  2.8628174e+09
   6739000   5.9433982e-11  3476624.8      105757.57      1.1308573e+09  7.2732694e-05  5.1736341e-07  7.2215331e-05  2.8628173e+09
   6740000   5.9442802e-11  3476630.1      105757.82      1.130859e+09   7.2732688e-05  5.1724598e-07  7.2215442e-05  2.862819e+09 
   6741000   5.9451621e-11  3476625.8      105760.56      1.1308567e+09  7.2732688e-05  5.1733646e-07  7.2215352e-05  2.8628178e+09
   6742000   5.946044e-11   3476624.9      105757.91      1.1308572e+09  7.2732694e-05  5.1736033e-07  7.2215334e-05  2.8628178e+09
   6743000   5.946926e-11   3476627.9      105756.47      1.1308587e+09  7.2732688e-05  5.1729172e-07  7.2215396e-05  2.8628178e+09
   6744000   5.9478079e-11  3476626.4      105756.77      1.1308581e+09  7.2732681e-05  5.1731587e-07  7.2215365e-05  2.8628161e+09
   6745000   5.9486899e-11  3476630.8      105759.62      1.1308586e+09  7.2732676e-05  5.172204e-07   7.2215455e-05  2.8628166e+09
   6746000   5.9495718e-11  3476627.9      105761.09      1.1308572e+09  7.2732676e-05  5.1727968e-07  7.2215396e-05  2.8628157e+09
   6747000   5.9504537e-11  3476638.8      105763.31      1.1308601e+09  7.2732684e-05  5.1706065e-07  7.2215623e-05  2.8628212e+09
   6748000   5.9513357e-11  3476629.7      105760.73      1.1308579e+09  7.2732685e-05  5.1725159e-07  7.2215434e-05  2.8628188e+09
   6749000   5.9522176e-11  3476622.1      105759.49      1.1308558e+09  7.2732696e-05  5.1741989e-07  7.2215276e-05  2.8628174e+09
   6750000   5.9530996e-11  3476622.7      105760.01      1.1308558e+09  7.2732702e-05  5.1741433e-07  7.2215288e-05  2.8628186e+09
   6751000   5.9539815e-11  3476620.9      105758.29      1.1308558e+09  7.2732695e-05  5.1744384e-07  7.2215251e-05  2.8628173e+09
   6752000   5.9548634e-11  3476624.1      105756.71      1.1308574e+09  7.2732691e-05  5.1737403e-07  7.2215317e-05  2.8628179e+09
   6753000   5.9557454e-11  3476620.6      105751.34      1.130858e+09   7.2732683e-05  5.1743804e-07  7.2215245e-05  2.8628157e+09
   6754000   5.9566273e-11  3476616.2      105750.91      1.1308567e+09  7.273269e-05   5.1753634e-07  7.2215154e-05  2.8628147e+09
   6755000   5.9575093e-11  3476617.5      105750.33      1.1308573e+09  7.2732689e-05  5.1750832e-07  7.221518e-05   2.8628152e+09
   6756000   5.9583912e-11  3476611.1      105749.34      1.1308555e+09  7.2732687e-05  5.1764048e-07  7.2215047e-05  2.8628127e+09
   6757000   5.9592731e-11  3476614        105746.81      1.1308573e+09  7.2732698e-05  5.1759157e-07  7.2215106e-05  2.8628144e+09
   6758000   5.9601551e-11  3476606.8      105743.45      1.130856e+09   7.2732696e-05  5.1773794e-07  7.2214958e-05  2.8628118e+09
   6759000   5.961037e-11   3476611.5      105744.47      1.1308573e+09  7.2732684e-05  5.1762858e-07  7.2215056e-05  2.8628126e+09
   6760000   5.961919e-11   3476618.3      105753.31      1.1308566e+09  7.2732687e-05  5.1749039e-07  7.2215196e-05  2.8628154e+09
   6761000   5.9628009e-11  3476617        105759.27      1.1308541e+09  7.2732685e-05  5.1751605e-07  7.2215169e-05  2.8628152e+09
   6762000   5.9636829e-11  3476628.9      105764.23      1.1308565e+09  7.2732679e-05  5.1726279e-07  7.2215417e-05  2.8628195e+09
   6763000   5.9645648e-11  3476622.1      105761         1.1308553e+09  7.273268e-05   5.1740504e-07  7.2215275e-05  2.8628166e+09
   6764000   5.9654467e-11  3476622.3      105758.13      1.1308563e+09  7.2732682e-05  5.1740164e-07  7.221528e-05   2.8628165e+09
   6765000   5.9663287e-11  3476625.8      105757.71      1.1308576e+09  7.273268e-05   5.1732686e-07  7.2215353e-05  2.8628175e+09
   6766000   5.9672106e-11  3476622.7      105759.49      1.130856e+09   7.2732679e-05  5.1739141e-07  7.2215288e-05  2.8628163e+09
   6767000   5.9680926e-11  3476626.1      105764.35      1.1308555e+09  7.2732677e-05  5.1731944e-07  7.2215358e-05  2.8628177e+09
   6768000   5.9689745e-11  3476628.9      105772.36      1.1308538e+09  7.2732684e-05  5.1726665e-07  7.2215417e-05  2.8628198e+09
   6769000   5.9698564e-11  3476630.4      105772.98      1.1308541e+09  7.2732675e-05  5.1722658e-07  7.2215448e-05  2.8628195e+09
   6770000   5.9707384e-11  3476631.4      105769.69      1.1308555e+09  7.2732674e-05  5.1720575e-07  7.2215469e-05  2.8628196e+09
   6771000   5.9716203e-11  3476632        105770.54      1.1308554e+09  7.2732674e-05  5.1719191e-07  7.2215482e-05  2.86282e+09  
   6772000   5.9725023e-11  3476632.1      105775.56      1.1308538e+09  7.273268e-05   5.171966e-07   7.2215483e-05  2.8628214e+09
   6773000   5.9733842e-11  3476636        105778.99      1.1308539e+09  7.2732683e-05  5.171179e-07   7.2215565e-05  2.8628235e+09
   6774000   5.9742661e-11  3476635.7      105774.3       1.1308554e+09  7.2732687e-05  5.1712877e-07  7.2215559e-05  2.8628234e+09
   6775000   5.9751481e-11  3476633.9      105772.04      1.1308555e+09  7.2732693e-05  5.1717202e-07  7.2215521e-05  2.8628229e+09
   6776000   5.97603e-11    3476621.9      105766.74      1.1308533e+09  7.2732687e-05  5.1741637e-07  7.2215271e-05  2.8628181e+09
   6777000   5.976912e-11   3476621        105766.61      1.130853e+09   7.2732686e-05  5.1743231e-07  7.2215253e-05  2.8628177e+09
   6778000   5.9777939e-11  3476618.5      105762.11      1.1308537e+09  7.273268e-05   5.1747902e-07  7.2215201e-05  2.8628158e+09
   6779000   5.9786758e-11  3476620.4      105758.49      1.1308555e+09  7.2732681e-05  5.1744224e-07  7.2215239e-05  2.8628159e+09
   6780000   5.9795578e-11  3476617.3      105754.44      1.1308559e+09  7.2732674e-05  5.1749864e-07  7.2215176e-05  2.8628137e+09
   6781000   5.9804397e-11  3476620.5      105754.18      1.130857e+09   7.2732666e-05  5.1742471e-07  7.2215242e-05  2.8628152e+09
   6782000   5.9813217e-11  3476611.1      105753.32      1.1308541e+09  7.2732666e-05  5.1761924e-07  7.2215046e-05  2.8628126e+09
   6783000   5.9822036e-11  3476614.6      105755.4       1.1308546e+09  7.2732671e-05  5.1755099e-07  7.221512e-05   2.8628146e+09
   6784000   5.9830855e-11  3476617.4      105759.82      1.1308541e+09  7.2732672e-05  5.1749393e-07  7.2215179e-05  2.8628158e+09
   6785000   5.9839675e-11  3476610.5      105753.48      1.1308539e+09  7.2732668e-05  5.1763396e-07  7.2215035e-05  2.8628135e+09
   6786000   5.9848494e-11  3476602.9      105750.92      1.1308522e+09  7.2732666e-05  5.177897e-07   7.2214877e-05  2.8628107e+09
   6787000   5.9857314e-11  3476616.6      105755.19      1.1308554e+09  7.2732669e-05  5.175071e-07   7.2215162e-05  2.8628158e+09
   6788000   5.9866133e-11  3476610.9      105754.58      1.1308536e+09  7.2732663e-05  5.1762059e-07  7.2215042e-05  2.8628128e+09
   6789000   5.9874952e-11  3476609.4      105756.64      1.1308525e+09  7.2732664e-05  5.176537e-07   7.2215011e-05  2.8628128e+09
   6790000   5.9883772e-11  3476607        105753.6       1.1308527e+09  7.2732664e-05  5.1770249e-07  7.2214961e-05  2.862812e+09 
   6791000   5.9892591e-11  3476616.5      105755.82      1.1308551e+09  7.2732661e-05  5.1750142e-07  7.221516e-05   2.8628151e+09
   6792000   5.9901411e-11  3476609.1      105753.15      1.1308535e+09  7.273266e-05   5.1765552e-07  7.2215004e-05  2.8628123e+09
   6793000   5.991023e-11   3476602.3      105744.71      1.1308541e+09  7.2732659e-05  5.1779429e-07  7.2214865e-05  2.862809e+09 
