Job ID:        432839
Host:          daisg111
Start time:    Mon Aug 31 01:59:45 PM CEST 2026
Working dir:   /dais/fs/scratch/kshao/wd/White-Dwarf-Codes/unforced/daisslurm/daisproduction
MPI tasks:     1
CPUs/task:     12
Visible GPU:   0
LAMMPS:        /u/kshao/software/lammps-gpu-cuda12-install/bin/lmp
Input:         unforcedprod_v1.0e+05_c2.in
Currently Loaded Modulefiles:
 1) gcc/14   2) cuda/12.8   3) openmpi/5.0  
name, uuid, driver_version, memory.total [MiB]
NVIDIA H200, GPU-3377cbee-7c33-5414-ff3f-37278e51825f, 580.173.02, 143771 MiB
Preflight checks passed; launching LAMMPS.
LAMMPS (22 Jul 2025 - Update 4)
  using 1 OpenMP thread(s) per MPI task
Created orthogonal box = (0 0 0) to (2.5694819e-05 2.5694819e-05 2.5694819e-05)
  1 by 1 by 1 MPI processor grid
Created 100000 atoms
  using lattice units in orthogonal box = (0 0 0) to (2.5694819e-05 2.5694819e-05 2.5694819e-05)
  create_atoms CPU = 113.348 seconds
Created 300 atoms
  using lattice units in orthogonal box = (0 0 0) to (2.5694819e-05 2.5694819e-05 2.5694819e-05)
  create_atoms CPU = 0.671 seconds
300 atoms in group Si
100000 atoms in group H

CITE-CITE-CITE-CITE-CITE-CITE-CITE-CITE-CITE-CITE-CITE-CITE-CITE

Your simulation uses code contributions which should be cited:
- GPU package (short-range, long-range and three-body potentials): doi:10.1016/j.cpc.2010.12.021, doi:10.1016/j.cpc.2011.10.012, doi:10.1016/j.cpc.2013.08.002, doi:10.1016/j.commatsci.2014.10.068, doi:10.1016/j.cpc.2016.10.020, doi:10.3233/APC200086
The log file lists these citations in BibTeX format.

CITE-CITE-CITE-CITE-CITE-CITE-CITE-CITE-CITE-CITE-CITE-CITE-CITE


--------------------------------------------------------------------------
- Using acceleration for yukawa:
-  with 1 proc(s) per device.
-  with 1 thread(s) per proc.
-  Horizontal vector operations: ENABLED
-  Shared memory system: No
--------------------------------------------------------------------------
Device 0: NVIDIA H200, 132 CUs, 1.4e+02/1.4e+02 GB, 2 GHZ (Mixed Precision)
--------------------------------------------------------------------------

Initializing Device and compiling on process 0...Done.
Initializing Device 0 on core 0...Done.

Generated 0 of 1 mixed pair_coeff terms from geometric mixing rule
Neighbor list info ...
  update: every = 1 steps, delay = 0 steps, check = yes
  max neighbors/atom: 10000, page size: 100000
  master list distance cutoff = 4.6290089e-06
  ghost atom cutoff = 4.6290089e-06
  binsize = 2.3145045e-06, bins = 12 12 12
  1 neighbor lists, perpetual/occasional/extra = 1 0 0
  (1) pair yukawa/gpu, perpetual
      attributes: full, newton on
      pair build: full/bin/atomonly
      stencil: full/bin/3d
      bin: standard
Setting up Verlet run ...
  Unit style    : cgs
  Current step  : 0
  Time step     : 1.82486929057645e-16
Per MPI rank memory allocation (min/avg/max) = 1085 | 1085 | 1085 Mbytes
   Step          Time           Temp         c_tempH        c_tempSi        TotEng         PotEng         KinEng         Press           v_k0           v_dt        v_collfreq       v_ccs     
         0   0              100000         100011         96653.987      2.5985855e-06  5.214177e-07   2.0771678e-06  1.0662735e+08  1080144.8      1.8248693e-16  1.0384456e+11  2.889635e-15 
      1000   1.8248693e-13  100123.94      100136.21      96354.364      2.5981207e-06  5.1837855e-07  2.0797422e-06  1.0665252e+08  1080144.8      1.8248693e-16  1.0384456e+11  2.889635e-15 
      2000   3.6497386e-13  99886.908      99897.341      96731.788      2.5921475e-06  5.1732874e-07  2.0748187e-06  1.0642348e+08  1080144.8      1.8248693e-16  1.0384456e+11  2.889635e-15 
Loop time of 23.736 on 1 procs for 2000 steps with 100300 atoms

99.6% CPU use with 1 MPI tasks x 1 OpenMP threads

MPI task timing breakdown:
Section |  min time  |  avg time  |  max time  |%varavg| %total
---------------------------------------------------------------
Pair    | 3.5234     | 3.5234     | 3.5234     |   0.0 | 14.84
Neigh   | 16.663     | 16.663     | 16.663     |   0.0 | 70.20
Comm    | 1.085      | 1.085      | 1.085      |   0.0 |  4.57
Output  | 0.0078406  | 0.0078406  | 0.0078406  |   0.0 |  0.03
Modify  | 1.79       | 1.79       | 1.79       |   0.0 |  7.54
Other   |            | 0.6672     |            |       |  2.81

Nlocal:         100300 ave      100300 max      100300 min
Histogram: 1 0 0 0 0 0 0 0 0 0
Nghost:         151551 ave      151551 max      151551 min
Histogram: 1 0 0 0 0 0 0 0 0 0
Neighs:              0 ave           0 max           0 min
Histogram: 1 0 0 0 0 0 0 0 0 0
FullNghs:  2.46367e+08 ave 2.46367e+08 max 2.46367e+08 min
Histogram: 1 0 0 0 0 0 0 0 0 0

Total # of neighbors = 2.463669e+08
Ave neighs/atom = 2456.3001
Neighbor list builds = 5
Dangerous builds = 0


---------------------------------------------------------------------
      Device Time Info (average): 
---------------------------------------------------------------------
Data Transfer:   0.2748 s.
Neighbor copy:   0.9719 s.
Neighbor unpack: 0.0000 s.
Force calc:      2.0937 s.
Device Overhead: 0.0762 s.
CPU Cast/Pack:   0.8550 s.
CPU Driver_Time: 0.0253 s.
CPU Idle_Time:   1.8245 s.
Average split:   1.0000.
Max Mem / Proc:  1239.66 MB.
Prefetch mode:   None.
Vector width:    32.
Lanes / atom:    4.
Pair block:      256.
Neigh block:     128.
Neigh mode:      Host.
---------------------------------------------------------------------


--------------------------------------------------------------------------
- Using acceleration for yukawa:
-  with 1 proc(s) per device.
-  with 1 thread(s) per proc.
-  Horizontal vector operations: ENABLED
-  Shared memory system: No
--------------------------------------------------------------------------
Device 0: NVIDIA H200, 132 CUs, 1.4e+02/1.4e+02 GB, 2 GHZ (Mixed Precision)
--------------------------------------------------------------------------

Initializing Device and compiling on process 0...Done.
Initializing Device 0 on core 0...Done.

Generated 0 of 1 mixed pair_coeff terms from geometric mixing rule
Setting up Verlet run ...
  Unit style    : cgs
  Current step  : 2000
  Time step     : 1.82486929057645e-16
Per MPI rank memory allocation (min/avg/max) = 1090 | 1090 | 1090 Mbytes
   Step          Time           Temp         c_tempH        c_tempSi        TotEng         PotEng         KinEng         Press     
      2000   3.6497386e-13  99893.321      99897.341      98882.884      2.5922807e-06  5.1732874e-07  2.0749519e-06  1.0642872e+08
      3000   5.4746079e-13  99913.453      99918.621      98519.362      2.5922775e-06  5.1690742e-07  2.0753701e-06  1.0643513e+08
      4000   7.2994772e-13  99904.063      99907.373      99131.12       2.5922783e-06  5.1710326e-07  2.075175e-06   1.064332e+08 
      5000   9.1243465e-13  99894.077      99896.971      99260.419      2.5922778e-06  5.1731013e-07  2.0749676e-06  1.064278e+08 
      6000   1.0949216e-12  99903.281      99906.481      99167.204      2.5922722e-06  5.1711335e-07  2.0751588e-06  1.0643032e+08
      7000   1.2774085e-12  99917.165      99920.641      99088.797      2.5922609e-06  5.1681366e-07  2.0754472e-06  1.0643406e+08
      8000   1.4598954e-12  99911.339      99914.361      99234.579      2.5922546e-06  5.1692844e-07  2.0753262e-06  1.0643085e+08
      9000   1.6423824e-12  99906.672      99909.499      99295.359      2.5922793e-06  5.1705004e-07  2.0752292e-06  1.0643242e+08
     10000   1.8248693e-12  99877.397      99878.029      99999.937      2.5923017e-06  5.1768061e-07  2.0746211e-06  1.0642577e+08
     11000   2.0073562e-12  99899.207      99897.594      100772.83      2.5922829e-06  5.1720869e-07  2.0750742e-06  1.0643222e+08
     12000   2.1898431e-12  99920.715      99918.831      100884.97      2.5922836e-06  5.1676268e-07  2.0755209e-06  1.064377e+08 
     13000   2.3723301e-12  99908.796      99908.653      100290.77      2.592285e-06   5.1701164e-07  2.0752734e-06  1.0643398e+08
     14000   2.554817e-12   99903.722      99906.88       99181.634      2.5922528e-06  5.170848e-07   2.075168e-06   1.0643051e+08
     15000   2.7373039e-12  99926.265      99931.365      98554.776      2.5922588e-06  5.1662261e-07  2.0756362e-06  1.0643759e+08
     16000   2.9197909e-12  99910.477      99916.751      98146.215      2.5922568e-06  5.1694852e-07  2.0753083e-06  1.064299e+08 
     17000   3.1022778e-12  99910.167      99918.346      97508.907      2.59226e-06    5.1695814e-07  2.0753018e-06  1.0643132e+08
     18000   3.2847647e-12  99891.156      99901.295      96834.357      2.5922606e-06  5.1735364e-07  2.0749069e-06  1.0642561e+08
     19000   3.4672517e-12  99903.289      99912.293      97225.925      2.5922617e-06  5.1710269e-07  2.075159e-06   1.0643324e+08
     20000   3.6497386e-12  99890.925      99899.215      97452.528      2.5922716e-06  5.1736948e-07  2.0749022e-06  1.0642785e+08
     21000   3.8322255e-12  99900.044      99908.508      97403.495      2.5922581e-06  5.1716655e-07  2.0750916e-06  1.064293e+08 
     22000   4.0147124e-12  99902.015      99911.265      97142.447      2.5922512e-06  5.1711868e-07  2.0751325e-06  1.0642929e+08
     23000   4.1971994e-12  99901.084      99911.159      96865.68       2.5922471e-06  5.1713397e-07  2.0751132e-06  1.0642672e+08
     24000   4.3796863e-12  99908.679      99920.827      96180.07       2.5922532e-06  5.1698232e-07  2.0752709e-06  1.0642963e+08
     25000   4.5621732e-12  99900.448      99914.293      95604.224      2.5922659e-06  5.1716592e-07  2.0751e-06     1.064278e+08 
     26000   4.7446602e-12  99919.637      99934.508      95280.296      2.5922767e-06  5.1677818e-07  2.0754985e-06  1.0643365e+08
     27000   4.9271471e-12  99907.364      99922.556      95160.854      2.592274e-06   5.1703037e-07  2.0752436e-06  1.0643321e+08
     28000   5.109634e-12   99894.3        99911.515      94470.77       2.5922731e-06  5.173009e-07   2.0749722e-06  1.0643011e+08
     29000   5.2921209e-12  99899.245      99918.958      93640.234      2.5922887e-06  5.1721373e-07  2.075075e-06   1.0643321e+08
     30000   5.4746079e-12  99895.658      99916.715      93187.522      2.5922899e-06  5.1728944e-07  2.0750005e-06  1.0643102e+08
     31000   5.6570948e-12  99913.79       99936.276      92727.825      2.5922912e-06  5.169141e-07   2.0753771e-06  1.064374e+08 
     32000   5.8395817e-12  99903.888      99926.701      92608.359      2.5922618e-06  5.1709033e-07  2.0751714e-06  1.0643191e+08
     33000   6.0220687e-12  99901.16       99924.878      92302.951      2.5922813e-06  5.1716659e-07  2.0751147e-06  1.0643141e+08
     34000   6.2045556e-12  99896.739      99921.074      92092.416      2.5922658e-06  5.1724284e-07  2.0750229e-06  1.0642996e+08
     35000   6.3870425e-12  99891.425      99915.978      92013.913      2.5922775e-06  5.1736496e-07  2.0749125e-06  1.0642885e+08
     36000   6.5695294e-12  99902.009      99925.883      92251.706      2.5922722e-06  5.1713979e-07  2.0751324e-06  1.0643259e+08
     37000   6.7520164e-12  99890.587      99914.95       92076.592      2.5922866e-06  5.1739145e-07  2.0748951e-06  1.0642863e+08
     38000   6.9345033e-12  99895.124      99918.468      92421.836      2.5922928e-06  5.1730339e-07  2.0749894e-06  1.0643196e+08
     39000   7.1169902e-12  99909.972      99932.965      92554.212      2.5922887e-06  5.1699092e-07  2.0752978e-06  1.0643795e+08
     40000   7.2994772e-12  99904.307      99927.561      92461.472      2.5922901e-06  5.1711e-07     2.0751801e-06  1.0643369e+08
     41000   7.4819641e-12  99915.575      99939.755      92162.722      2.5922934e-06  5.1687919e-07  2.0754142e-06  1.0643779e+08
     42000   7.664451e-12   99900.271      99924.99       91967.173      2.5922757e-06  5.1717941e-07  2.0750963e-06  1.0643298e+08
     43000   7.8469379e-12  99900.469      99924.602      92163.575      2.5922859e-06  5.1718546e-07  2.0751004e-06  1.0643154e+08
     44000   8.0294249e-12  99905.044      99928.017      92556.044      2.5922795e-06  5.1708409e-07  2.0751954e-06  1.0643463e+08
     45000   8.2119118e-12  99902.353      99924.11       92959.942      2.5922729e-06  5.1713337e-07  2.0751395e-06  1.0643017e+08
     46000   8.3943987e-12  99906.364      99928.342      92890.197      2.5922662e-06  5.1704333e-07  2.0752228e-06  1.0643006e+08
     47000   8.5768857e-12  99928.08       99951.708      92360.197      2.592274e-06   5.1660003e-07  2.0756739e-06  1.0643746e+08
     48000   8.7593726e-12  99918.028      99942.413      92096.822      2.592297e-06   5.1683187e-07  2.0754651e-06  1.0643872e+08
     49000   8.9418595e-12  99907.332      99932.686      91762.025      2.5922804e-06  5.1703748e-07  2.075243e-06   1.0643423e+08
     50000   9.1243465e-12  99907.569      99933.781      91475.428      2.5922823e-06  5.1703447e-07  2.0752479e-06  1.0643514e+08
     51000   9.3068334e-12  99902.183      99928.065      91580.268      2.5922938e-06  5.1715782e-07  2.075136e-06   1.0643543e+08
     52000   9.4893203e-12  99883.67       99910.921      91104.081      2.5922967e-06  5.1754521e-07  2.0747515e-06  1.0642964e+08
     53000   9.6718072e-12  99914.3        99940.637      91440.211      2.5922844e-06  5.1689672e-07  2.0753877e-06  1.0643702e+08
     54000   9.8542942e-12  99897.295      99921.948      91986.315      2.5922643e-06  5.1722987e-07  2.0750345e-06  1.0642789e+08
     55000   1.0036781e-11  99902.529      99925.656      92501.729      2.5922682e-06  5.1712503e-07  2.0751432e-06  1.0643058e+08
     56000   1.0219268e-11  99908.032      99928.739      93316.81       2.5922785e-06  5.1702099e-07  2.0752575e-06  1.0643322e+08
     57000   1.0401755e-11  99894.242      99913.527      93778.254      2.5922752e-06  5.1730415e-07  2.074971e-06   1.0642994e+08
     58000   1.0584242e-11  99891.793      99910.165      94081.359      2.5922824e-06  5.1736225e-07  2.0749202e-06  1.0642932e+08
     59000   1.0766729e-11  99908.856      99927.664      93952.627      2.5922804e-06  5.1700583e-07  2.0752746e-06  1.0643576e+08
     60000   1.0949216e-11  99907.998      99926.634      94009.45       2.5922737e-06  5.1701694e-07  2.0752568e-06  1.0643314e+08
     61000   1.1131703e-11  99892.536      99909.573      94528.721      2.5922588e-06  5.1732321e-07  2.0749356e-06  1.0642733e+08
     62000   1.131419e-11   99906.98       99924.003      94547.836      2.5922713e-06  5.1703563e-07  2.0752356e-06  1.0643196e+08
     63000   1.1496677e-11  99890.429      99907.804      94413.489      2.5922585e-06  5.173666e-07   2.0748919e-06  1.0642545e+08
     64000   1.1679163e-11  99905.243      99922.045      94620.043      2.5922783e-06  5.170787e-07   2.0751996e-06  1.0643286e+08
     65000   1.186165e-11   99899.146      99917.047      94246.513      2.5923082e-06  5.172353e-07   2.0750729e-06  1.0643611e+08
     66000   1.2044137e-11  99885.072      99903.149      94173.272      2.5923211e-06  5.1754055e-07  2.0747806e-06  1.0643455e+08
     67000   1.2226624e-11  99903.673      99921.718      94202.652      2.5923033e-06  5.1713639e-07  2.0751669e-06  1.0643558e+08
     68000   1.2409111e-11  99891.117      99907.62       94705.683      2.5922804e-06  5.1737429e-07  2.0749061e-06  1.0642832e+08
     69000   1.2591598e-11  99915.756      99931.72       94910.853      2.5922898e-06  5.1687182e-07  2.0754179e-06  1.0643698e+08
     70000   1.2774085e-11  99909.61       99925.807      94826.801      2.5923022e-06  5.1701189e-07  2.0752903e-06  1.064369e+08 
     71000   1.2956572e-11  99908.702      99924.124      95085.178      2.592294e-06   5.1702256e-07  2.0752714e-06  1.0643778e+08
     72000   1.3139059e-11  99935.382      99948.297      95950.29       2.5922638e-06  5.1643821e-07  2.0758256e-06  1.0644203e+08
     73000   1.3321546e-11  99896.432      99908.46       96207.826      2.5922713e-06  5.1725478e-07  2.0750165e-06  1.0642896e+08
     74000   1.3504033e-11  99903.129      99915.124      96225.451      2.5922856e-06  5.1712999e-07  2.0751556e-06  1.0643298e+08
     75000   1.368652e-11   99910.454      99920.426      96909.411      2.5922871e-06  5.1697927e-07  2.0753078e-06  1.0643542e+08
     76000   1.3869007e-11  99902.665      99911.642      97234.488      2.592281e-06   5.1713501e-07  2.075146e-06   1.0643377e+08
     77000   1.4051494e-11  99909.115      99917.751      97354.897      2.5923072e-06  5.1702725e-07  2.07528e-06    1.0643734e+08
     78000   1.423398e-11   99913.422      99922.193      97314.37       2.5922948e-06  5.169253e-07   2.0753695e-06  1.0643739e+08
     79000   1.4416467e-11  99916.73       99924.856      97533.235      2.5922807e-06  5.1684256e-07  2.0754382e-06  1.0643567e+08
     80000   1.4598954e-11  99911.296      99921.487      96837.412      2.5922637e-06  5.1693837e-07  2.0753253e-06  1.0643168e+08
     81000   1.4781441e-11  99878.705      99885.987      97777.274      2.5922762e-06  5.1762791e-07  2.0746483e-06  1.0642376e+08
     82000   1.4963928e-11  99894.383      99901.615      97809.559      2.5922607e-06  5.172867e-07   2.074974e-06   1.064278e+08 
     83000   1.5146415e-11  99900.479      99910.129      97007.202      2.592274e-06   5.1717341e-07  2.0751006e-06  1.064306e+08 
     84000   1.5328902e-11  99903.645      99913.728      96865.682      2.59228e-06    5.1711363e-07  2.0751664e-06  1.0643262e+08
     85000   1.5511389e-11  99910.754      99920.993      96820.657      2.592273e-06   5.1695897e-07  2.075314e-06   1.0643317e+08
     86000   1.5693876e-11  99906.584      99912.746      98179.968      2.592276e-06   5.1704856e-07  2.0752274e-06  1.0643213e+08
     87000   1.5876363e-11  99905.291      99909.419      98858.688      2.5922758e-06  5.1707528e-07  2.0752005e-06  1.0642928e+08
     88000   1.605885e-11   99904.514      99907.531      99229.759      2.5922857e-06  5.1710132e-07  2.0751844e-06  1.0643182e+08
     89000   1.6241337e-11  99903.505      99904.401      99937.878      2.5922767e-06  5.1711329e-07  2.0751635e-06  1.0643052e+08
     90000   1.6423824e-11  99907.357      99908.342      99912.17       2.5922617e-06  5.1701819e-07  2.0752435e-06  1.0643194e+08
     91000   1.6606311e-11  99910.539      99913.324      99313.252      2.5922472e-06  5.1693762e-07  2.0753096e-06  1.0643064e+08
     92000   1.6788797e-11  99907.219      99910.081      99284.274      2.5922421e-06  5.1700145e-07  2.0752406e-06  1.0642844e+08
     93000   1.6971284e-11  99912.173      99914.23       99558.566      2.5922599e-06  5.1691634e-07  2.0753435e-06  1.0643146e+08
     94000   1.7153771e-11  99892.139      99893.699      99704.436      2.5922647e-06  5.1733729e-07  2.0749274e-06  1.0642837e+08
     95000   1.7336258e-11  99898.739      99901.663      99254.759      2.5922687e-06  5.1720429e-07  2.0750645e-06  1.0642988e+08
     96000   1.7518745e-11  99920.562      99923.491      99275.126      2.5922576e-06  5.167399e-07   2.0755178e-06  1.0643637e+08
     97000   1.7701232e-11  99909.781      99913.227      99091.692      2.5922833e-06  5.1698951e-07  2.0752938e-06  1.0643482e+08
     98000   1.7883719e-11  99915.566      99917.954      99451.076      2.5922761e-06  5.168621e-07   2.075414e-06   1.0643527e+08
     99000   1.8066206e-11  99904.672      99908.438      98979.468      2.5922599e-06  5.170722e-07   2.0751877e-06  1.0642997e+08
    100000   1.8248693e-11  99899.581      99904.084      98727.81       2.592266e-06   5.1718408e-07  2.075082e-06   1.0643226e+08
    101000   1.843118e-11   99894.116      99898.092      98898.699      2.5922737e-06  5.1730526e-07  2.0749684e-06  1.0643062e+08
    102000   1.8613667e-11  99918.618      99921.621      99248.538      2.5922867e-06  5.1680931e-07  2.0754774e-06  1.0643669e+08
    103000   1.8796154e-11  99909.271      99912.466      99174.93       2.5922872e-06  5.1700399e-07  2.0752832e-06  1.0643305e+08
    104000   1.8978641e-11  99899.783      99904.673      98598.416      2.5922979e-06  5.1721176e-07  2.0750861e-06  1.0643333e+08
    105000   1.9161128e-11  99917.867      99921.604      99002.23       2.5922717e-06  5.1680989e-07  2.0754618e-06  1.0643984e+08
    106000   1.9343614e-11  99884.635      99889.037      98746.587      2.5922618e-06  5.174903e-07   2.0747715e-06  1.0642609e+08
    107000   1.9526101e-11  99901.014      99904.974      98910.76       2.5922828e-06  5.1717113e-07  2.0751117e-06  1.0643247e+08
    108000   1.9708588e-11  99899.598      99904.543      98579.886      2.5922971e-06  5.1721476e-07  2.0750823e-06  1.0643204e+08
    109000   1.9891075e-11  99917.276      99919.707      99438.43       2.5922889e-06  5.1683936e-07  2.0754495e-06  1.064372e+08 
    110000   2.0073562e-11  99894.855      99896.672      99621.297      2.5922776e-06  5.1729381e-07  2.0749838e-06  1.0642968e+08
    111000   2.0256049e-11  99914.655      99917.111      99427.39       2.5922933e-06  5.1689819e-07  2.0753951e-06  1.06438e+08  
    112000   2.0438536e-11  99921.612      99923.216      99719.432      2.5922991e-06  5.1675953e-07  2.0755396e-06  1.0644058e+08
    113000   2.0621023e-11  99901.783      99903.827      99552.227      2.5922832e-06  5.1715552e-07  2.0751277e-06  1.0643246e+08
    114000   2.080351e-11   99907.487      99909.65       99518.28       2.5922853e-06  5.1703911e-07  2.0752462e-06  1.0643309e+08
    115000   2.0985997e-11  99916.611      99918.949      99468.765      2.5922589e-06  5.1682323e-07  2.0754357e-06  1.0643384e+08
    116000   2.1168484e-11  99923.512      99927.056      99072.485      2.5922732e-06  5.1669413e-07  2.075579e-06   1.0643761e+08
    117000   2.1350971e-11  99905.274      99909.943      98677.946      2.59229e-06    5.1708978e-07  2.0752002e-06  1.0643284e+08
    118000   2.1533458e-11  99893.021      99896.544      99048.88       2.5922714e-06  5.1732572e-07  2.0749457e-06  1.0642979e+08
    119000   2.1715945e-11  99906.718      99910.451      98992.221      2.5922812e-06  5.1705101e-07  2.0752302e-06  1.0643387e+08
    120000   2.1898431e-11  99925.363      99929.011      99039.229      2.5922932e-06  5.1667573e-07  2.0756175e-06  1.0643843e+08
    121000   2.2080918e-11  99906.577      99906.971      100108.66      2.5922677e-06  5.1704049e-07  2.0752273e-06  1.0643049e+08
    122000   2.2263405e-11  99912.188      99912.844      100026.72      2.5922649e-06  5.1692109e-07  2.0753438e-06  1.0643012e+08
    123000   2.2445892e-11  99923.606      99925.097      99759.077      2.5922695e-06  5.1668852e-07  2.075581e-06   1.0643701e+08
    124000   2.2628379e-11  99906.234      99909.231      99238.049      2.5922571e-06  5.1703695e-07  2.0752201e-06  1.0642918e+08
    125000   2.2810866e-11  99911.244      99913.163      99603.404      2.5922836e-06  5.1695941e-07  2.0753242e-06  1.0643544e+08
    126000   2.2993353e-11  99898.642      99900.173      99720.979      2.5922927e-06  5.1723026e-07  2.0750625e-06  1.0643197e+08
    127000   2.317584e-11   99913.197      99915.294      99545.757      2.5922806e-06  5.1691582e-07  2.0753648e-06  1.0643655e+08
    128000   2.3358327e-11  99901.669      99906.677      98560.925      2.5922606e-06  5.1713531e-07  2.0751253e-06  1.0642988e+08
    129000   2.3540814e-11  99908.163      99914.071      98266.591      2.5922508e-06  5.1699057e-07  2.0752602e-06  1.0642933e+08
    130000   2.3723301e-11  99924.008      99929.7        98354.493      2.5922652e-06  5.1667584e-07  2.0755893e-06  1.0643522e+08
    131000   2.3905788e-11  99911.45       99918.624      97846.407      2.5922742e-06  5.1694575e-07  2.0753285e-06  1.0643513e+08
    132000   2.4088275e-11  99903.047      99910.662      97690.383      2.5923017e-06  5.171478e-07   2.0751539e-06  1.0643691e+08
    133000   2.4270762e-11  99879.798      99886.652      97921.567      2.5923046e-06  5.1763354e-07  2.074671e-06   1.0643214e+08
    134000   2.4453248e-11  99899.074      99905.654      98032.509      2.5922949e-06  5.1722352e-07  2.0750714e-06  1.0643513e+08
    135000   2.4635735e-11  99907.764      99915.299      97722.005      2.5922857e-06  5.1703377e-07  2.0752519e-06  1.064338e+08 
    136000   2.4818222e-11  99900.233      99908.757      97383.317      2.5922801e-06  5.1718465e-07  2.0750955e-06  1.0643161e+08
    137000   2.5000709e-11  99915.388      99924.536      97190.14       2.5922628e-06  5.1685247e-07  2.0754103e-06  1.0643334e+08
    138000   2.5183196e-11  99916.542      99925.231      97344.857      2.5922679e-06  5.1683364e-07  2.0754343e-06  1.0643486e+08
    139000   2.5365683e-11  99896.598      99904.887      97458.481      2.5922558e-06  5.1723585e-07  2.07502e-06    1.064274e+08 
    140000   2.554817e-11   99910.133      99917.071      97923.865      2.5922645e-06  5.169634e-07   2.0753011e-06  1.0643204e+08
    141000   2.5730657e-11  99894.203      99898.758      98704.951      2.5922904e-06  5.1732014e-07  2.0749702e-06  1.0643002e+08
    142000   2.5913144e-11  99900.111      99903.942      98952.855      2.5922988e-06  5.1720583e-07  2.075093e-06   1.0643387e+08
    143000   2.6095631e-11  99910.415      99914.122      99004.536      2.5922781e-06  5.1697117e-07  2.075307e-06   1.0643535e+08
    144000   2.6278118e-11  99917.47       99919.68       99512.556      2.5922839e-06  5.1683036e-07  2.0754535e-06  1.0643622e+08
    145000   2.6460605e-11  99907.87       99906.612      100662.6       2.592273e-06   5.1701885e-07  2.0752541e-06  1.064338e+08 
    146000   2.6643092e-11  99908.729      99905.779      101229.36      2.5922655e-06  5.1699357e-07  2.075272e-06   1.0643195e+08
    147000   2.6825579e-11  99905.76       99902.156      101445.3       2.5922832e-06  5.1707291e-07  2.0752103e-06  1.0643345e+08
    148000   2.7008066e-11  99904.084      99900.671      101379.68      2.592251e-06   5.1707548e-07  2.0751755e-06  1.0642925e+08
    149000   2.7190552e-11  99903.609      99901.539      100930         2.5922487e-06  5.170831e-07   2.0751656e-06  1.0642801e+08
    150000   2.7373039e-11  99897.263      99895.233      100910.32      2.5922602e-06  5.172264e-07   2.0750338e-06  1.0642792e+08
    151000   2.7555526e-11  99900.301      99898.361      100883.19      2.5922377e-06  5.1714082e-07  2.0750969e-06  1.0642722e+08
    152000   2.7738013e-11  99907.402      99908.218      99968.339      2.5922644e-06  5.1701996e-07  2.0752444e-06  1.0643048e+08
    153000   2.79205e-11    99896.018      99895.629      100360.25      2.5923013e-06  5.1729335e-07  2.0750079e-06  1.0643129e+08
    154000   2.8102987e-11  99904.358      99902.713      100788.46      2.5922859e-06  5.1710471e-07  2.0751812e-06  1.0643391e+08
    155000   2.8285474e-11  99911.544      99906.881      101805.01      2.5922773e-06  5.1694692e-07  2.0753304e-06  1.0643265e+08
    156000   2.8467961e-11  99928.091      99922.947      101982.56      2.5922767e-06  5.1660257e-07  2.0756741e-06  1.0643786e+08
    157000   2.8650448e-11  99909.241      99904.026      101987.63      2.5922635e-06  5.169809e-07   2.0752826e-06  1.064323e+08 
    158000   2.8832935e-11  99904.075      99898.265      102181.28      2.59226e-06    5.1708468e-07  2.0751753e-06  1.0642963e+08
    159000   2.9015422e-11  99907.187      99901.849      102026.65      2.5922432e-06  5.1700325e-07  2.0752399e-06  1.0642939e+08
    160000   2.9197909e-11  99919.938      99914.135      102194.99      2.5922604e-06  5.1675564e-07  2.0755048e-06  1.0643455e+08
    161000   2.9380396e-11  99921.899      99916.793      101963.68      2.5922684e-06  5.1672292e-07  2.0755455e-06  1.0643655e+08
    162000   2.9562883e-11  99895.417      99892.262      101284.94      2.592282e-06   5.1728651e-07  2.0749955e-06  1.0642994e+08
    163000   2.9745369e-11  99895.939      99894.381      100751.04      2.5922383e-06  5.1723205e-07  2.0750063e-06  1.0642376e+08
    164000   2.9927856e-11  99917.527      99919.148      99709.753      2.5922396e-06  5.1678489e-07  2.0754547e-06  1.0643082e+08
    165000   3.0110343e-11  99924.445      99927.378      99277.654      2.5922773e-06  5.1667888e-07  2.0755984e-06  1.06438e+08  
    166000   3.029283e-11   99894.122      99899.685      98367.772      2.5922705e-06  5.1730199e-07  2.0749686e-06  1.0642828e+08
    167000   3.0475317e-11  99897.286      99903.397      98187.594      2.5922712e-06  5.1723694e-07  2.0750343e-06  1.0642864e+08
    168000   3.0657804e-11  99908.901      99916.935      97556.188      2.5922555e-06  5.1697995e-07  2.0752755e-06  1.0643123e+08
    169000   3.0840291e-11  99895.217      99903.347      97510.374      2.5922869e-06  5.1729555e-07  2.0749913e-06  1.0643017e+08
    170000   3.1022778e-11  99904.145      99914.552      96757.71       2.5922824e-06  5.1710562e-07  2.0751767e-06  1.0643332e+08
    171000   3.1205265e-11  99912.619      99922.47       96952.128      2.592273e-06   5.1692025e-07  2.0753528e-06  1.0643371e+08
    172000   3.1387752e-11  99897.551      99906.45       97255.533      2.5922528e-06  5.1721301e-07  2.0750398e-06  1.0642524e+08
    173000   3.1570239e-11  99906.352      99914.362      97561.764      2.5922465e-06  5.170239e-07   2.0752226e-06  1.0642721e+08
    174000   3.1752726e-11  99905.887      99914.032      97516.066      2.5922538e-06  5.1704084e-07  2.0752129e-06  1.0642977e+08
    175000   3.1935213e-11  99908.589      99917.682      97201.466      2.5922474e-06  5.1697839e-07  2.0752691e-06  1.0643003e+08
    176000   3.21177e-11    99909.112      99916.851      97655.066      2.5922502e-06  5.1697025e-07  2.0752799e-06  1.0642997e+08
    177000   3.2300186e-11  99906.481      99915.445      97242.578      2.5922609e-06  5.1703566e-07  2.0752253e-06  1.0643071e+08
    178000   3.2482673e-11  99910.561      99920.052      97070.667      2.5922562e-06  5.1694621e-07  2.07531e-06    1.06431e+08  
    179000   3.266516e-11   99910.353      99918.793      97421.718      2.5922417e-06  5.1693597e-07  2.0753057e-06  1.0642851e+08
    180000   3.2847647e-11  99884.916      99892.555      97663.975      2.592267e-06   5.1748963e-07  2.0747773e-06  1.0642433e+08
    181000   3.3030134e-11  99903.569      99910.219      98013.7        2.5922644e-06  5.1709957e-07  2.0751648e-06  1.0642933e+08
    182000   3.3212621e-11  99920.146      99925.858      98344.202      2.5922652e-06  5.1675611e-07  2.0755091e-06  1.0643415e+08
    183000   3.3395108e-11  99912.033      99918.745      98001.349      2.5922679e-06  5.1692729e-07  2.0753406e-06  1.0643276e+08
    184000   3.3577595e-11  99901.025      99909.238      97488.398      2.5922827e-06  5.1717076e-07  2.0751119e-06  1.0643291e+08
    185000   3.3760082e-11  99909.958      99919.46       97066.15       2.5922764e-06  5.1697892e-07  2.0752975e-06  1.0643698e+08
    186000   3.3942569e-11  99886.856      99896.292      97065.303      2.5922904e-06  5.1747278e-07  2.0748176e-06  1.0642928e+08
    187000   3.4125056e-11  99889.417      99899.092      96987.886      2.5922774e-06  5.1740662e-07  2.0748708e-06  1.0642836e+08
    188000   3.4307543e-11  99890.285      99899.499      97142.812      2.5922745e-06  5.1738566e-07  2.0748888e-06  1.0642758e+08
    189000   3.449003e-11   99913.253      99921.353      97538.308      2.5922883e-06  5.1692237e-07  2.0753659e-06  1.0643519e+08
    190000   3.4672517e-11  99913.137      99919.069      98263.595      2.5922847e-06  5.1692119e-07  2.0753635e-06  1.0643784e+08
    191000   3.4855003e-11  99890.627      99896.107      98391.771      2.5923086e-06  5.174127e-07   2.0748959e-06  1.0643518e+08
    192000   3.503749e-11   99900.171      99907.154      97898.67       2.59232e-06    5.1722582e-07  2.0750942e-06  1.0643897e+08
    193000   3.5219977e-11  99900.141      99907.182      97879.263      2.5922989e-06  5.1720532e-07  2.0750936e-06  1.064359e+08 
    194000   3.5402464e-11  99883.985      99888.647      98658.863      2.5922863e-06  5.1752835e-07  2.074758e-06   1.0642906e+08
    195000   3.5584951e-11  99889.283      99894.95       98328.225      2.5923026e-06  5.1743452e-07  2.074868e-06   1.0642955e+08
    196000   3.5767438e-11  99900.048      99906.763      97988.187      2.5922905e-06  5.1719887e-07  2.0750916e-06  1.0643223e+08
    197000   3.5949925e-11  99915.724      99921.704      98249.843      2.5922736e-06  5.1685631e-07  2.0754173e-06  1.0643523e+08
    198000   3.6132412e-11  99931.931      99939.174      97843.672      2.5922844e-06  5.1653045e-07  2.0757539e-06  1.0644078e+08
    199000   3.6314899e-11  99913.647      99921.694      97556.786      2.5922796e-06  5.1690549e-07  2.0753741e-06  1.0643572e+08
    200000   3.6497386e-11  99922.919      99932.559      97033.289      2.5922757e-06  5.1670901e-07  2.0755667e-06  1.0643811e+08
    201000   3.6679873e-11  99893.503      99903.163      96996.619      2.592264e-06   5.1730827e-07  2.0749557e-06  1.0642679e+08
    202000   3.686236e-11   99915.692      99926.204      96734.361      2.5922681e-06  5.1685153e-07  2.0754166e-06  1.0643428e+08
    203000   3.7044847e-11  99897.707      99908.821      96514.91       2.5922904e-06  5.1724735e-07  2.075043e-06   1.0643164e+08
    204000   3.7227334e-11  99891.574      99901.402      96938.861      2.5922836e-06  5.1736792e-07  2.0749156e-06  1.0642736e+08
    205000   3.740982e-11   99895.99       99905.984      96887.75       2.5922785e-06  5.1727115e-07  2.0750074e-06  1.0643051e+08
    206000   3.7592307e-11  99880.567      99888.379      97602.071      2.5923e-06     5.1761299e-07  2.074687e-06   1.0642918e+08
    207000   3.7774794e-11  99900.748      99907.522      97969.532      2.592279e-06   5.1717284e-07  2.0751062e-06  1.0643344e+08
    208000   3.7957281e-11  99914.819      99922.254      97762.453      2.5922585e-06  5.1686006e-07  2.0753985e-06  1.0643261e+08
    209000   3.8139768e-11  99903.607      99911.542      97583.979      2.5922612e-06  5.1709566e-07  2.0751656e-06  1.0642884e+08
    210000   3.8322255e-11  99895.704      99902.807      97854.169      2.5922546e-06  5.1725315e-07  2.0750014e-06  1.0642761e+08
    211000   3.8504742e-11  99906.878      99913.782      97932.132      2.5922689e-06  5.1703539e-07  2.0752335e-06  1.0643271e+08
    212000   3.8687229e-11  99905.789      99913.004      97826.693      2.5922793e-06  5.1706841e-07  2.0752109e-06  1.0643303e+08
    213000   3.8869716e-11  99895.427      99902.683      97803.01       2.5922611e-06  5.1726542e-07  2.0749957e-06  1.0642861e+08
    214000   3.9052203e-11  99895.435      99902.498      97867.186      2.5922665e-06  5.1727069e-07  2.0749958e-06  1.0642898e+08
    215000   3.923469e-11   99883.811      99890.856      97861.653      2.5922688e-06  5.1751442e-07  2.0747544e-06  1.0642707e+08
    216000   3.9417177e-11  99905.639      99911.852      98161.665      2.5922694e-06  5.1706163e-07  2.0752078e-06  1.0643324e+08
    217000   3.9599664e-11  99906.778      99910.359      99043.489      2.5922512e-06  5.170198e-07   2.0752314e-06  1.0642921e+08
    218000   3.9782151e-11  99898.509      99902.199      98998.269      2.5922455e-06  5.1718581e-07  2.0750597e-06  1.0642394e+08
    219000   3.9964637e-11  99921.679      99924.211      99408.81       2.5922526e-06  5.1671167e-07  2.075541e-06   1.0643218e+08
    220000   4.0147124e-11  99895.649      99897.323      99669.911      2.5922622e-06  5.1726192e-07  2.0750003e-06  1.0642626e+08
    221000   4.0329611e-11  99888.526      99890.506      99560.428      2.5922683e-06  5.1741601e-07  2.0748523e-06  1.0642591e+08
    222000   4.0512098e-11  99902.237      99905.258      99226.057      2.5922875e-06  5.1715035e-07  2.0751371e-06  1.0643297e+08
    223000   4.0694585e-11  99897.244      99900.882      99014.569      2.5922774e-06  5.1724397e-07  2.0750334e-06  1.0642935e+08
    224000   4.0877072e-11  99916.868      99918.625      99663.382      2.5922675e-06  5.168265e-07   2.075441e-06   1.0643449e+08
    225000   4.1059559e-11  99898.6        99899.785      99836.352      2.5922764e-06  5.1721481e-07  2.0750616e-06  1.0642785e+08
    226000   4.1242046e-11  99894.059      99896.885      99282.881      2.5922849e-06  5.1731766e-07  2.0749672e-06  1.0642953e+08
    227000   4.1424533e-11  99905.183      99908.286      99201.428      2.5922878e-06  5.1708952e-07  2.0751983e-06  1.064327e+08 
    228000   4.160702e-11   99900.837      99903.118      99471.989      2.592293e-06   5.17185e-07    2.075108e-06   1.0643271e+08
    229000   4.1789507e-11  99890.9        99894.558      99001.627      2.5922955e-06  5.1739388e-07  2.0749016e-06  1.0642977e+08
    230000   4.1971994e-11  99910.879      99917.02       98191.26       2.5922662e-06  5.1694962e-07  2.0753166e-06  1.0643298e+08
    231000   4.2154481e-11  99915.812      99918.766      99262.198      2.5922639e-06  5.1684482e-07  2.0754191e-06  1.0643264e+08
    232000   4.2336968e-11  99899.692      99902.137      99416.25       2.592282e-06   5.1719775e-07  2.0750843e-06  1.0643053e+08
    233000   4.2519454e-11  99912.905      99914          99881.055      2.5922895e-06  5.1693076e-07  2.0753587e-06  1.0643753e+08
    234000   4.2701941e-11  99904.725      99906.342      99697.908      2.5923129e-06  5.1712411e-07  2.0751888e-06  1.0643668e+08
    235000   4.2884428e-11  99910.729      99911.959      99833.738      2.5923019e-06  5.1698843e-07  2.0753135e-06  1.0643917e+08
    236000   4.3066915e-11  99896.66       99896.936      100138.66      2.5922843e-06  5.1726299e-07  2.0750213e-06  1.0643223e+08
    237000   4.3249402e-11  99897.711      99898.283      100040.66      2.5922814e-06  5.1723829e-07  2.0750431e-06  1.0643188e+08
    238000   4.3431889e-11  99903.76       99902.18       100766.34      2.5922695e-06  5.1710079e-07  2.0751688e-06  1.0643148e+08
    239000   4.3614376e-11  99905.533      99903.07       101063.56      2.5922663e-06  5.1706071e-07  2.0752056e-06  1.0643193e+08
    240000   4.3796863e-11  99905.655      99902.358      101342.3       2.5922646e-06  5.170565e-07   2.0752081e-06  1.0643213e+08
    241000   4.397935e-11   99912.985      99909.122      101538.94      2.5922826e-06  5.1692222e-07  2.0753604e-06  1.0643461e+08
    242000   4.4161837e-11  99913.579      99909.969      101455.32      2.5922726e-06  5.1689991e-07  2.0753727e-06  1.0643363e+08
    243000   4.4344324e-11  99902.414      99897.601      101846.26      2.5922607e-06  5.171199e-07   2.0751408e-06  1.0642761e+08
    244000   4.4526811e-11  99914.566      99907.994      102446.72      2.5922642e-06  5.1687099e-07  2.0753932e-06  1.0643264e+08
    245000   4.4709298e-11  99901.275      99892.834      103058.6       2.592295e-06   5.1717783e-07  2.0751171e-06  1.0643249e+08
    246000   4.4891785e-11  99906.314      99900.006      102350.04      2.5922889e-06  5.1706711e-07  2.0752218e-06  1.0643521e+08
    247000   4.5074271e-11  99901.141      99892.629      103082.2       2.592284e-06   5.1716968e-07  2.0751144e-06  1.0643222e+08
    248000   4.5256758e-11  99906.193      99896.526      103473.7       2.5922866e-06  5.1706734e-07  2.0752193e-06  1.0643587e+08
    249000   4.5439245e-11  99897.219      99888.299      103214.49      2.5922937e-06  5.1726085e-07  2.0750329e-06  1.0643511e+08
    250000   4.5621732e-11  99898.436      99891.741      102471.54      2.5922607e-06  5.1720251e-07  2.0750582e-06  1.0643008e+08
    251000   4.5804219e-11  99898.065      99891.115      102556.57      2.5922435e-06  5.1719303e-07  2.0750505e-06  1.0642598e+08
    252000   4.5986706e-11  99889.623      99883.909      102134.53      2.5922627e-06  5.1738757e-07  2.0748751e-06  1.0642576e+08
    253000   4.6169193e-11  99903.664      99898.462      101977.59      2.5923033e-06  5.1713654e-07  2.0751668e-06  1.0643579e+08
    254000   4.635168e-11   99909.671      99906.49       101307.5       2.5922891e-06  5.1699757e-07  2.0752915e-06  1.0643674e+08
    255000   4.6534167e-11  99900.817      99896.552      101661.11      2.5922928e-06  5.1718521e-07  2.0751076e-06  1.0643322e+08
    256000   4.6716654e-11  99884.108      99880.815      101319.56      2.5922915e-06  5.1753098e-07  2.0747605e-06  1.0642708e+08
    257000   4.6899141e-11  99905.373      99902.904      101065.05      2.5922982e-06  5.1709596e-07  2.0752023e-06  1.0643445e+08
    258000   4.7081628e-11  99910.763      99907.764      101248.04      2.5922636e-06  5.1694938e-07  2.0753142e-06  1.0643249e+08
    259000   4.7264115e-11  99900.635      99898.275      101023.99      2.592266e-06   5.1716214e-07  2.0751038e-06  1.0642863e+08
    260000   4.7446602e-11  99896.845      99892.356      101732.41      2.5922838e-06  5.1725865e-07  2.0750251e-06  1.0643045e+08
    261000   4.7629088e-11  99908.666      99903.497      101971.79      2.5922892e-06  5.1701856e-07  2.0752707e-06  1.0643467e+08
    262000   4.7811575e-11  99892.713      99889.632      101257.02      2.5922784e-06  5.1733915e-07  2.0749393e-06  1.0642838e+08
    263000   4.7994062e-11  99908.343      99906.551      100841.67      2.5922736e-06  5.1700969e-07  2.0752639e-06  1.064341e+08 
    264000   4.8176549e-11  99903.899      99904.249      100120.89      2.5922712e-06  5.1709957e-07  2.0751716e-06  1.0643108e+08
    265000   4.8359036e-11  99916.2        99917.091      99952.628      2.5922627e-06  5.1683554e-07  2.0754272e-06  1.0643269e+08
    266000   4.8541523e-11  99904.292      99904.707      100099.35      2.5922644e-06  5.1708456e-07  2.0751798e-06  1.0643083e+08
    267000   4.872401e-11   99888.083      99890.834      99301.926      2.5922718e-06  5.1742868e-07  2.0748431e-06  1.0642672e+08
    268000   4.8906497e-11  99909.845      99914.916      98547.765      2.5922645e-06  5.1696939e-07  2.0752951e-06  1.0643319e+08
    269000   4.9088984e-11  99916.443      99923.219      97984.441      2.5922813e-06  5.1684905e-07  2.0754322e-06  1.0643647e+08
    270000   4.9271471e-11  99897.733      99906.969      97142.821      2.5923042e-06  5.1726069e-07  2.0750435e-06  1.064347e+08 
    271000   4.9453958e-11  99908.646      99918.5        96947.159      2.5923075e-06  5.1703721e-07  2.0752702e-06  1.0643783e+08
    272000   4.9636445e-11  99908.447      99918.821      96773.123      2.5923083e-06  5.1704221e-07  2.0752661e-06  1.064383e+08 
    273000   4.9818932e-11  99914.977      99925.447      96747.475      2.5922764e-06  5.1687464e-07  2.0754018e-06  1.0643511e+08
    274000   5.0001419e-11  99931.081      99942.516      96440.999      2.5922598e-06  5.1652352e-07  2.0757362e-06  1.06437e+08  
    275000   5.0183905e-11  99909.459      99919.965      96729.798      2.5922684e-06  5.1698123e-07  2.0752871e-06  1.0643327e+08
    276000   5.0366392e-11  99893.26       99902.844      97022.19       2.5922766e-06  5.1732597e-07  2.0749507e-06  1.0642925e+08
    277000   5.0548879e-11  99911.199      99922.953      96314.507      2.592286e-06   5.1696276e-07  2.0753233e-06  1.0643587e+08
    278000   5.0731366e-11  99896.897      99908.459      96364.286      2.5922877e-06  5.172615e-07   2.0750262e-06  1.0643091e+08
    279000   5.0913853e-11  99890.746      99899.687      97234.474      2.5922972e-06  5.1739876e-07  2.0748984e-06  1.0643157e+08
    280000   5.109634e-11   99889.803      99898.65       97265.251      2.5922758e-06  5.1739699e-07  2.0748789e-06  1.0642863e+08
    281000   5.1278827e-11  99915.575      99923.813      97494.575      2.5922816e-06  5.1686747e-07  2.0754142e-06  1.0643653e+08
    282000   5.1461314e-11  99920.542      99927.189      98031.446      2.5922766e-06  5.1675928e-07  2.0755173e-06  1.0643792e+08
    283000   5.1643801e-11  99913.05       99917.697      98693.121      2.592271e-06   5.1690932e-07  2.0753617e-06  1.0643473e+08
    284000   5.1826288e-11  99910.581      99913.981      99107.779      2.5922843e-06  5.1697386e-07  2.0753104e-06  1.0643524e+08
    285000   5.2008775e-11  99903.397      99905.844      99419.19       2.5922749e-06  5.1711366e-07  2.0751612e-06  1.0643246e+08
    286000   5.2191262e-11  99904.191      99906.534      99454.491      2.592294e-06   5.1711629e-07  2.0751777e-06  1.0643406e+08
    287000   5.2373749e-11  99891.409      99892.39       99897.299      2.5922899e-06  5.1737774e-07  2.0749122e-06  1.0643059e+08
    288000   5.2556236e-11  99911.897      99911.655      100327.03      2.5922919e-06  5.1695414e-07  2.0753378e-06  1.0643964e+08
    289000   5.2738722e-11  99906.571      99905.864      100476.94      2.5922826e-06  5.1705542e-07  2.0752271e-06  1.0643754e+08
    290000   5.2921209e-11  99894.449      99893.375      100587.53      2.5922693e-06  5.1729398e-07  2.0749753e-06  1.0643037e+08
    291000   5.3103696e-11  99899.547      99898.481      100590.24      2.5923002e-06  5.1721897e-07  2.0750812e-06  1.0643395e+08
    292000   5.3286183e-11  99899.396      99897.896      100735.29      2.5922898e-06  5.1721167e-07  2.0750781e-06  1.0643424e+08
    293000   5.346867e-11   99898.003      99895.798      100969.6       2.592297e-06   5.1724782e-07  2.0750492e-06  1.0643337e+08
    294000   5.3651157e-11  99903.662      99901.916      100821.74      2.5922752e-06  5.1710843e-07  2.0751667e-06  1.0643328e+08
    295000   5.3833644e-11  99907.043      99905.67       100700.23      2.5922788e-06  5.1704184e-07  2.0752369e-06  1.0643381e+08
    296000   5.4016131e-11  99908.003      99905.415      101107.47      2.5922694e-06  5.1701249e-07  2.0752569e-06  1.0643309e+08
    297000   5.4198618e-11  99898.276      99893.919      101689.56      2.5922898e-06  5.1723496e-07  2.0750548e-06  1.0643163e+08
    298000   5.4381105e-11  99904.86       99897.089      102838.05      2.5922697e-06  5.1707807e-07  2.0751916e-06  1.064348e+08 
    299000   5.4563592e-11  99898.421      99889.401      103249.24      2.5922797e-06  5.1722188e-07  2.0750578e-06  1.0643073e+08
    300000   5.4746079e-11  99887.406      99878.571      103176.53      2.5922765e-06  5.1744744e-07  2.0748291e-06  1.0642738e+08
    301000   5.4928566e-11  99900.789      99890.629      103632.77      2.5922984e-06  5.1719139e-07  2.075107e-06   1.0643472e+08
    302000   5.5111053e-11  99895.448      99883.323      104284.7       2.5923376e-06  5.1734153e-07  2.0749961e-06  1.064373e+08 
    303000   5.529354e-11   99881.702      99868.975      104472.17      2.5923277e-06  5.176171e-07   2.0747106e-06  1.0643471e+08
    304000   5.5476026e-11  99879.085      99866.646      104373.3       2.5923099e-06  5.1765372e-07  2.0746562e-06  1.0643059e+08
    305000   5.5658513e-11  99918.229      99906.242      104261.43      2.5922867e-06  5.1681739e-07  2.0754693e-06  1.0643789e+08
    306000   5.5841e-11     99921.449      99909.594      104220.64      2.5922612e-06  5.1672501e-07  2.0755362e-06  1.0643658e+08
    307000   5.6023487e-11  99919.236      99907.789      104081.68      2.5922682e-06  5.16778e-07    2.0754902e-06  1.0643464e+08
    308000   5.6205974e-11  99905.757      99897.103      103134         2.5922666e-06  5.1705633e-07  2.0752102e-06  1.0643058e+08
    309000   5.6388461e-11  99881.514      99873.874      102770.75      2.5922741e-06  5.1756747e-07  2.0747067e-06  1.0642703e+08
    310000   5.6570948e-11  99879.557      99872.301      102640.04      2.5922705e-06  5.1760445e-07  2.074666e-06   1.0642681e+08
    311000   5.6753435e-11  99881.422      99875.322      102255.63      2.5922751e-06  5.1757039e-07  2.0747048e-06  1.0642658e+08
    312000   5.6935922e-11  99898.521      99889.496      103250.94      2.5922785e-06  5.1721852e-07  2.0750599e-06  1.0643085e+08
    313000   5.7118409e-11  99911.201      99902.191      103258.66      2.5922832e-06  5.1695988e-07  2.0753233e-06  1.0643505e+08
    314000   5.7300896e-11  99912.207      99902.38       103533.07      2.5922835e-06  5.1693932e-07  2.0753442e-06  1.0643637e+08
    315000   5.7483383e-11  99891.054      99881.721      103346.67      2.5922793e-06  5.1737449e-07  2.0749048e-06  1.0642893e+08
    316000   5.766587e-11   99906.679      99898.048      103127.32      2.5922835e-06  5.170541e-07   2.0752294e-06  1.0643475e+08
    317000   5.7848357e-11  99890.926      99879.747      103964.04      2.5922916e-06  5.1738938e-07  2.0749022e-06  1.0643135e+08
    318000   5.8030843e-11  99902.639      99892.368      103671.82      2.5922788e-06  5.1713334e-07  2.0751455e-06  1.0643294e+08
    319000   5.821333e-11   99893.6        99884.436      103292.57      2.5922867e-06  5.17329e-07    2.0749577e-06  1.0643107e+08
    320000   5.8395817e-11  99921.43       99913.623      102866.63      2.5922533e-06  5.1671747e-07  2.0755358e-06  1.0643455e+08
    321000   5.8578304e-11  99915.388      99907.803      102786.08      2.5922748e-06  5.1686448e-07  2.0754103e-06  1.0643527e+08
    322000   5.8760791e-11  99908.019      99903.217      101848.21      2.5922587e-06  5.1700144e-07  2.0752572e-06  1.0643145e+08
    323000   5.8943278e-11  99924.115      99919.479      101809         2.5922657e-06  5.1667412e-07  2.0755916e-06  1.0643641e+08
    324000   5.9125765e-11  99920.485      99917.673      101194.95      2.5922726e-06  5.1675646e-07  2.0755162e-06  1.0643705e+08
    325000   5.9308252e-11  99910.606      99906.374      101660.11      2.5922814e-06  5.1697048e-07  2.075311e-06   1.0643613e+08
    326000   5.9490739e-11  99899.162      99895.5        101457.86      2.5922821e-06  5.172089e-07   2.0750732e-06  1.0643001e+08
    327000   5.9673226e-11  99909.02       99905.198      101521.52      2.5922624e-06  5.1698443e-07  2.075278e-06   1.0643247e+08
    328000   5.9855713e-11  99906.109      99903.117      101241.01      2.5922815e-06  5.1706398e-07  2.0752175e-06  1.0643179e+08
    329000   6.00382e-11    99917.245      99913.836      101391.61      2.592243e-06   5.1679414e-07  2.0754489e-06  1.0643104e+08
    330000   6.0220687e-11  99904.172      99899.737      101721.56      2.5922387e-06  5.1706135e-07  2.0751773e-06  1.0642814e+08
    331000   6.0403174e-11  99921.925      99917.112      101865.95      2.592257e-06   5.1671096e-07  2.0755461e-06  1.0643399e+08
    332000   6.058566e-11   99905.879      99900.196      102140.73      2.59225e-06    5.1703726e-07  2.0752128e-06  1.0643019e+08
    333000   6.0768147e-11  99901.06       99897.375      101467.67      2.5922564e-06  5.1714371e-07  2.0751127e-06  1.064312e+08 
    334000   6.0950634e-11  99897.334      99895.157      100959.49      2.592262e-06   5.1722668e-07  2.0750353e-06  1.0642931e+08
    335000   6.1133121e-11  99901.562      99900.775      100498.84      2.5922641e-06  5.1714098e-07  2.0751231e-06  1.0643054e+08
    336000   6.1315608e-11  99906.46       99907.833      99781.414      2.5922666e-06  5.1704177e-07  2.0752248e-06  1.0643235e+08
    337000   6.1498095e-11  99904.072      99902.751      100680.27      2.5922426e-06  5.170674e-07   2.0751752e-06  1.064312e+08 
    338000   6.1680582e-11  99894.437      99892.397      100911         2.5922751e-06  5.1729995e-07  2.0749751e-06  1.0643066e+08
    339000   6.1863069e-11  99912.907      99911.757      100631.74      2.5922577e-06  5.1689893e-07  2.0753587e-06  1.0643407e+08
    340000   6.2045556e-11  99910.304      99909.75       100429.86      2.592258e-06   5.1695335e-07  2.0753047e-06  1.0643348e+08
    341000   6.2228043e-11  99897.905      99897.784      100272.71      2.5922785e-06  5.1723138e-07  2.0750471e-06  1.0643169e+08
    342000   6.241053e-11   99900.892      99900.402      100398.89      2.5922737e-06  5.1716455e-07  2.0751092e-06  1.064316e+08 
    343000   6.2593017e-11  99901.814      99897.23       101768.91      2.5922667e-06  5.1713834e-07  2.0751283e-06  1.0642853e+08
    344000   6.2775504e-11  99907.149      99898.541      103120         2.592262e-06   5.1702282e-07  2.0752391e-06  1.064314e+08 
    345000   6.2957991e-11  99919.7        99909.437      103686.33      2.59227e-06    5.1677012e-07  2.0754999e-06  1.0643584e+08
    346000   6.3140477e-11  99917.66       99909.259      103061.42      2.5922816e-06  5.1682413e-07  2.0754575e-06  1.0643619e+08
    347000   6.3322964e-11  99903.725      99894.638      103276.9       2.5922855e-06  5.1711748e-07  2.075168e-06   1.0643238e+08
    348000   6.3505451e-11  99916.77       99905.789      103923.35      2.5922824e-06  5.1684342e-07  2.075439e-06   1.064381e+08 
    349000   6.3687938e-11  99902.669      99891.234      104061.12      2.5922747e-06  5.1712858e-07  2.0751461e-06  1.0643134e+08
    350000   6.3870425e-11  99921.261      99907.95       104707         2.5922681e-06  5.1673586e-07  2.0755323e-06  1.0643643e+08
    351000   6.4052912e-11  99904.955      99890.634      105028.72      2.5922794e-06  5.1708582e-07  2.0751936e-06  1.0643265e+08
    352000   6.4235399e-11  99905.68       99891.906      104846.27      2.5922913e-06  5.1708266e-07  2.0752086e-06  1.0643465e+08
    353000   6.4417886e-11  99911.794      99897.207      105124.49      2.5922722e-06  5.1693652e-07  2.0753356e-06  1.0643639e+08
    354000   6.4600373e-11  99906.386      99894.305      104281.23      2.5922541e-06  5.1703083e-07  2.0752233e-06  1.0642963e+08
    355000   6.478286e-11   99917.364      99906.376      103926.59      2.5922635e-06  5.1681217e-07  2.0754513e-06  1.0643276e+08
    356000   6.4965347e-11  99897.1        99884.811      104341.31      2.592256e-06   5.1722555e-07  2.0750304e-06  1.0642844e+08
    357000   6.5147834e-11  99902.241      99890.589      104133.07      2.592267e-06   5.1712979e-07  2.0751372e-06  1.0643217e+08
    358000   6.5330321e-11  99904.937      99893.305      104129.12      2.5922876e-06  5.1709441e-07  2.0751932e-06  1.0643535e+08
    359000   6.5512808e-11  99909.261      99900.146      103292.03      2.5922879e-06  5.170049e-07   2.075283e-06   1.0643853e+08
    360000   6.5695294e-11  99888.384      99879.222      103286.47      2.5922732e-06  5.1742382e-07  2.0748494e-06  1.0642821e+08
    361000   6.5877781e-11  99912.657      99904.376      103016.52      2.5922722e-06  5.1691863e-07  2.0753536e-06  1.0643372e+08
    362000   6.6060268e-11  99921.001      99914.347      102480.46      2.592258e-06   5.1673114e-07  2.0755269e-06  1.0643452e+08
    363000   6.6242755e-11  99904.846      99899.772      101935.99      2.5922594e-06  5.1706813e-07  2.0751913e-06  1.0642906e+08
    364000   6.6425242e-11  99918.88       99912.541      102373.1       2.5922638e-06  5.1678101e-07  2.0754828e-06  1.0643542e+08
    365000   6.6607729e-11  99904.692      99898.871      102185.6       2.5922578e-06  5.1706968e-07  2.0751881e-06  1.0643087e+08
    366000   6.6790216e-11  99918.048      99911.741      102361.67      2.5922763e-06  5.1681077e-07  2.0754655e-06  1.0643618e+08
    367000   6.6972703e-11  99896.45       99891.222      101979.07      2.5922587e-06  5.1724174e-07  2.0750169e-06  1.0642989e+08
    368000   6.715519e-11   99897.369      99893.579      101499.15      2.5922784e-06  5.1724236e-07  2.075036e-06   1.0643163e+08
    369000   6.7337677e-11  99907.492      99902.989      101747.5       2.5922655e-06  5.1701924e-07  2.0752463e-06  1.0643272e+08
    370000   6.7520164e-11  99908.285      99902.087      102315.54      2.5922604e-06  5.1699769e-07  2.0752627e-06  1.0643246e+08
    371000   6.7702651e-11  99919.739      99913.075      102482.65      2.5922649e-06  5.1676427e-07  2.0755007e-06  1.0643592e+08
    372000   6.7885138e-11  99899.013      99892.943      102263.24      2.592276e-06   5.172058e-07   2.0750702e-06  1.0643158e+08
    373000   6.8067625e-11  99892.171      99888.176      101562.22      2.5922741e-06  5.1734606e-07  2.074928e-06   1.064294e+08 
    374000   6.8250111e-11  99918.403      99915.472      101232.87      2.5922623e-06  5.1678938e-07  2.0754729e-06  1.0643723e+08
    375000   6.8432598e-11  99915.439      99912.565      101210.84      2.5922581e-06  5.1684678e-07  2.0754113e-06  1.064353e+08 
    376000   6.8615085e-11  99890.163      99888.299      100847.64      2.5922493e-06  5.1736295e-07  2.0748863e-06  1.0642596e+08
    377000   6.8797572e-11  99896.136      99892.788      101350.07      2.5922694e-06  5.1725903e-07  2.0750104e-06  1.0643019e+08
    378000   6.8980059e-11  99889.568      99887.196      101016.78      2.5922693e-06  5.1739532e-07  2.074874e-06   1.0642891e+08
    379000   6.9162546e-11  99894.265      99892.417      100846.4       2.5922704e-06  5.1729891e-07  2.0749715e-06  1.0642893e+08
    380000   6.9345033e-11  99891.562      99891.929      100102.97      2.5922449e-06  5.1732947e-07  2.0749154e-06  1.0642555e+08
    381000   6.952752e-11   99916.437      99919.489      99229.84       2.5922689e-06  5.1683682e-07  2.0754321e-06  1.0643523e+08
    382000   6.9710007e-11  99901.195      99904.662      99075.714      2.5922593e-06  5.1714385e-07  2.0751155e-06  1.0642894e+08
    383000   6.9892494e-11  99893.53       99896.753      99149.649      2.5922498e-06  5.1729357e-07  2.0749563e-06  1.0642359e+08
    384000   7.0074981e-11  99919.006      99922.855      98965.92       2.5922446e-06  5.1675913e-07  2.0754854e-06  1.0643328e+08
    385000   7.0257468e-11  99921.068      99925.174      98882.069      2.5922653e-06  5.16737e-07    2.0755283e-06  1.0643562e+08
    386000   7.0439955e-11  99928.076      99930.781      99357.751      2.5922889e-06  5.1661508e-07  2.0756738e-06  1.0643891e+08
    387000   7.0622442e-11  99919.282      99919.376      100221.72      2.5922795e-06  5.1678831e-07  2.0754912e-06  1.0643606e+08
    388000   7.0804928e-11  99920.521      99919.323      100655.41      2.5922682e-06  5.1675126e-07  2.0755169e-06  1.0643602e+08
    389000   7.0987415e-11  99921.395      99917.218      101652.51      2.592276e-06   5.167409e-07   2.0755351e-06  1.0643774e+08
    390000   7.1169902e-11  99901.835      99896.845      101904.66      2.5922561e-06  5.1712733e-07  2.0751288e-06  1.0643011e+08
    391000   7.1352389e-11  99898.237      99891.909      102348.83      2.5922416e-06  5.171876e-07   2.075054e-06   1.0642868e+08
    392000   7.1534876e-11  99890.261      99886.388      101519.65      2.5922606e-06  5.1737227e-07  2.0748884e-06  1.064288e+08 
    393000   7.1717363e-11  99909.424      99906.624      101179.86      2.592252e-06   5.1696563e-07  2.0752864e-06  1.0643275e+08
    394000   7.189985e-11   99899.713      99897.916      100834.87      2.5922515e-06  5.1716684e-07  2.0750847e-06  1.0642928e+08
    395000   7.2082337e-11  99910.755      99908.581      100971.8       2.592251e-06   5.1693696e-07  2.075314e-06   1.0643273e+08
    396000   7.2264824e-11  99911.204      99908.456      101164.19      2.5922434e-06  5.1691999e-07  2.0753234e-06  1.064306e+08 
    397000   7.2447311e-11  99899.22       99900.019      99966.168      2.5922373e-06  5.1716282e-07  2.0750744e-06  1.0642884e+08
    398000   7.2629798e-11  99901.7        99901.354      100351.77      2.5922399e-06  5.171139e-07   2.075126e-06   1.0642905e+08
    399000   7.2812285e-11  99906.303      99905.858      100389.15      2.5922625e-06  5.1704095e-07  2.0752216e-06  1.0643255e+08
    400000   7.2994772e-11  99897.291      99894.682      101103.91      2.5922526e-06  5.172182e-07   2.0750344e-06  1.0643043e+08
    401000   7.3177259e-11  99909.193      99907.32       100869.83      2.5922471e-06  5.1696544e-07  2.0752816e-06  1.0643168e+08
    402000   7.3359745e-11  99903.731      99901.961      100829.92      2.5922602e-06  5.1709206e-07  2.0751681e-06  1.0643221e+08
    403000   7.3542232e-11  99897.456      99897.628      100174.03      2.5922616e-06  5.1722378e-07  2.0750378e-06  1.0643314e+08
    404000   7.3724719e-11  99902.106      99904.031      99592.543      2.5922812e-06  5.1714678e-07  2.0751344e-06  1.0643281e+08
    405000   7.3907206e-11  99902.079      99905.779      98998.636      2.5922663e-06  5.1713249e-07  2.0751338e-06  1.0643175e+08
    406000   7.4089693e-11  99904.412      99908.748      98788.283      2.5922619e-06  5.1707957e-07  2.0751823e-06  1.0643383e+08
    407000   7.427218e-11   99898.461      99904.353      98261.866      2.5922689e-06  5.1721024e-07  2.0750587e-06  1.0643138e+08
    408000   7.4454667e-11  99906.457      99914.254      97632.819      2.5922663e-06  5.1704157e-07  2.0752248e-06  1.0643188e+08
    409000   7.4637154e-11  99909.375      99918.908      97055.33       2.5922494e-06  5.1696403e-07  2.0752854e-06  1.0643408e+08
    410000   7.4819641e-11  99904.326      99916.055      96315.71       2.5922577e-06  5.1707721e-07  2.0751805e-06  1.0643085e+08
    411000   7.5002128e-11  99912.449      99925.588      95852.399      2.5922572e-06  5.1690798e-07  2.0753492e-06  1.064322e+08 
    412000   7.5184615e-11  99903.398      99918.141      95306.853      2.5922503e-06  5.1708904e-07  2.0751612e-06  1.0642976e+08
    413000   7.5367102e-11  99910.085      99923.809      95654.335      2.5922735e-06  5.1697342e-07  2.0753001e-06  1.0643601e+08
    414000   7.5549589e-11  99902.078      99917.598      95045.735      2.5922722e-06  5.1713842e-07  2.0751338e-06  1.0643394e+08
    415000   7.5732076e-11  99914.293      99928.539      95483.878      2.5922608e-06  5.1687328e-07  2.0753875e-06  1.0643674e+08
    416000   7.5914562e-11  99901.447      99913.946      96055.319      2.592285e-06   5.1716424e-07  2.0751207e-06  1.0643188e+08
    417000   7.6097049e-11  99906.012      99918.088      96201.32       2.5922456e-06  5.1703002e-07  2.0752155e-06  1.0642809e+08
    418000   7.6279536e-11  99939.055      99948.579      97087.938      2.5922544e-06  5.1635253e-07  2.0759019e-06  1.0643887e+08
    419000   7.6462023e-11  99907.022      99916.048      97222.461      2.5922622e-06  5.1702573e-07  2.0752365e-06  1.0643249e+08
    420000   7.664451e-11   99903.574      99910.392      97957.476      2.5922701e-06  5.1710521e-07  2.0751649e-06  1.0643402e+08
    421000   7.6826997e-11  99888.916      99895.956      97868.765      2.5922731e-06  5.1741267e-07  2.0748604e-06  1.0643018e+08
    422000   7.7009484e-11  99887.192      99893.723      98037.124      2.5922776e-06  5.17453e-07    2.0748246e-06  1.0643177e+08
    423000   7.7191971e-11  99895.23       99901.393      98168.197      2.5922818e-06  5.1729028e-07  2.0749916e-06  1.0643502e+08
    424000   7.7374458e-11  99889.007      99894.459      98399.643      2.5922719e-06  5.1740962e-07  2.0748623e-06  1.0642821e+08
    425000   7.7556945e-11  99895.824      99899.498      99001.172      2.5922622e-06  5.1725832e-07  2.0750039e-06  1.0642904e+08
    426000   7.7739432e-11  99894.206      99896.579      99434.547      2.5922732e-06  5.1730287e-07  2.0749703e-06  1.0643198e+08
    427000   7.7921919e-11  99893.227      99895.253      99549.793      2.5922629e-06  5.1731298e-07  2.07495e-06    1.0642946e+08
    428000   7.8104406e-11  99914.433      99917.519      99216.335      2.5922624e-06  5.1687196e-07  2.0753904e-06  1.0643363e+08
    429000   7.8286893e-11  99901.064      99903.305      99485.56       2.592239e-06   5.1712626e-07  2.0751127e-06  1.0642837e+08
    430000   7.8469379e-11  99895.273      99895.991      99989.011      2.5922593e-06  5.1726688e-07  2.0749925e-06  1.0642896e+08
    431000   7.8651866e-11  99928.672      99930.218      99745.842      2.5922558e-06  5.165696e-07   2.0756862e-06  1.0643733e+08
    432000   7.8834353e-11  99899.345      99900.625      99805.368      2.5922539e-06  5.1717684e-07  2.075077e-06   1.0642817e+08
    433000   7.901684e-11   99906.741      99906.161      100434.99      2.5922587e-06  5.1702799e-07  2.0752307e-06  1.0643348e+08
    434000   7.9199327e-11  99883.245      99881.619      100761.02      2.5922376e-06  5.1749501e-07  2.0747426e-06  1.0642203e+08
    435000   7.9381814e-11  99902.523      99902.342      100297.16      2.5922462e-06  5.1710313e-07  2.0751431e-06  1.0642905e+08
    436000   7.9564301e-11  99929.406      99931.844      99448.243      2.5922464e-06  5.1654494e-07  2.0757015e-06  1.0643775e+08
    437000   7.9746788e-11  99898.221      99902.385      98839.951      2.5922466e-06  5.1719286e-07  2.0750537e-06  1.0642737e+08
    438000   7.9929275e-11  99881.327      99884.482      99160.406      2.5922323e-06  5.1752956e-07  2.0747028e-06  1.0642279e+08
    439000   8.0111762e-11  99901.222      99903.175      99582.128      2.5922471e-06  5.1713111e-07  2.075116e-06   1.0643041e+08
    440000   8.0294249e-11  99900.582      99901.614      99889.695      2.5922428e-06  5.1714005e-07  2.0751027e-06  1.0643044e+08
    441000   8.0476736e-11  99893.758      99896.187      99415.583      2.5922675e-06  5.1730654e-07  2.074961e-06   1.0642822e+08
    442000   8.0659223e-11  99902.123      99905.844      98991.743      2.5922402e-06  5.1710542e-07  2.0751347e-06  1.0643041e+08
    443000   8.084171e-11   99903.297      99907.302      98897.851      2.5922437e-06  5.1708458e-07  2.0751591e-06  1.0642955e+08
    444000   8.1024197e-11  99917.629      99921.562      98936.598      2.5922544e-06  5.1679755e-07  2.0754568e-06  1.0643632e+08
    445000   8.1206683e-11  99904.775      99907.2        99427.917      2.5922665e-06  5.1707668e-07  2.0751898e-06  1.0643191e+08
    446000   8.138917e-11   99911.508      99914.148      99362.837      2.5922486e-06  5.1691892e-07  2.0753297e-06  1.0643297e+08
    447000   8.1571657e-11  99890.62       99892.361      99642.525      2.592251e-06   5.1735522e-07  2.0748958e-06  1.0642668e+08
    448000   8.1754144e-11  99890.228      99892.131      99588.024      2.592267e-06   5.1737934e-07  2.0748877e-06  1.0642941e+08
    449000   8.1936631e-11  99890.661      99893.262      99354.882      2.5922977e-06  5.17401e-07    2.0748967e-06  1.0643469e+08
    450000   8.2119118e-11  99891.933      99894.166      99479.404      2.5922812e-06  5.1735815e-07  2.0749231e-06  1.0643307e+08
    451000   8.2301605e-11  99896.245      99897.031      99967.396      2.5922669e-06  5.1725425e-07  2.0750126e-06  1.0643093e+08
    452000   8.2484092e-11  99893.755      99893.158      100427.41      2.5922456e-06  5.1728466e-07  2.0749609e-06  1.0642762e+08
    453000   8.2666579e-11  99917.183      99915.448      100831.66      2.592254e-06   5.168064e-07   2.0754476e-06  1.0643594e+08
    454000   8.2849066e-11  99923.55       99923.154      100390.25      2.5922545e-06  5.1667467e-07  2.0755798e-06  1.0643756e+08
    455000   8.3031553e-11  99906.223      99906.365      100192.63      2.592236e-06   5.1701614e-07  2.0752199e-06  1.0642912e+08
    456000   8.321404e-11   99906.936      99907.474      100061.05      2.5922569e-06  5.1702216e-07  2.0752347e-06  1.0643177e+08
    457000   8.3396527e-11  99890.507      99889.65       100511.32      2.592251e-06   5.1735751e-07  2.0748935e-06  1.0642517e+08
    458000   8.3579014e-11  99916.05       99915.375      100476.08      2.5922425e-06  5.168185e-07   2.075424e-06   1.0643313e+08
    459000   8.37615e-11    99885.191      99883.81       100680.99      2.5922298e-06  5.174468e-07   2.074783e-06   1.0642251e+08
    460000   8.3943987e-11  99898.866      99897.997      100523.71      2.5922514e-06  5.1718431e-07  2.0750671e-06  1.0643067e+08
    461000   8.4126474e-11  99904.354      99906.107      99652.166      2.5922614e-06  5.1708028e-07  2.0751811e-06  1.0643376e+08
    462000   8.4308961e-11  99894.64       99898.314      99000.191      2.5922512e-06  5.1727191e-07  2.0749793e-06  1.0642908e+08
    463000   8.4491448e-11  99911.239      99917.637      98105.702      2.5922636e-06  5.1693949e-07  2.0753241e-06  1.0643465e+08
    464000   8.4673935e-11  99912.977      99921.088      97534.376      2.5922606e-06  5.1690038e-07  2.0753602e-06  1.0643653e+08
    465000   8.4856422e-11  99894.775      99899.991      98484.133      2.5922378e-06  5.1725571e-07  2.0749821e-06  1.0642914e+08
    466000   8.5038909e-11  99881.155      99884.74       99016.503      2.5922374e-06  5.1753817e-07  2.0746992e-06  1.0642332e+08
    467000   8.5221396e-11  99908.17       99911.165      99240.429      2.592249e-06   5.169887e-07   2.0752603e-06  1.0643106e+08
    468000   8.5403883e-11  99920.868      99923.815      99269.447      2.5922419e-06  5.167178e-07   2.0755241e-06  1.0643396e+08
    469000   8.558637e-11   99910.757      99912.758      99575.797      2.5922347e-06  5.1692061e-07  2.0753141e-06  1.0643069e+08
    470000   8.5768857e-11  99910.233      99912.038      99640.476      2.5922458e-06  5.1694256e-07  2.0753032e-06  1.0643258e+08
    471000   8.5951344e-11  99911.923      99911.653      100336.18      2.592255e-06   5.1691664e-07  2.0753383e-06  1.0643386e+08
    472000   8.6133831e-11  99897.519      99897.733      100160.01      2.5922445e-06  5.1720543e-07  2.0750391e-06  1.064299e+08 
    473000   8.6316317e-11  99905.689      99907.152      99750.535      2.5922332e-06  5.1702436e-07  2.0752088e-06  1.0643046e+08
    474000   8.6498804e-11  99909.914      99912.648      99329.581      2.5922222e-06  5.1692562e-07  2.0752966e-06  1.064309e+08 
    475000   8.6681291e-11  99893.538      99895.23       99661.626      2.5922219e-06  5.1726547e-07  2.0749564e-06  1.0642471e+08
    476000   8.6863778e-11  99930.263      99931.974      99692.401      2.5922448e-06  5.1652552e-07  2.0757193e-06  1.0643831e+08
    477000   8.7046265e-11  99913.045      99915.658      99373.229      2.5922621e-06  5.1690051e-07  2.0753616e-06  1.064335e+08 
    478000   8.7228752e-11  99905.716      99908.275      99384.016      2.5922494e-06  5.1704003e-07  2.0752094e-06  1.0642951e+08
    479000   8.7411239e-11  99898.72       99900.64       99590.829      2.5922465e-06  5.1718247e-07  2.0750641e-06  1.0642838e+08
    480000   8.7593726e-11  99909.997      99911.921      99600.5        2.5922467e-06  5.169484e-07   2.0752983e-06  1.0643229e+08
    481000   8.7776213e-11  99925.243      99925.986      100011.01      2.5922485e-06  5.1663347e-07  2.075615e-06   1.0643605e+08
    482000   8.79587e-11    99913.982      99911.764      100989.9       2.5922313e-06  5.1685018e-07  2.0753811e-06  1.0642911e+08
    483000   8.8141187e-11  99926.262      99925.154      100630.95      2.5922402e-06  5.1660404e-07  2.0756362e-06  1.0643455e+08
    484000   8.8323674e-11  99904.083      99905.566      99742.291      2.5922479e-06  5.1707243e-07  2.0751755e-06  1.0642963e+08
    485000   8.8506161e-11  99911.498      99914.873      99116.826      2.5922468e-06  5.1691728e-07  2.0753295e-06  1.0643339e+08
    486000   8.8688648e-11  99901.51       99905.828      98791.253      2.5922818e-06  5.1715977e-07  2.075122e-06   1.0643131e+08
    487000   8.8871134e-11  99907.124      99913.912      97971.141      2.5922736e-06  5.1703497e-07  2.0752386e-06  1.0643449e+08
    488000   8.9053621e-11  99897.551      99907.52       96897.581      2.59228e-06    5.1724021e-07  2.0750398e-06  1.0643363e+08
    489000   8.9236108e-11  99921.716      99932.717      96576.562      2.5922554e-06  5.1671364e-07  2.0755417e-06  1.0643662e+08
    490000   8.9418595e-11  99918.616      99930.34       96331.72       2.5922294e-06  5.1675206e-07  2.0754773e-06  1.0643369e+08
    491000   8.9601082e-11  99898.708      99910.23       96379.469      2.5922479e-06  5.1718408e-07  2.0750638e-06  1.0642883e+08
    492000   8.9783569e-11  99909.876      99921.529      96346.902      2.5922498e-06  5.1695403e-07  2.0752958e-06  1.0643142e+08
    493000   8.9966056e-11  99909.117      99919.706      96701.766      2.5922566e-06  5.1697655e-07  2.07528e-06    1.0643301e+08
    494000   9.0148543e-11  99911.108      99921.543      96755.435      2.5922513e-06  5.169299e-07   2.0753214e-06  1.064335e+08 
    495000   9.033103e-11   99912.105      99923.04       96589.089      2.5922431e-06  5.1690105e-07  2.0753421e-06  1.0643091e+08
    496000   9.0513517e-11  99906.156      99918.368      96156.001      2.5922501e-06  5.170316e-07   2.0752185e-06  1.0643016e+08
    497000   9.0696004e-11  99913.52       99922.207      97342.436      2.5922534e-06  5.1688189e-07  2.0753715e-06  1.0643287e+08
    498000   9.0878491e-11  99894.501      99903.402      97251.622      2.5922731e-06  5.1729672e-07  2.0749764e-06  1.0643028e+08
    499000   9.1060978e-11  99909.796      99921.795      96231.033      2.5922553e-06  5.1696115e-07  2.0752941e-06  1.0643423e+08
    500000   9.1243465e-11  99906.675      99918.284      96358.29       2.5922481e-06  5.170188e-07   2.0752293e-06  1.0643429e+08
    501000   9.1425951e-11  99886.831      99895.666      97265.849      2.5922801e-06  5.1746296e-07  2.0748171e-06  1.0643114e+08
    502000   9.1608438e-11  99897.829      99904.308      98065.127      2.5922515e-06  5.172059e-07   2.0750456e-06  1.0643049e+08
    503000   9.1790925e-11  99889.735      99895.96       98141.832      2.5922339e-06  5.1735647e-07  2.0748774e-06  1.0642326e+08
    504000   9.1973412e-11  99920.041      99926.335      98149.138      2.5922385e-06  5.167316e-07   2.0755069e-06  1.0643347e+08
    505000   9.2155899e-11  99892.473      99901.339      97261.209      2.592244e-06   5.1730972e-07  2.0749343e-06  1.064259e+08 
    506000   9.2338386e-11  99898.223      99908.221      96888.707      2.5922532e-06  5.1719946e-07  2.0750537e-06  1.0642888e+08
    507000   9.2520873e-11  99904.734      99914.575      96947.43       2.5922525e-06  5.1706349e-07  2.075189e-06   1.0643108e+08
    508000   9.270336e-11   99900.974      99910.59       97019.14       2.5922496e-06  5.1713869e-07  2.0751109e-06  1.0642912e+08
    509000   9.2885847e-11  99935.638      99946.085      96775.978      2.5922493e-06  5.1641839e-07  2.0758309e-06  1.0643896e+08
    510000   9.3068334e-11  99909.025      99918.488      97078.295      2.5922444e-06  5.1696634e-07  2.0752781e-06  1.0643132e+08
    511000   9.3250821e-11  99907.344      99918.276      96585.102      2.592264e-06   5.170208e-07   2.0752432e-06  1.0643211e+08
    512000   9.3433308e-11  99912.788      99924.503      96328.839      2.5922622e-06  5.1690597e-07  2.0753563e-06  1.0643575e+08
    513000   9.3615795e-11  99895.197      99905.413      96812.497      2.5922493e-06  5.1725839e-07  2.0749909e-06  1.0642762e+08
    514000   9.3798282e-11  99895.216      99904.513      97120.066      2.5922454e-06  5.1725415e-07  2.0749913e-06  1.0642652e+08
    515000   9.3980768e-11  99906.972      99914.177      97831.63       2.5922504e-06  5.1701491e-07  2.0752355e-06  1.0643e+08   
    516000   9.4163255e-11  99901.465      99906.638      98505.38       2.5922457e-06  5.1712463e-07  2.0751211e-06  1.0642788e+08
    517000   9.4345742e-11  99910.965      99918.26       97805.237      2.5922518e-06  5.1693338e-07  2.0753184e-06  1.0643365e+08
    518000   9.4528229e-11  99890.874      99898.032      97831.152      2.5922618e-06  5.1736073e-07  2.0749011e-06  1.0642918e+08
    519000   9.4710716e-11  99905.093      99910.392      98467.148      2.5922494e-06  5.1705293e-07  2.0751964e-06  1.0643269e+08
    520000   9.4893203e-11  99903.407      99908.952      98383.152      2.592266e-06   5.1710454e-07  2.0751614e-06  1.0643297e+08
    521000   9.507569e-11   99898.301      99905.055      97973.463      2.5922516e-06  5.1719621e-07  2.0750554e-06  1.0643101e+08
    522000   9.5258177e-11  99903.445      99909.686      98150.354      2.5922519e-06  5.1708971e-07  2.0751622e-06  1.0643055e+08
    523000   9.5440664e-11  99900.92       99905.547      98687.363      2.5922347e-06  5.1712496e-07  2.0751097e-06  1.0642763e+08
    524000   9.5623151e-11  99906.226      99908.667      99423.997      2.5922409e-06  5.1702093e-07  2.07522e-06    1.0642916e+08
    525000   9.5805638e-11  99920.922      99920.81       100292.84      2.5922462e-06  5.1672095e-07  2.0755252e-06  1.0643526e+08
    526000   9.5988125e-11  99896.472      99893.426      101249.05      2.592263e-06   5.1724562e-07  2.0750174e-06  1.0642977e+08
    527000   9.6170612e-11  99880.68       99874.914      102142.94      2.5922594e-06  5.1757011e-07  2.0746893e-06  1.0642549e+08
    528000   9.6353099e-11  99899.081      99892.117      102562.22      2.5922515e-06  5.1717995e-07  2.0750716e-06  1.0643154e+08
    529000   9.6535585e-11  99898.223      99891.724      102405.92      2.5922453e-06  5.1719154e-07  2.0750537e-06  1.064284e+08 
    530000   9.6718072e-11  99917.349      99911.453      102223.66      2.5922627e-06  5.1681165e-07  2.075451e-06   1.0643411e+08
    531000   9.6900559e-11  99909.406      99903.101      102352.15      2.5922456e-06  5.1695962e-07  2.075286e-06   1.0643141e+08
    532000   9.7083046e-11  99906.126      99900.92       101981.28      2.59225e-06    5.1703206e-07  2.0752179e-06  1.0643117e+08
    533000   9.7265533e-11  99893.054      99887.845      101969.26      2.5922504e-06  5.1730404e-07  2.0749464e-06  1.0642949e+08
    534000   9.744802e-11   99892.919      99887.557      102020.49      2.5922586e-06  5.1731505e-07  2.0749436e-06  1.0642999e+08
    535000   9.7630507e-11  99905.714      99902.745      101232.8       2.5922659e-06  5.1705659e-07  2.0752093e-06  1.0643441e+08
    536000   9.7812994e-11  99912.995      99911.973      100588.81      2.5922709e-06  5.1691037e-07  2.0753606e-06  1.0643653e+08
    537000   9.7995481e-11  99907.925      99907.371      100427.36      2.5922719e-06  5.1701669e-07  2.0752553e-06  1.0643529e+08
    538000   9.8177968e-11  99890.073      99889.562      100394.86      2.5922833e-06  5.1739882e-07  2.0748844e-06  1.0643104e+08
    539000   9.8360455e-11  99893.445      99892.086      100682.1       2.592271e-06   5.1731646e-07  2.0749545e-06  1.0643152e+08
    540000   9.8542942e-11  99895.296      99894.812      100391.39      2.5922679e-06  5.1727495e-07  2.0749929e-06  1.0643173e+08
    541000   9.8725429e-11  99903.82       99904.023      100170.14      2.5922537e-06  5.1708373e-07  2.07517e-06    1.0643309e+08
    542000   9.8907916e-11  99900.314      99899.237      100594.36      2.5922655e-06  5.1716831e-07  2.0750972e-06  1.0643268e+08
    543000   9.9090402e-11  99911.247      99914.614      99119.29       2.5922494e-06  5.1692509e-07  2.0753243e-06  1.0643333e+08
    544000   9.9272889e-11  99906.186      99909.985      98969.685      2.5922592e-06  5.1704008e-07  2.0752191e-06  1.0642987e+08
    545000   9.9455376e-11  99905.091      99908.596      99067.147      2.5922555e-06  5.170591e-07   2.0751964e-06  1.0643156e+08
    546000   9.9637863e-11  99910.192      99910.848      100025.07      2.59226e-06    5.1695762e-07  2.0753024e-06  1.0643522e+08
    547000   9.982035e-11   99905.761      99904.643      100613.86      2.5922551e-06  5.1704478e-07  2.0752103e-06  1.0643201e+08
    548000   1.0000284e-10  99893.973      99892.956      100568.08      2.5922596e-06  5.1729409e-07  2.0749655e-06  1.0642746e+08
    549000   1.0018532e-10  99905.242      99904.352      100536.84      2.5922453e-06  5.1704579e-07  2.0751995e-06  1.0643251e+08
    550000   1.0036781e-10  99897.686      99896.552      100611.2       2.5922609e-06  5.1721833e-07  2.0750426e-06  1.0642905e+08
    551000   1.005503e-10   99909.515      99908.584      100554.97      2.592242e-06   5.1695367e-07  2.0752883e-06  1.0643332e+08
    552000   1.0073278e-10  99901.435      99900.53       100538.31      2.592246e-06   5.1712555e-07  2.0751205e-06  1.0643065e+08
    553000   1.0091527e-10  99921.794      99921.582      100327.06      2.5922728e-06  5.1672943e-07  2.0755433e-06  1.0643773e+08
    554000   1.0109776e-10  99905.198      99905.212      100234.68      2.5922595e-06  5.1706091e-07  2.0751986e-06  1.0643112e+08
    555000   1.0128025e-10  99905.828      99906.335      100070.61      2.5922706e-06  5.1705887e-07  2.0752117e-06  1.0643505e+08
    556000   1.0146273e-10  99902.127      99901.441      100465.54      2.5922596e-06  5.1712476e-07  2.0751348e-06  1.0643376e+08
    557000   1.0164522e-10  99902.808      99902.582      100312.5       2.5922583e-06  5.1710936e-07  2.075149e-06   1.0643394e+08
    558000   1.0182771e-10  99892.014      99890.562      100711.75      2.5922705e-06  5.1734576e-07  2.0749248e-06  1.0643157e+08
    559000   1.0201019e-10  99896.552      99888.606      102888.17      2.5922657e-06  5.1724672e-07  2.075019e-06   1.064312e+08 
    560000   1.0219268e-10  99903.595      99893.887      103484.58      2.5922552e-06  5.1708984e-07  2.0751653e-06  1.0643162e+08
    561000   1.0237517e-10  99906.105      99897.727      103042.1       2.5922309e-06  5.1701348e-07  2.0752175e-06  1.064274e+08 
    562000   1.0255765e-10  99910.457      99901.556      103221.59      2.5922184e-06  5.1691058e-07  2.0753079e-06  1.0642923e+08
    563000   1.0274014e-10  99923.026      99913.487      103447.36      2.5922459e-06  5.1667694e-07  2.0755689e-06  1.064356e+08 
    564000   1.0292263e-10  99894.261      99885.395      103193.52      2.5922544e-06  5.1728296e-07  2.0749714e-06  1.0642802e+08
    565000   1.0310511e-10  99909.244      99899.075      103644.42      2.5922664e-06  5.1698374e-07  2.0752827e-06  1.0643476e+08
    566000   1.032876e-10   99901.622      99892.009      103450.9       2.5922496e-06  5.1712527e-07  2.0751243e-06  1.064324e+08 
    567000   1.0347009e-10  99909.815      99899.976      103534.39      2.5922558e-06  5.1696129e-07  2.0752945e-06  1.0643366e+08
    568000   1.0365258e-10  99898.609      99889.152      103395.72      2.5922386e-06  5.1717689e-07  2.0750618e-06  1.064279e+08 
    569000   1.0383506e-10  99919.252      99909.688      103452.02      2.592244e-06   5.1675349e-07  2.0754906e-06  1.0643628e+08
    570000   1.0401755e-10  99917.452      99906.546      103899         2.5922532e-06  5.1680006e-07  2.0754531e-06  1.064365e+08 
    571000   1.0420004e-10  99890.843      99879.979      103858.45      2.5922739e-06  5.1737341e-07  2.0749004e-06  1.0642953e+08
    572000   1.0438252e-10  99906.604      99896.539      103606.87      2.5922568e-06  5.1702898e-07  2.0752278e-06  1.0643421e+08
    573000   1.0456501e-10  99897.22       99887.857      103362.59      2.5922709e-06  5.1723801e-07  2.0750329e-06  1.0643338e+08
    574000   1.047475e-10   99887.192      99879.118      102921.61      2.5922663e-06  5.1744165e-07  2.0748246e-06  1.0642771e+08
    575000   1.0492998e-10  99895.449      99886.33       103279.29      2.5922637e-06  5.1726762e-07  2.0749961e-06  1.0642976e+08
    576000   1.0511247e-10  99918.389      99910.428      102915.11      2.5922503e-06  5.1677771e-07  2.0754726e-06  1.0643522e+08
    577000   1.0529496e-10  99889.854      99882.927      102540.74      2.5922408e-06  5.1736085e-07  2.0748799e-06  1.0642315e+08
    578000   1.0547744e-10  99907.059      99901.41       102130.36      2.5922569e-06  5.1701963e-07  2.0752373e-06  1.064329e+08 
    579000   1.0565993e-10  99897.962      99891.441      102412.75      2.59226e-06    5.1721172e-07  2.0750483e-06  1.0643228e+08
    580000   1.0584242e-10  99897.465      99892.574      101867.51      2.5922526e-06  5.172146e-07   2.075038e-06   1.0643041e+08
    581000   1.0602491e-10  99917.591      99912.125      102080.07      2.5922253e-06  5.1676928e-07  2.0754561e-06  1.0643512e+08
    582000   1.0620739e-10  99908.121      99902.734      102043.84      2.5922468e-06  5.1698745e-07  2.0752593e-06  1.0643276e+08
    583000   1.0638988e-10  99903.939      99899.098      101857.09      2.5922382e-06  5.1706579e-07  2.0751725e-06  1.0642829e+08
    584000   1.0657237e-10  99903.59       99899.895      101473.42      2.5922429e-06  5.1707764e-07  2.0751652e-06  1.0642971e+08
    585000   1.0675485e-10  99901.321      99896.696      101782.19      2.5922475e-06  5.1712944e-07  2.0751181e-06  1.0642924e+08
    586000   1.0693734e-10  99909.433      99905.35       101609         2.592231e-06   5.1694437e-07  2.0752866e-06  1.0643039e+08
    587000   1.0711983e-10  99917.72       99913.835      101550.9       2.5922271e-06  5.1676843e-07  2.0754587e-06  1.0643368e+08
    588000   1.0730231e-10  99903.424      99898.458      101898.28      2.5922331e-06  5.1707133e-07  2.0751618e-06  1.0642807e+08
    589000   1.074848e-10   99899.005      99895.168      101516.57      2.5922503e-06  5.1718035e-07  2.07507e-06    1.0642882e+08
    590000   1.0766729e-10  99898.064      99895.535      101078.02      2.5922638e-06  5.1721332e-07  2.0750504e-06  1.0643064e+08
    591000   1.0784978e-10  99924.838      99921.828      101266         2.5922695e-06  5.1666292e-07  2.0756066e-06  1.0644025e+08
    592000   1.0803226e-10  99891.353      99888.27       101256.4       2.5922574e-06  5.1734637e-07  2.074911e-06   1.0642888e+08
    593000   1.0821475e-10  99918.46       99914.576      101551.58      2.5922241e-06  5.1675002e-07  2.0754741e-06  1.0643308e+08
    594000   1.0839724e-10  99906.115      99907.289      99847.801      2.5922375e-06  5.1701978e-07  2.0752177e-06  1.064291e+08 
    595000   1.0857972e-10  99922.961      99925.976      99248.718      2.592235e-06   5.1666737e-07  2.0755676e-06  1.0643351e+08
    596000   1.0876221e-10  99893.196      99897.792      98690.388      2.5922314e-06  5.1728212e-07  2.0749493e-06  1.0642683e+08
    597000   1.089447e-10   99895.69       99900.269      98698.559      2.5922385e-06  5.1723737e-07  2.0750011e-06  1.0642758e+08
    598000   1.0912718e-10  99918.954      99923.591      98702.402      2.5922426e-06  5.1675826e-07  2.0754844e-06  1.064355e+08 
    599000   1.0930967e-10  99918.003      99923.625      98371.922      2.5922411e-06  5.1677649e-07  2.0754646e-06  1.0643187e+08
    600000   1.0949216e-10  99913.62       99919.496      98282.48       2.5922218e-06  5.1684824e-07  2.0753736e-06  1.064277e+08 
    601000   1.0967464e-10  99893.15       99898.547      98422.332      2.5922239e-06  5.1727552e-07  2.0749484e-06  1.0642227e+08
    602000   1.0985713e-10  99910.824      99917.904      97877.09       2.5922108e-06  5.1689534e-07  2.0753155e-06  1.06427e+08  
    603000   1.1003962e-10  99897.451      99903.561      98188.091      2.5922359e-06  5.1719819e-07  2.0750377e-06  1.0642515e+08
    604000   1.1022211e-10  99894.991      99900.712      98315.879      2.5922359e-06  5.1724926e-07  2.0749866e-06  1.0642578e+08
    605000   1.1040459e-10  99917.137      99922.707      98388.409      2.5922467e-06  5.1680008e-07  2.0754466e-06  1.064345e+08 
    606000   1.1058708e-10  99913.861      99918.067      98841.355      2.5922447e-06  5.1686616e-07  2.0753786e-06  1.0643271e+08
    607000   1.1076957e-10  99931.302      99934.071      99339.45       2.592243e-06   5.1650211e-07  2.0757409e-06  1.0643914e+08
    608000   1.1095205e-10  99921.487      99923.831      99471.469      2.592237e-06   5.1670003e-07  2.075537e-06   1.0643455e+08
    609000   1.1113454e-10  99896.203      99898.604      99427.247      2.5922449e-06  5.1723307e-07  2.0750118e-06  1.0642644e+08
    610000   1.1131703e-10  99905.086      99906.857      99646.605      2.5922268e-06  5.1703048e-07  2.0751963e-06  1.0642886e+08
    611000   1.1149951e-10  99907.581      99910.788      99169.284      2.5922339e-06  5.1698579e-07  2.0752481e-06  1.0642988e+08
    612000   1.11682e-10    99901.59       99906.581      98566.617      2.5922504e-06  5.1712674e-07  2.0751237e-06  1.0643026e+08
    613000   1.1186449e-10  99881.771      99887.568      98276.992      2.5922711e-06  5.1755908e-07  2.074712e-06   1.0642774e+08
    614000   1.1204697e-10  99905.098      99908.323      99160.646      2.5922752e-06  5.1707866e-07  2.0751966e-06  1.064357e+08 
    615000   1.1222946e-10  99900.524      99901.006      100073.61      2.5922714e-06  5.1716986e-07  2.0751015e-06  1.0643483e+08
    616000   1.1241195e-10  99882.1        99881.067      100561.7       2.5922514e-06  5.1753261e-07  2.0747188e-06  1.0642722e+08
    617000   1.1259444e-10  99887.607      99886.029      100749.43      2.5922671e-06  5.1743391e-07  2.0748332e-06  1.0642941e+08
    618000   1.1277692e-10  99904.891      99905.475      100043.71      2.5922565e-06  5.1706428e-07  2.0751923e-06  1.0643264e+08
    619000   1.1295941e-10  99897.183      99898.314      99853.039      2.5922487e-06  5.1721662e-07  2.0750321e-06  1.0642778e+08
    620000   1.131419e-10   99899.386      99900.294      99929.819      2.5922393e-06  5.1716145e-07  2.0750779e-06  1.0643079e+08
    621000   1.1332438e-10  99915.758      99916.958      99848.474      2.5922537e-06  5.1683571e-07  2.075418e-06   1.0643477e+08
    622000   1.1350687e-10  99906.664      99909.921      99151.722      2.5922482e-06  5.1701914e-07  2.0752291e-06  1.0643187e+08
    623000   1.1368936e-10  99901.207      99906.361      98511.521      2.5922462e-06  5.1713045e-07  2.0751157e-06  1.0642916e+08
    624000   1.1387184e-10  99911.28       99917.373      98207.754      2.5922346e-06  5.1690967e-07  2.075325e-06   1.0642885e+08
    625000   1.1405433e-10  99902.058      99908.648      98032.32       2.5922278e-06  5.1709438e-07  2.0751334e-06  1.0642711e+08
    626000   1.1423682e-10  99914.107      99920.485      98115.125      2.5922519e-06  5.1686823e-07  2.0753837e-06  1.0643404e+08
    627000   1.144193e-10   99903.367      99908.446      98538.961      2.5922572e-06  5.1709658e-07  2.0751606e-06  1.0643244e+08
    628000   1.1460179e-10  99886.687      99891.207      98709.168      2.5922444e-06  5.1743033e-07  2.0748141e-06  1.0642715e+08
    629000   1.1478428e-10  99901.991      99908.267      98137.095      2.5922543e-06  5.1712227e-07  2.075132e-06   1.0643087e+08
    630000   1.1496677e-10  99918.785      99926.566      97650.662      2.5922385e-06  5.1675766e-07  2.0754808e-06  1.0643333e+08
    631000   1.1514925e-10  99883.15       99891.025      97583.306      2.5922483e-06  5.1750763e-07  2.0747406e-06  1.0642457e+08
    632000   1.1533174e-10  99892.066      99900.826      97296.413      2.5922548e-06  5.1732896e-07  2.0749258e-06  1.0642884e+08
    633000   1.1551423e-10  99910.456      99922.4        96249.933      2.59225e-06    5.1694217e-07  2.0753078e-06  1.0643343e+08
    634000   1.1569671e-10  99890.469      99904.046      95683.888      2.5922556e-06  5.1736293e-07  2.0748927e-06  1.0642645e+08
    635000   1.158792e-10   99901.361      99913.948      96025.938      2.5922432e-06  5.1712432e-07  2.0751189e-06  1.0643032e+08
    636000   1.1606169e-10  99902.681      99915.282      96022.403      2.5922578e-06  5.1711142e-07  2.0751463e-06  1.0643029e+08
    637000   1.1624417e-10  99912.821      99926.282      95744.815      2.5922411e-06  5.1688416e-07  2.075357e-06   1.0643308e+08
    638000   1.1642666e-10  99900.709      99912.105      96423.658      2.5922654e-06  5.1715997e-07  2.0751054e-06  1.0643074e+08
    639000   1.1660915e-10  99903.63       99914.321      96662.039      2.5922575e-06  5.1709145e-07  2.075166e-06   1.0643452e+08
    640000   1.1679163e-10  99868.872      99877.226      97408.987      2.5922575e-06  5.1781345e-07  2.0744441e-06  1.0642317e+08
    641000   1.1697412e-10  99892.724      99902.007      97121.915      2.5922575e-06  5.1731797e-07  2.0749395e-06  1.0643089e+08
    642000   1.1715661e-10  99889.227      99898.955      96969.596      2.5922518e-06  5.1738492e-07  2.0748669e-06  1.0642744e+08
    643000   1.173391e-10   99883.483      99892.375      97243.738      2.5922692e-06  5.1752165e-07  2.0747476e-06  1.0642779e+08
    644000   1.1752158e-10  99899.269      99905.223      98242.096      2.5922684e-06  5.1719296e-07  2.0750755e-06  1.0643375e+08
    645000   1.1770407e-10  99891.705      99894.732      99213.489      2.5922663e-06  5.1734793e-07  2.0749184e-06  1.0642663e+08
    646000   1.1788656e-10  99903.242      99906.03       99304.976      2.5922381e-06  5.1708013e-07  2.075158e-06   1.0642842e+08
    647000   1.1806904e-10  99899.996      99900.802      99964.357      2.5922438e-06  5.1715328e-07  2.0750906e-06  1.0642839e+08
    648000   1.1825153e-10  99894.162      99896.831      99335.587      2.5922577e-06  5.1728835e-07  2.0749694e-06  1.0642997e+08
    649000   1.1843402e-10  99882.268      99885.589      99105.606      2.5922628e-06  5.1754044e-07  2.0747223e-06  1.0642745e+08
    650000   1.186165e-10   99901.494      99903.799      99464.587      2.5922652e-06  5.1714354e-07  2.0751217e-06  1.0643121e+08
    651000   1.1879899e-10  99909.677      99912.246      99384.931      2.5922582e-06  5.1696651e-07  2.0752917e-06  1.0643378e+08
    652000   1.1898148e-10  99901.923      99905.648      98990.347      2.5922617e-06  5.1713108e-07  2.0751306e-06  1.0643355e+08
    653000   1.1916396e-10  99885.913      99889.047      99171.763      2.5922735e-06  5.1747548e-07  2.074798e-06   1.0642964e+08
    654000   1.1934645e-10  99899.745      99902.13       99436.113      2.5922593e-06  5.1717394e-07  2.0750853e-06  1.0643307e+08
    655000   1.1952894e-10  99908.179      99906.783      100709.21      2.5922476e-06  5.1698707e-07  2.0752605e-06  1.0643148e+08
    656000   1.1971143e-10  99914.334      99911.88       101069.35      2.5922557e-06  5.1686729e-07  2.0753884e-06  1.0643445e+08
    657000   1.1989391e-10  99888.241      99886.504      100803.43      2.5922636e-06  5.1741722e-07  2.0748464e-06  1.0642917e+08
    658000   1.200764e-10   99896.565      99897.495      99919.654      2.5922519e-06  5.1723261e-07  2.0750193e-06  1.0642918e+08
    659000   1.2025889e-10  99919.147      99919.608      100098.94      2.5922297e-06  5.1674136e-07  2.0754884e-06  1.0643284e+08
    660000   1.2044137e-10  99893.756      99893.828      100203.9       2.5922507e-06  5.1728979e-07  2.074961e-06   1.0642675e+08
    661000   1.2062386e-10  99910.722      99908.308      101052.44      2.5922663e-06  5.1695294e-07  2.0753134e-06  1.0643446e+08
    662000   1.2080635e-10  99907.79       99905.866      100885.35      2.5922486e-06  5.1699612e-07  2.0752525e-06  1.0643073e+08
    663000   1.2098883e-10  99908.412      99906.79       100785.05      2.5922563e-06  5.1699093e-07  2.0752654e-06  1.0643339e+08
    664000   1.2117132e-10  99904.931      99903.307      100782.15      2.592268e-06   5.1707494e-07  2.0751931e-06  1.06434e+08  
    665000   1.2135381e-10  99894.696      99892.684      100901.67      2.5922604e-06  5.1727992e-07  2.0749805e-06  1.0642766e+08
    666000   1.2153629e-10  99921.032      99919.736      100688.61      2.592249e-06   5.1672151e-07  2.0755275e-06  1.0643817e+08
    667000   1.2171878e-10  99905.775      99906.813      99892.754      2.5922504e-06  5.1703976e-07  2.0752106e-06  1.0643117e+08
    668000   1.2190127e-10  99906.934      99908.758      99631.007      2.5922527e-06  5.1701799e-07  2.0752347e-06  1.0643154e+08
    669000   1.2208376e-10  99901.65       99902.886      99822.254      2.5922588e-06  5.1713384e-07  2.0751249e-06  1.0643054e+08
    670000   1.2226624e-10  99904.861      99909.156      98802.683      2.5922417e-06  5.1705002e-07  2.0751916e-06  1.0643147e+08
    671000   1.2244873e-10  99888.037      99892.764      98641.274      2.5922494e-06  5.1740726e-07  2.0748422e-06  1.0642391e+08
    672000   1.2263122e-10  99900.315      99904.645      98786.218      2.592221e-06   5.1712385e-07  2.0750972e-06  1.0642653e+08
    673000   1.228137e-10   99910.576      99914.941      98785.001      2.5922282e-06  5.1691784e-07  2.0753103e-06  1.0642881e+08
    674000   1.2299619e-10  99896.415      99901.777      98437.463      2.5922289e-06  5.1721275e-07  2.0750162e-06  1.0642666e+08
    675000   1.2317868e-10  99901.02       99907.182      98174.333      2.5922381e-06  5.171263e-07   2.0751118e-06  1.0643004e+08
    676000   1.2336116e-10  99895.412      99902.36       97905.799      2.5922467e-06  5.1725137e-07  2.0749953e-06  1.0642946e+08
    677000   1.2354365e-10  99916.992      99924.828      97630.647      2.5922531e-06  5.1680954e-07  2.0754436e-06  1.0643506e+08
    678000   1.2372614e-10  99907.531      99916.336      97296.761      2.5922467e-06  5.1699957e-07  2.0752471e-06  1.064307e+08 
    679000   1.2390862e-10  99907.894      99913.267      98445.158      2.5922568e-06  5.1700221e-07  2.0752546e-06  1.0642934e+08
    680000   1.2409111e-10  99896.386      99902.28       98259.512      2.5922505e-06  5.1723488e-07  2.0750156e-06  1.0642721e+08
    681000   1.242736e-10   99891.515      99899.898      97421.984      2.5922551e-06  5.1734073e-07  2.0749144e-06  1.0642713e+08
    682000   1.2445609e-10  99914.647      99920.676      98232.16       2.5922628e-06  5.1686792e-07  2.0753949e-06  1.0643581e+08
    683000   1.2463857e-10  99885.989      99892.188      98146.845      2.5922465e-06  5.1744692e-07  2.0747996e-06  1.0642602e+08
    684000   1.2482106e-10  99880.052      99885.583      98364.193      2.5922572e-06  5.1758091e-07  2.0746763e-06  1.064273e+08 
    685000   1.2500355e-10  99870.649      99874.339      98970.481      2.5922836e-06  5.178026e-07   2.074481e-06   1.0642548e+08
    686000   1.2518603e-10  99907.305      99911.053      98987.789      2.5922695e-06  5.1702716e-07  2.0752424e-06  1.0643602e+08
    687000   1.2536852e-10  99919.955      99926.297      98132.955      2.5922639e-06  5.1675881e-07  2.0755051e-06  1.064366e+08 
    688000   1.2555101e-10  99905.171      99911.205      98221.348      2.5922439e-06  5.1704584e-07  2.0751981e-06  1.0642906e+08
    689000   1.2573349e-10  99905.971      99909.226      99151.539      2.5922563e-06  5.1704158e-07  2.0752147e-06  1.0643225e+08
    690000   1.2591598e-10  99888.43       99890.313      99592.682      2.5922538e-06  5.1740346e-07  2.0748503e-06  1.0642543e+08
    691000   1.2609847e-10  99917.469      99916.782      100481.45      2.5922351e-06  5.1678161e-07  2.0754535e-06  1.0643319e+08
    692000   1.2628095e-10  99906.264      99907.404      99859.148      2.5922376e-06  5.1701683e-07  2.0752208e-06  1.0642921e+08
    693000   1.2646344e-10  99896.847      99896.722      100272.93      2.5922381e-06  5.1721295e-07  2.0750252e-06  1.0642776e+08
    694000   1.2664593e-10  99899.731      99898.261      100725.42      2.592234e-06   5.1714892e-07  2.0750851e-06  1.064301e+08 
    695000   1.2682842e-10  99910.269      99908.738      100756.45      2.5922266e-06  5.1692268e-07  2.075304e-06   1.0642996e+08
    696000   1.270109e-10   99911.253      99909.25       100915.32      2.5922335e-06  5.1690911e-07  2.0753244e-06  1.0643011e+08
    697000   1.2719339e-10  99914.451      99912.734      100823.03      2.5922383e-06  5.168475e-07   2.0753908e-06  1.0643181e+08
    698000   1.2737588e-10  99912.787      99911.871      100553.32      2.5922334e-06  5.1687715e-07  2.0753563e-06  1.0643018e+08
    699000   1.2755836e-10  99922.494      99923.954      99768.596      2.5922148e-06  5.1665695e-07  2.0755579e-06  1.0643311e+08
    700000   1.2774085e-10  99916.056      99917.945      99618.287      2.5922065e-06  5.1678238e-07  2.0754242e-06  1.064282e+08 
    701000   1.2792334e-10  99898.582      99898.917      100120.76      2.5922386e-06  5.1717738e-07  2.0750612e-06  1.0642562e+08
    702000   1.2810582e-10  99907.693      99908.026      100130.68      2.5922489e-06  5.1699843e-07  2.0752505e-06  1.0643091e+08
    703000   1.2828831e-10  99898.756      99898.132      100441.53      2.5922498e-06  5.1718503e-07  2.0750648e-06  1.0643004e+08
    704000   1.284708e-10   99903.304      99903.953      100020.41      2.5922429e-06  5.1708361e-07  2.0751593e-06  1.0643108e+08
    705000   1.2865328e-10  99891.33       99892.518      99828.089      2.5922598e-06  5.1734925e-07  2.0749106e-06  1.0642736e+08
    706000   1.2883577e-10  99895.309      99897.927      99353.52       2.5922373e-06  5.1724412e-07  2.0749932e-06  1.0642824e+08
    707000   1.2901826e-10  99891.527      99894.583      99203.651      2.5922597e-06  5.1734504e-07  2.0749147e-06  1.0642943e+08
    708000   1.2920075e-10  99892.221      99893.875      99673.209      2.5922525e-06  5.1732347e-07  2.0749291e-06  1.0642763e+08
    709000   1.2938323e-10  99905.778      99908.664      99274.603      2.5922435e-06  5.1703287e-07  2.0752107e-06  1.0643055e+08
    710000   1.2956572e-10  99884.325      99889.802      98386.897      2.5922528e-06  5.1748778e-07  2.0747651e-06  1.0642553e+08
    711000   1.2974821e-10  99903.147      99907.544      98766.808      2.5922621e-06  5.1710609e-07  2.075156e-06   1.0643243e+08
    712000   1.2993069e-10  99916.92       99922.441      98404.668      2.59224e-06    5.1679789e-07  2.0754421e-06  1.0643563e+08
    713000   1.3011318e-10  99899.344      99906.081      97980.2        2.5922455e-06  5.171685e-07   2.075077e-06   1.064297e+08 
    714000   1.3029567e-10  99908.582      99913.445      98616.18       2.5922455e-06  5.1697663e-07  2.0752689e-06  1.0643262e+08
    715000   1.3047815e-10  99913.271      99916.669      99110.832      2.5922401e-06  5.1687376e-07  2.0753663e-06  1.0643131e+08
    716000   1.3066064e-10  99927.63       99931.631      98923.501      2.5922484e-06  5.165838e-07   2.0756646e-06  1.064366e+08 
    717000   1.3084313e-10  99905.881      99908.039      99518.251      2.5922335e-06  5.1702074e-07  2.0752128e-06  1.0643115e+08
    718000   1.3102562e-10  99916.908      99919.614      99346.19       2.5922491e-06  5.1680726e-07  2.0754419e-06  1.0643475e+08
    719000   1.312081e-10   99911.45       99914.345      99277.231      2.5922524e-06  5.1692392e-07  2.0753285e-06  1.0643322e+08
    720000   1.3139059e-10  99909.328      99912.75       99098.908      2.592265e-06   5.1698064e-07  2.0752844e-06  1.064337e+08 
    721000   1.3157308e-10  99894.565      99898.692      98848.206      2.5922728e-06  5.1729502e-07  2.0749778e-06  1.0643131e+08
    722000   1.3175556e-10  99897.866      99902.753      98597.286      2.5922704e-06  5.1722412e-07  2.0750463e-06  1.064334e+08 
    723000   1.3193805e-10  99891.444      99897.103      98332.841      2.5922631e-06  5.1735022e-07  2.0749129e-06  1.0642948e+08
    724000   1.3212054e-10  99880.792      99884.077      99116.179      2.592241e-06   5.1754934e-07  2.0746917e-06  1.0642532e+08
    725000   1.3230302e-10  99895.538      99899.487      98908.939      2.5922587e-06  5.1726076e-07  2.074998e-06   1.0643003e+08
    726000   1.3248551e-10  99889.015      99893.245      98808.423      2.5922597e-06  5.1739722e-07  2.0748625e-06  1.0642868e+08
    727000   1.32668e-10    99893.852      99898.366      98718.233      2.592262e-06   5.172991e-07   2.0749629e-06  1.0642932e+08
    728000   1.3285048e-10  99878.139      99884.329      98142.117      2.5922482e-06  5.1761162e-07  2.0746366e-06  1.0642443e+08
    729000   1.3303297e-10  99910.577      99915.446      98616.261      2.5922599e-06  5.1694955e-07  2.0753103e-06  1.064347e+08 
    730000   1.3321546e-10  99924.297      99931.693      97785.122      2.5922401e-06  5.1664479e-07  2.0755953e-06  1.0643376e+08
    731000   1.3339795e-10  99915.552      99923.451      97608.042      2.5922542e-06  5.1684047e-07  2.0754137e-06  1.06433e+08  
    732000   1.3358043e-10  99895.409      99902.731      97780.606      2.5922347e-06  5.1723938e-07  2.0749953e-06  1.0642837e+08
    733000   1.3376292e-10  99915.866      99921.797      98266.626      2.5922819e-06  5.1686169e-07  2.0754202e-06  1.0643962e+08
    734000   1.3394541e-10  99898.148      99902.845      98661.53       2.5922609e-06  5.1720873e-07  2.0750522e-06  1.0643277e+08
    735000   1.3412789e-10  99888.337      99889.664      99778.357      2.5922668e-06  5.1741845e-07  2.0748484e-06  1.0642992e+08
    736000   1.3431038e-10  99899.951      99900.949      99900.392      2.5922678e-06  5.1717817e-07  2.0750896e-06  1.0643172e+08
    737000   1.3449287e-10  99901.529      99903.686      99514.22       2.5922746e-06  5.1715221e-07  2.0751224e-06  1.064316e+08 
    738000   1.3467535e-10  99898.269      99900.706      99417.072      2.5922522e-06  5.1719748e-07  2.0750547e-06  1.0643031e+08
    739000   1.3485784e-10  99899.57       99900.936      99776.827      2.5922506e-06  5.171689e-07   2.0750817e-06  1.0642963e+08
    740000   1.3504033e-10  99912.337      99916.214      98949.602      2.5922526e-06  5.1690565e-07  2.0753469e-06  1.0643549e+08
    741000   1.3522281e-10  99911.82       99916.14       98801.22       2.592261e-06   5.1692479e-07  2.0753362e-06  1.0643591e+08
    742000   1.354053e-10   99899.383      99903.929      98713.061      2.5922716e-06  5.171938e-07   2.0750778e-06  1.0643193e+08
    743000   1.3558779e-10  99901.729      99904.757      99222.989      2.5922459e-06  5.1711935e-07  2.0751266e-06  1.064299e+08 
    744000   1.3577028e-10  99905.988      99912.536      98050.044      2.5922282e-06  5.1701322e-07  2.075215e-06   1.0642621e+08
    745000   1.3595276e-10  99901.458      99909.981      97385.276      2.592222e-06   5.171011e-07   2.0751209e-06  1.0642507e+08
    746000   1.3613525e-10  99922.391      99932.317      96936.897      2.5922323e-06  5.1667651e-07  2.0755557e-06  1.0643356e+08
    747000   1.3631774e-10  99924.67       99936.038      96456.88       2.5922375e-06  5.1663439e-07  2.0756031e-06  1.0643496e+08
    748000   1.3650022e-10  99911.474      99921.71       96822.25       2.592257e-06   5.1692807e-07  2.075329e-06   1.064314e+08 
    749000   1.3668271e-10  99920.503      99930.875      96785.964      2.5922592e-06  5.1674267e-07  2.0755165e-06  1.064373e+08 
    750000   1.368652e-10   99917.405      99927.194      96977.594      2.5922429e-06  5.167907e-07   2.0754522e-06  1.0643306e+08
    751000   1.3704768e-10  99911.363      99921.278      96929.813      2.5922301e-06  5.1690342e-07  2.0753267e-06  1.0642938e+08
    752000   1.3723017e-10  99918.268      99928.496      96831.671      2.5922408e-06  5.1677067e-07  2.0754701e-06  1.0643345e+08
    753000   1.3741266e-10  99908.415      99918.749      96786.12       2.5922474e-06  5.16982e-07    2.0752654e-06  1.0643213e+08
    754000   1.3759514e-10  99896.396      99906.464      96863.358      2.5922458e-06  5.1723002e-07  2.0750158e-06  1.0642771e+08
    755000   1.3777763e-10  99899.745      99911.637      96256.618      2.5922407e-06  5.1715538e-07  2.0750854e-06  1.0642931e+08
    756000   1.3796012e-10  99907.864      99921.513      95677.115      2.5922443e-06  5.1699028e-07  2.075254e-06   1.0643305e+08
    757000   1.3814261e-10  99910.017      99924.12       95527.437      2.5922548e-06  5.1695612e-07  2.0752987e-06  1.064332e+08 
    758000   1.3832509e-10  99913.448      99929.741      94798.421      2.5922561e-06  5.1688607e-07  2.07537e-06    1.0643489e+08
    759000   1.3850758e-10  99886.111      99903.215      94500.012      2.5922336e-06  5.1743143e-07  2.0748022e-06  1.0642422e+08
    760000   1.3869007e-10  99894.402      99911.582      94482.796      2.5922507e-06  5.1727628e-07  2.0749744e-06  1.0643019e+08
    761000   1.3887255e-10  99900.561      99917.692      94505.355      2.5922634e-06  5.1716109e-07  2.0751023e-06  1.0643344e+08
    762000   1.3905504e-10  99878.948      99896.617      94303.604      2.5922503e-06  5.1759693e-07  2.0746534e-06  1.0642589e+08
    763000   1.3923753e-10  99910.607      99928.065      94406.295      2.5922595e-06  5.1694848e-07  2.075311e-06   1.0643505e+08
    764000   1.3942001e-10  99901.783      99918.425      94670.225      2.5922593e-06  5.1713164e-07  2.0751277e-06  1.0643222e+08
    765000   1.396025e-10   99894.944      99910.889      94896.306      2.5922551e-06  5.172695e-07   2.0749856e-06  1.0642874e+08
    766000   1.3978499e-10  99897.697      99912.063      95427.266      2.5922536e-06  5.1721083e-07  2.0750428e-06  1.0642952e+08
    767000   1.3996747e-10  99890.294      99903.158      95922.207      2.5922591e-06  5.1737004e-07  2.074889e-06   1.0642914e+08
    768000   1.4014996e-10  99895.606      99907.256      96333.242      2.5922654e-06  5.17266e-07    2.0749994e-06  1.0643203e+08
    769000   1.4033245e-10  99904.872      99916.322      96409.663      2.5922455e-06  5.170536e-07   2.0751918e-06  1.0643027e+08
    770000   1.4051494e-10  99922.989      99932.985      96913.946      2.5922485e-06  5.1668029e-07  2.0755682e-06  1.0643662e+08
    771000   1.4069742e-10  99901.473      99909.736      97472.01       2.592234e-06   5.1711279e-07  2.0751212e-06  1.0642718e+08
    772000   1.4087991e-10  99910.936      99919.425      97406.056      2.5922483e-06  5.1693051e-07  2.0753178e-06  1.0642939e+08
    773000   1.410624e-10   99910.644      99920.991      96784.209      2.5922405e-06  5.1692873e-07  2.0753117e-06  1.0643164e+08
    774000   1.4124488e-10  99901.026      99908.174      97844.524      2.5922408e-06  5.1712883e-07  2.075112e-06   1.0642783e+08
    775000   1.4142737e-10  99903.796      99909.828      98220.66       2.5922385e-06  5.1706897e-07  2.0751695e-06  1.0643001e+08
    776000   1.4160986e-10  99890.065      99892.566      99387.826      2.5922316e-06  5.1734736e-07  2.0748843e-06  1.0642234e+08
    777000   1.4179234e-10  99911.953      99914.123      99520.274      2.5922552e-06  5.1691629e-07  2.0753389e-06  1.0643472e+08
    778000   1.4197483e-10  99900.933      99903.517      99371.093      2.5922493e-06  5.1713922e-07  2.07511e-06    1.0642944e+08
    779000   1.4215732e-10  99919.54       99922.322      99323.226      2.5922406e-06  5.167441e-07   2.0754965e-06  1.0643202e+08
    780000   1.423398e-10   99900.328      99901.493      99844.643      2.5922323e-06  5.1713481e-07  2.0750975e-06  1.0642706e+08
    781000   1.4252229e-10  99901.166      99901.646      100074.76      2.5922348e-06  5.1711989e-07  2.0751149e-06  1.0642634e+08
    782000   1.4270478e-10  99902.767      99903.565      99969.895      2.592242e-06   5.1709382e-07  2.0751481e-06  1.0642976e+08
    783000   1.4288727e-10  99876.397      99879.109      99303.485      2.5922428e-06  5.1764242e-07  2.0746004e-06  1.0642279e+08
    784000   1.4306975e-10  99896.713      99901.219      98723.805      2.5922421e-06  5.1721971e-07  2.0750224e-06  1.0642782e+08
    785000   1.4325224e-10  99911.099      99916.073      98581.517      2.5922601e-06  5.1693888e-07  2.0753212e-06  1.0643416e+08
    786000   1.4343473e-10  99900.469      99902.583      99527.472      2.5922404e-06  5.1714e-07     2.0751004e-06  1.0643001e+08
    787000   1.4361721e-10  99900.068      99900.444      100108.3       2.5922223e-06  5.1713027e-07  2.0750921e-06  1.0642606e+08
    788000   1.437997e-10   99914.764      99916.918      99528.545      2.5922384e-06  5.1684108e-07  2.0753973e-06  1.0643139e+08
    789000   1.4398219e-10  99904.818      99908.262      99087.18       2.5922256e-06  5.1703486e-07  2.0751907e-06  1.0642652e+08
    790000   1.4416467e-10  99889.846      99894.096      98802.392      2.5922251e-06  5.1734539e-07  2.0748797e-06  1.0642374e+08
    791000   1.4434716e-10  99905.036      99908.73       99003.913      2.5922423e-06  5.1704704e-07  2.0751953e-06  1.0643219e+08
    792000   1.4452965e-10  99895.466      99899.791      98782.949      2.5922409e-06  5.1724446e-07  2.0749965e-06  1.0642646e+08
    793000   1.4471213e-10  99901.21       99908.269      97874.335      2.5922338e-06  5.1711804e-07  2.0751158e-06  1.0642868e+08
    794000   1.4489462e-10  99898.671      99905.524      97940.699      2.5922463e-06  5.1718327e-07  2.075063e-06   1.0642889e+08
    795000   1.4507711e-10  99915.167      99921.743      98050.238      2.5922573e-06  5.1685157e-07  2.0754057e-06  1.0643469e+08
    796000   1.452596e-10   99889.232      99896.126      97917.495      2.5922681e-06  5.174011e-07   2.074867e-06   1.0642803e+08
    797000   1.4544208e-10  99883.486      99889.416      98234.286      2.5922486e-06  5.1750099e-07  2.0747476e-06  1.0642467e+08
    798000   1.4562457e-10  99884.674      99891.075      98077.943      2.5922379e-06  5.1746561e-07  2.0747723e-06  1.0642532e+08
    799000   1.4580706e-10  99911.938      99916.804      98618.827      2.5922609e-06  5.1692228e-07  2.0753386e-06  1.0643743e+08
    800000   1.4598954e-10  99895.651      99901.311      98336.728      2.5922571e-06  5.1725683e-07  2.0750003e-06  1.0643127e+08
    801000   1.4617203e-10  99893.521      99898.251      98645.735      2.5922455e-06  5.1728946e-07  2.0749561e-06  1.0642799e+08
    802000   1.4635452e-10  99906.555      99910.051      99071.672      2.5922377e-06  5.1701086e-07  2.0752268e-06  1.0643096e+08
    803000   1.46537e-10    99922.165      99925.273      99216.888      2.5922593e-06  5.1670826e-07  2.0755511e-06  1.0643871e+08
    804000   1.4671949e-10  99895.156      99897.587      99416.215      2.592266e-06   5.1727599e-07  2.07499e-06    1.0643076e+08
    805000   1.4690198e-10  99906.635      99907.762      99863.789      2.5922551e-06  5.1702662e-07  2.0752285e-06  1.064311e+08 
    806000   1.4708446e-10  99885.028      99885.015      100223.47      2.5922564e-06  5.1747674e-07  2.0747797e-06  1.0642382e+08
    807000   1.4726695e-10  99912.918      99912.563      100365.69      2.5922644e-06  5.169054e-07   2.075359e-06   1.0643578e+08
    808000   1.4744944e-10  99898.088      99898.583      100066.69      2.5922663e-06  5.1721535e-07  2.0750509e-06  1.0643418e+08
    809000   1.4763193e-10  99881.689      99881.671      100221.5       2.5922472e-06  5.1753686e-07  2.0747103e-06  1.0642642e+08
    810000   1.4781441e-10  99889.657      99890.646      99892.814      2.5922428e-06  5.1736699e-07  2.0748758e-06  1.064262e+08 
    811000   1.479969e-10   99888.7        99889.872      99830.595      2.5922574e-06  5.174015e-07   2.0748559e-06  1.0642564e+08
    812000   1.4817939e-10  99903.579      99907.468      98937.173      2.5922495e-06  5.1708453e-07  2.075165e-06   1.0643098e+08
    813000   1.4836187e-10  99887.335      99893.18       98266.534      2.592252e-06   5.1742445e-07  2.0748276e-06  1.0642669e+08
    814000   1.4854436e-10  99905.328      99909.627      98801.619      2.5922531e-06  5.1705182e-07  2.0752013e-06  1.0643164e+08
    815000   1.4872685e-10  99901.074      99906.173      98530.015      2.5922552e-06  5.1714222e-07  2.075113e-06   1.0643153e+08
    816000   1.4890933e-10  99918.744      99926.31       97722.738      2.5922599e-06  5.1677992e-07  2.07548e-06    1.0643686e+08
    817000   1.4909182e-10  99901.549      99908.637      97865.26       2.5922554e-06  5.1713259e-07  2.0751228e-06  1.0642976e+08
    818000   1.4927431e-10  99891.506      99898.478      97893.802      2.5922444e-06  5.1733021e-07  2.0749142e-06  1.0642774e+08
    819000   1.4945679e-10  99914.142      99920.948      97971.854      2.5922603e-06  5.168759e-07   2.0753844e-06  1.064359e+08 
    820000   1.4963928e-10  99912.743      99921.031      97475.337      2.5922637e-06  5.1690839e-07  2.0753554e-06  1.0643557e+08
    821000   1.4982177e-10  99905.264      99914.822      97043.019      2.5922695e-06  5.170695e-07   2.0752e-06     1.0643643e+08
    822000   1.5000426e-10  99897.376      99905.177      97622.708      2.5922643e-06  5.1722819e-07  2.0750362e-06  1.0643316e+08
    823000   1.5018674e-10  99893.184      99899.926      97972.645      2.5922404e-06  5.1729128e-07  2.0749491e-06  1.064265e+08 
    824000   1.5036923e-10  99899.27       99904.918      98344.418      2.5922405e-06  5.1716504e-07  2.0750755e-06  1.0642747e+08
    825000   1.5055172e-10  99899.293      99904.518      98485.811      2.5922552e-06  5.1717925e-07  2.075076e-06   1.0642996e+08
    826000   1.507342e-10   99907.447      99910.192      99323.471      2.5922514e-06  5.1700606e-07  2.0752453e-06  1.0643318e+08
    827000   1.5091669e-10  99900.527      99900.377      100284.93      2.5922356e-06  5.1713404e-07  2.0751016e-06  1.064287e+08 
    828000   1.5109918e-10  99903.171      99902.498      100462.19      2.5922442e-06  5.1708771e-07  2.0751565e-06  1.064301e+08 
    829000   1.5128166e-10  99897.628      99896.334      100664.26      2.5922358e-06  5.1719444e-07  2.0750414e-06  1.0642751e+08
    830000   1.5146415e-10  99905.068      99905.1        100228.27      2.5922405e-06  5.1704455e-07  2.0751959e-06  1.0642947e+08
    831000   1.5164664e-10  99914.589      99915.076      100085.96      2.5922697e-06  5.16876e-07    2.0753937e-06  1.0643557e+08
    832000   1.5182912e-10  99910.808      99912.002      99845.694      2.5922456e-06  5.1693041e-07  2.0753152e-06  1.0643225e+08
    833000   1.5201161e-10  99898.225      99898.745      100058.57      2.5922478e-06  5.1719402e-07  2.0750538e-06  1.0642613e+08
    834000   1.521941e-10   99902.67       99903.688      99896.445      2.5922395e-06  5.1709341e-07  2.0751461e-06  1.0642762e+08
    835000   1.5237659e-10  99908.372      99908.984      100037.76      2.592214e-06   5.1694951e-07  2.0752645e-06  1.0642703e+08
    836000   1.5255907e-10  99920.322      99922.099      99660.173      2.5922298e-06  5.1671707e-07  2.0755128e-06  1.0643314e+08
    837000   1.5274156e-10  99908.075      99911.132      99219.525      2.5922352e-06  5.1697687e-07  2.0752584e-06  1.064303e+08 
    838000   1.5292405e-10  99915.231      99918.284      99228.56       2.5922527e-06  5.1684563e-07  2.075407e-06   1.0643507e+08
    839000   1.5310653e-10  99894.938      99897.988      99209.046      2.5922439e-06  5.1725836e-07  2.0749855e-06  1.0642728e+08
    840000   1.5328902e-10  99894.349      99897.175      99283.05       2.59225e-06    5.1727678e-07  2.0749733e-06  1.0642864e+08
    841000   1.5347151e-10  99911.472      99912.049      100052.6       2.5922493e-06  5.1692031e-07  2.0753289e-06  1.0643496e+08
    842000   1.5365399e-10  99895.288      99890.802      101729.59      2.592259e-06   5.1726618e-07  2.0749928e-06  1.0642898e+08
    843000   1.5383648e-10  99903.075      99899.331      101489.37      2.5922622e-06  5.1710769e-07  2.0751545e-06  1.0643196e+08
    844000   1.5401897e-10  99901.181      99897.875      101340.79      2.5922423e-06  5.1712711e-07  2.0751152e-06  1.0643157e+08
    845000   1.5420146e-10  99903.653      99901.117      101085.93      2.5922763e-06  5.1710972e-07  2.0751665e-06  1.0643053e+08
    846000   1.5438394e-10  99912.084      99909.583      101082.75      2.5922925e-06  5.1695081e-07  2.0753417e-06  1.0643458e+08
    847000   1.5456643e-10  99901.193      99901.952      99981.357      2.5923005e-06  5.1718507e-07  2.0751154e-06  1.064338e+08 
    848000   1.5474892e-10  99897.606      99896.131      100725         2.5922837e-06  5.1724281e-07  2.0750409e-06  1.064302e+08 
    849000   1.549314e-10   99920.896      99918.725      100981.06      2.5922888e-06  5.1676414e-07  2.0755247e-06  1.0643698e+08
    850000   1.5511389e-10  99907.122      99902.35       101836.94      2.5922838e-06  5.1704526e-07  2.0752386e-06  1.0643137e+08
    851000   1.5529638e-10  99901.733      99896.784      101891.07      2.5923056e-06  5.1717895e-07  2.0751266e-06  1.0643387e+08
    852000   1.5547886e-10  99883.636      99878.69       101871.98      2.5922935e-06  5.1754274e-07  2.0747507e-06  1.0642658e+08
    853000   1.5566135e-10  99888.06       99881.147      102534.33      2.5922817e-06  5.1743903e-07  2.0748426e-06  1.0642951e+08
    854000   1.5584384e-10  99882.462      99877.395      101910.97      2.5923143e-06  5.1758799e-07  2.0747263e-06  1.0643155e+08
    855000   1.5602632e-10  99909.811      99906.876      101225.4       2.592318e-06   5.170236e-07   2.0752944e-06  1.0643788e+08
    856000   1.5620881e-10  99886.194      99883.309      101185.41      2.5923136e-06  5.1750968e-07  2.0748039e-06  1.0643018e+08
    857000   1.563913e-10   99903.924      99902.847      100598.46      2.5923071e-06  5.171349e-07   2.0751722e-06  1.0643473e+08
    858000   1.5657379e-10  99892.457      99893.391      99913.977      2.5922854e-06  5.1735146e-07  2.074934e-06   1.0642907e+08
    859000   1.5675627e-10  99900.584      99900.438      100283.66      2.5922957e-06  5.1719295e-07  2.0751028e-06  1.0643128e+08
    860000   1.5693876e-10  99895.28       99895.177      100263.68      2.592292e-06   5.1729937e-07  2.0749926e-06  1.064295e+08 
    861000   1.5712125e-10  99912.676      99911.501      100639.67      2.59228e-06    5.1692604e-07  2.075354e-06   1.0643438e+08
    862000   1.5730373e-10  99904.682      99903.99       100470.38      2.5922854e-06  5.1709747e-07  2.0751879e-06  1.0643249e+08
    863000   1.5748622e-10  99907.056      99905.931      100617.58      2.5923e-06     5.1706275e-07  2.0752372e-06  1.0643352e+08
    864000   1.5766871e-10  99905.36       99901.8        101430.19      2.5922794e-06  5.1707739e-07  2.075202e-06   1.0643058e+08
    865000   1.5785119e-10  99908.856      99904.982      101538.94      2.5922959e-06  5.1702132e-07  2.0752746e-06  1.0643423e+08
    866000   1.5803368e-10  99912.616      99909.005      101454.57      2.59231e-06    5.1695733e-07  2.0753527e-06  1.0643846e+08
    867000   1.5821617e-10  99889.86       99887.815      100908.06      2.5923194e-06  5.1743932e-07  2.07488e-06    1.0643165e+08
    868000   1.5839865e-10  99904.404      99903.093      100677.27      2.5923138e-06  5.1713171e-07  2.0751821e-06  1.0643483e+08
    869000   1.5858114e-10  99907.28       99903.979      101345.12      2.5922906e-06  5.170487e-07   2.0752419e-06  1.0643292e+08
    870000   1.5876363e-10  99904.817      99900.379      101723.41      2.5922969e-06  5.1710615e-07  2.0751907e-06  1.064336e+08 
    871000   1.5894612e-10  99895.462      99889.676      102164.62      2.592292e-06   5.172956e-07   2.0749964e-06  1.0643078e+08
    872000   1.591286e-10   99898.544      99890.039      103077.11      2.5922963e-06  5.1723592e-07  2.0750604e-06  1.0643344e+08
    873000   1.5931109e-10  99890.955      99881.93       103243.67      2.5923147e-06  5.1741188e-07  2.0749028e-06  1.0643133e+08
    874000   1.5949358e-10  99895.187      99886.575      103109.66      2.5923098e-06  5.1731909e-07  2.0749907e-06  1.0643292e+08
    875000   1.5967606e-10  99903.513      99893.75       103502.6       2.5923038e-06  5.1714017e-07  2.0751636e-06  1.0643476e+08
    876000   1.5985855e-10  99891.18       99879.929      103988.21      2.5922882e-06  5.1738077e-07  2.0749074e-06  1.0642946e+08
    877000   1.6004104e-10  99915.741      99904.957      103856.47      2.5922996e-06  5.1688195e-07  2.0754176e-06  1.0643629e+08
    878000   1.6022352e-10  99901.642      99892.319      103353.89      2.5923033e-06  5.1717857e-07  2.0751248e-06  1.0643327e+08
    879000   1.6040601e-10  99904.837      99892.906      104229.07      2.5922884e-06  5.1709725e-07  2.0751911e-06  1.0643299e+08
    880000   1.605885e-10   99906.555      99895.564      103916.47      2.5922795e-06  5.1705269e-07  2.0752268e-06  1.0642816e+08
    881000   1.6077098e-10  99906.447      99895.69       103838.1       2.5922741e-06  5.1704951e-07  2.0752246e-06  1.0642988e+08
    882000   1.6095347e-10  99911.988      99903.1        103218.79      2.5922898e-06  5.1695015e-07  2.0753397e-06  1.0643358e+08
    883000   1.6113596e-10  99908.091      99900.511      102777.3       2.5922837e-06  5.1702499e-07  2.0752587e-06  1.0643219e+08
    884000   1.6131845e-10  99900.655      99894.659      102240.04      2.5922922e-06  5.1718796e-07  2.0751043e-06  1.0642937e+08
    885000   1.6150093e-10  99914.148      99909.022      101962.74      2.5922944e-06  5.1690989e-07  2.0753845e-06  1.064339e+08 
    886000   1.6168342e-10  99903.826      99902.498      100682.07      2.5922889e-06  5.1711875e-07  2.0751701e-06  1.0643201e+08
    887000   1.6186591e-10  99911.936      99911.858      100272.22      2.5923038e-06  5.1696519e-07  2.0753386e-06  1.0643495e+08
    888000   1.6204839e-10  99906.486      99908.112      99696.896      2.592294e-06   5.1706862e-07  2.0752254e-06  1.0643393e+08
    889000   1.6223088e-10  99887.635      99891.198      99029.998      2.5922996e-06  5.1746577e-07  2.0748338e-06  1.0642888e+08
    890000   1.6241337e-10  99879.404      99884.746      98426.657      2.5922818e-06  5.1761893e-07  2.0746628e-06  1.0642343e+08
    891000   1.6259585e-10  99922.573      99926.888      98813.599      2.5922809e-06  5.1672142e-07  2.0755595e-06  1.064359e+08 
    892000   1.6277834e-10  99905.63       99909.95       98795.027      2.592261e-06   5.1705343e-07  2.0752076e-06  1.0642792e+08
    893000   1.6296083e-10  99904.6        99910.68       98205.03       2.5922535e-06  5.170673e-07   2.0751862e-06  1.0642618e+08
    894000   1.6314331e-10  99900.397      99907.217      97953.65       2.5922762e-06  5.171773e-07   2.0750989e-06  1.0642754e+08
    895000   1.633258e-10   99908.299      99911.004      99338.074      2.5922838e-06  5.170208e-07   2.075263e-06   1.0643267e+08
    896000   1.6350829e-10  99906.326      99909.597      99146.683      2.592296e-06   5.1707399e-07  2.0752221e-06  1.0643353e+08
    897000   1.6369078e-10  99916.175      99919.819      99031.69       2.5923031e-06  5.1687647e-07  2.0754266e-06  1.0643647e+08
    898000   1.6387326e-10  99898.953      99903.231      98801.988      2.5922849e-06  5.1721599e-07  2.0750689e-06  1.0642838e+08
    899000   1.6405575e-10  99901.652      99904.272      99359.518      2.5922929e-06  5.1716793e-07  2.075125e-06   1.0643108e+08
    900000   1.6423824e-10  99905.3        99909.484      98840.25       2.5922953e-06  5.1709459e-07  2.0752007e-06  1.0643108e+08
    901000   1.6442072e-10  99902.116      99908.043      98253.837      2.5922817e-06  5.1714707e-07  2.0751346e-06  1.064296e+08 
    902000   1.6460321e-10  99904.575      99910.77       98166.778      2.592291e-06   5.1710529e-07  2.0751857e-06  1.0642928e+08
    903000   1.647857e-10   99903.108      99910.582      97737.289      2.5923006e-06  5.1714537e-07  2.0751552e-06  1.0643071e+08
    904000   1.6496818e-10  99918.436      99927.014      97383.754      2.5923207e-06  5.1684708e-07  2.0754736e-06  1.0643917e+08
    905000   1.6515067e-10  99891.605      99899.423      97611.04       2.5923277e-06  5.174114e-07   2.0749163e-06  1.0643216e+08
    906000   1.6533316e-10  99904.363      99911.047      98002.925      2.5923032e-06  5.1712191e-07  2.0751813e-06  1.0643379e+08
    907000   1.6551564e-10  99898.879      99907.881      97222.316      2.5922937e-06  5.1722639e-07  2.0750674e-06  1.0643037e+08
    908000   1.6569813e-10  99901.657      99910.06       97425.198      2.5923012e-06  5.1717614e-07  2.0751251e-06  1.0643128e+08
    909000   1.6588062e-10  99903.697      99911.64       97581.415      2.592321e-06   5.1715358e-07  2.0751674e-06  1.0643579e+08
    910000   1.6606311e-10  99916.909      99926.285      97115.213      2.5923011e-06  5.1685927e-07  2.0754419e-06  1.0643784e+08
    911000   1.6624559e-10  99904.561      99914.466      96926.036      2.5923069e-06  5.1712148e-07  2.0751854e-06  1.0643355e+08
    912000   1.6642808e-10  99912.083      99921.221      97189.952      2.5923184e-06  5.1697678e-07  2.0753416e-06  1.0643881e+08
    913000   1.6661057e-10  99902.725      99911.177      97410.219      2.5923418e-06  5.1719451e-07  2.0751473e-06  1.0643816e+08
    914000   1.6679305e-10  99902.978      99910.697      97655.638      2.5923206e-06  5.1716806e-07  2.0751525e-06  1.0643558e+08
    915000   1.6697554e-10  99912.914      99921.848      97259.075      2.5923143e-06  5.1695546e-07  2.0753589e-06  1.0643904e+08
    916000   1.6715803e-10  99915.344      99922.622      97815.369      2.5923022e-06  5.1689288e-07  2.0754094e-06  1.0643881e+08
    917000   1.6734051e-10  99901.884      99911.842      96905.57       2.5923091e-06  5.1717931e-07  2.0751298e-06  1.0643472e+08
    918000   1.67523e-10    99904.571      99915.977      96424.038      2.5922917e-06  5.1710613e-07  2.0751856e-06  1.064322e+08 
    919000   1.6770549e-10  99907.305      99918.596      96465.033      2.5923263e-06  5.1708388e-07  2.0752424e-06  1.0643381e+08
    920000   1.6788797e-10  99928.997      99938.016      97246.81       2.5923108e-06  5.1661786e-07  2.075693e-06   1.0644104e+08
    921000   1.6807046e-10  99899.694      99908.13       97412.408      2.5923052e-06  5.1722091e-07  2.0750843e-06  1.0642943e+08
    922000   1.6825295e-10  99904.014      99909.585      98374.946      2.5922925e-06  5.1711846e-07  2.075174e-06   1.0643082e+08
    923000   1.6843544e-10  99916.745      99921.231      98750.86       2.5922994e-06  5.1686089e-07  2.0754385e-06  1.0643556e+08
    924000   1.6861792e-10  99931.835      99937.169      98482.225      2.5923127e-06  5.1656082e-07  2.0757519e-06  1.0644207e+08
    925000   1.6880041e-10  99914.261      99921.995      97661.783      2.592299e-06   5.1691208e-07  2.0753869e-06  1.0643577e+08
    926000   1.689829e-10   99915.282      99922.332      97891.71       2.5923005e-06  5.1689238e-07  2.0754081e-06  1.0643641e+08
    927000   1.6916538e-10  99913.774      99922.801      97229.056      2.5923018e-06  5.1692504e-07  2.0753768e-06  1.0643483e+08
    928000   1.6934787e-10  99905.062      99910.222      98513.403      2.5923033e-06  5.1710749e-07  2.0751958e-06  1.0643265e+08
    929000   1.6953036e-10  99891.315      99896.267      98569.276      2.5922954e-06  5.1738512e-07  2.0749103e-06  1.0642792e+08
    930000   1.6971284e-10  99930.429      99934.503      98902.087      2.5922855e-06  5.1656276e-07  2.0757227e-06  1.0643778e+08
    931000   1.6989533e-10  99890.287      99892.709      99414.45       2.5922913e-06  5.174024e-07   2.0748889e-06  1.0642768e+08
    932000   1.7007782e-10  99911.263      99912.527      99822.655      2.5922901e-06  5.1696553e-07  2.0753246e-06  1.0643495e+08
    933000   1.702603e-10   99910.405      99910.611      100175.64      2.5922915e-06  5.1698476e-07  2.0753068e-06  1.0643254e+08
    934000   1.7044279e-10  99918.743      99919.458      100013.76      2.5922913e-06  5.1681136e-07  2.07548e-06    1.0643434e+08
    935000   1.7062528e-10  99923.215      99921.683      100769.75      2.5923195e-06  5.1674663e-07  2.0755729e-06  1.0643709e+08
    936000   1.7080777e-10  99901.409      99898.29       101278.93      2.592321e-06   5.1720106e-07  2.0751199e-06  1.0643191e+08
    937000   1.7099025e-10  99911.314      99907.823      101412.79      2.5923188e-06  5.1699315e-07  2.0753257e-06  1.064364e+08 
    938000   1.7117274e-10  99893.56       99891.508      100913.96      2.5923075e-06  5.1735059e-07  2.0749569e-06  1.0643154e+08
    939000   1.7135523e-10  99897.657      99894.608      101251.79      2.5923286e-06  5.1728662e-07  2.075042e-06   1.0643385e+08
    940000   1.7153771e-10  99914.457      99911.612      101200.21      2.5923432e-06  5.1695228e-07  2.0753909e-06  1.064396e+08 
    941000   1.717202e-10   99896.964      99891.842      101943.86      2.5923104e-06  5.1728284e-07  2.0750276e-06  1.0643183e+08
    942000   1.7190269e-10  99897.755      99890.397      102692.75      2.5923123e-06  5.1726828e-07  2.075044e-06   1.0643222e+08
    943000   1.7208517e-10  99898.748      99892.387      102360.2       2.5923097e-06  5.1724503e-07  2.0750646e-06  1.0643106e+08
    944000   1.7226766e-10  99910.498      99902.702      102851.82      2.5922971e-06  5.1698844e-07  2.0753087e-06  1.0643542e+08
    945000   1.7245015e-10  99898.084      99890.888      102638.98      2.5923117e-06  5.1726087e-07  2.0750509e-06  1.064303e+08 
    946000   1.7263263e-10  99909.309      99902.613      102482.74      2.5923046e-06  5.1702063e-07  2.075284e-06   1.0643275e+08
    947000   1.7281512e-10  99908.634      99903.281      102033.19      2.5923056e-06  5.1703564e-07  2.07527e-06    1.0643181e+08
    948000   1.7299761e-10  99919.005      99915.012      101588.78      2.5922827e-06  5.1679733e-07  2.0754854e-06  1.0643582e+08
    949000   1.731801e-10   99904.449      99901.494      101226.94      2.5922969e-06  5.1711386e-07  2.0751831e-06  1.0643261e+08
    950000   1.7336258e-10  99893.819      99889.888      101542.52      2.5923092e-06  5.1734692e-07  2.0749623e-06  1.0643248e+08
    951000   1.7354507e-10  99899.251      99892.786      102395.74      2.5923024e-06  5.172273e-07   2.0750751e-06  1.0643061e+08
    952000   1.7372756e-10  99886.349      99880.71       102106.34      2.5922947e-06  5.1748758e-07  2.0748071e-06  1.0642493e+08
    953000   1.7391004e-10  99893.799      99887.227      102425.87      2.5923116e-06  5.1734976e-07  2.0749618e-06  1.0643089e+08
    954000   1.7409253e-10  99907.834      99900.257      102775.98      2.5923127e-06  5.1705927e-07  2.0752534e-06  1.0643652e+08
    955000   1.7427502e-10  99917.178      99910.508      102482.17      2.5923087e-06  5.1686123e-07  2.0754475e-06  1.0643764e+08
    956000   1.744575e-10   99908.216      99900.746      102740.63      2.5923085e-06  5.1704715e-07  2.0752613e-06  1.0643314e+08
    957000   1.7463999e-10  99909.521      99902.01       102755.59      2.5923165e-06  5.1702808e-07  2.0752884e-06  1.0643571e+08
    958000   1.7482248e-10  99915.548      99907.188      103045.58      2.5923177e-06  5.1690406e-07  2.0754136e-06  1.0643785e+08
    959000   1.7500496e-10  99902.04       99895.763      102335.47      2.5923234e-06  5.1719038e-07  2.075133e-06   1.0643272e+08
    960000   1.7518745e-10  99907.419      99901.897      102088.11      2.5923281e-06  5.1708336e-07  2.0752447e-06  1.0643536e+08
    961000   1.7536994e-10  99902.094      99895.784      102346.53      2.5923152e-06  5.1718108e-07  2.0751341e-06  1.0643519e+08
    962000   1.7555243e-10  99895.067      99887.299      102826.92      2.5923224e-06  5.1733428e-07  2.0749882e-06  1.0643462e+08
    963000   1.7573491e-10  99885.532      99878.046      102723.23      2.5923104e-06  5.1752031e-07  2.0747901e-06  1.0642879e+08
    964000   1.759174e-10   99903.136      99896.717      102384.15      2.5923139e-06  5.1715815e-07  2.0751558e-06  1.0643226e+08
    965000   1.7609989e-10  99893.606      99888.094      102071.17      2.5923243e-06  5.1736643e-07  2.0749578e-06  1.0643168e+08
    966000   1.7628237e-10  99888.949      99883.954      101893.43      2.5923299e-06  5.1746883e-07  2.0748611e-06  1.0643208e+08
    967000   1.7646486e-10  99904.068      99899.362      101812.41      2.5923156e-06  5.1714041e-07  2.0751752e-06  1.0643389e+08
    968000   1.7664735e-10  99896.985      99892.29       101801.4       2.5923014e-06  5.1727334e-07  2.075028e-06   1.0643065e+08
    969000   1.7682983e-10  99905.45       99900.224      101987.45      2.5923036e-06  5.170997e-07   2.0752039e-06  1.0643249e+08
    970000   1.7701232e-10  99908.493      99904.242      101664.15      2.5922985e-06  5.1703146e-07  2.0752671e-06  1.0643305e+08
    971000   1.7719481e-10  99907.258      99903.88       101371.26      2.5923119e-06  5.1707053e-07  2.0752414e-06  1.0643485e+08
    972000   1.773773e-10   99914.837      99912.42       101057.29      2.5923318e-06  5.1693298e-07  2.0753988e-06  1.0643845e+08
    973000   1.7755978e-10  99912.172      99913.6        99768.893      2.5923029e-06  5.1695936e-07  2.0753435e-06  1.0643378e+08
    974000   1.7774227e-10  99901.169      99900.912      100321.31      2.5923037e-06  5.1718876e-07  2.0751149e-06  1.0643244e+08
    975000   1.7792476e-10  99910.379      99910.393      100239.87      2.5923009e-06  5.1699469e-07  2.0753062e-06  1.0643605e+08
    976000   1.7810724e-10  99892.444      99893.343      99925.604      2.5923007e-06  5.1736701e-07  2.0749337e-06  1.0643037e+08
    977000   1.7828973e-10  99906.054      99909.232      99177.443      2.592298e-06   5.1708155e-07  2.0752164e-06  1.0643155e+08
    978000   1.7847222e-10  99892.706      99896.196      99059.595      2.5922978e-06  5.1735871e-07  2.0749391e-06  1.0642632e+08
    979000   1.786547e-10   99910.082      99912.878      99308.96       2.5923191e-06  5.1701907e-07  2.0753001e-06  1.0643669e+08
    980000   1.7883719e-10  99908.781      99913.791      98567.21       2.5923125e-06  5.1703944e-07  2.075273e-06   1.0643585e+08
    981000   1.7901968e-10  99906.655      99911.893      98488.898      2.5923055e-06  5.1707667e-07  2.0752289e-06  1.0643291e+08
    982000   1.7920216e-10  99919.294      99925.215      98273.206      2.5922952e-06  5.1680373e-07  2.0754914e-06  1.0643605e+08
    983000   1.7938465e-10  99907.934      99911.474      99058.061      2.5922966e-06  5.1704114e-07  2.0752554e-06  1.0643e+08   
    984000   1.7956714e-10  99909.825      99915.879      98219.121      2.5923077e-06  5.17013e-07    2.0752947e-06  1.0643307e+08
    985000   1.7974963e-10  99900.227      99906.858      98016.567      2.5923169e-06  5.1722155e-07  2.0750954e-06  1.0643384e+08
    986000   1.7993211e-10  99906.505      99911.931      98425.714      2.5923165e-06  5.1709075e-07  2.0752258e-06  1.0643654e+08
    987000   1.801146e-10   99905.63       99911.569      98253.573      2.5923124e-06  5.1710478e-07  2.0752076e-06  1.0643425e+08
    988000   1.8029709e-10  99909.199      99913.509      98801.648      2.5923065e-06  5.1702476e-07  2.0752817e-06  1.0643411e+08
    989000   1.8047957e-10  99920.908      99925.618      98680.048      2.5923213e-06  5.1679633e-07  2.075525e-06   1.0643933e+08
    990000   1.8066206e-10  99922.024      99925.251      99176.981      2.5923159e-06  5.1676776e-07  2.0755481e-06  1.0643868e+08
    991000   1.8084455e-10  99897.947      99902.743      98628.097      2.5923032e-06  5.1725524e-07  2.075048e-06   1.0642959e+08
    992000   1.8102703e-10  99905.76       99912.519      97979.46       2.592288e-06   5.1707767e-07  2.0752103e-06  1.064303e+08 
    993000   1.8120952e-10  99927.195      99932.84       98373.68       2.592291e-06   5.1663541e-07  2.0756555e-06  1.064378e+08 
    994000   1.8139201e-10  99916.455      99921.735      98484.969      2.5922953e-06  5.1686281e-07  2.0754325e-06  1.0643497e+08
    995000   1.8157449e-10  99891.345      99897.55       98150.13       2.5923095e-06  5.1739858e-07  2.0749109e-06  1.0643014e+08
    996000   1.8175698e-10  99907.84       99915.202      97779.692      2.5923113e-06  5.170578e-07   2.0752535e-06  1.0643573e+08
    997000   1.8193947e-10  99908.365      99915.987      97693.388      2.5923161e-06  5.1705167e-07  2.0752644e-06  1.0643409e+08
    998000   1.8212196e-10  99917.382      99925.182      97642.769      2.5922961e-06  5.1684441e-07  2.0754517e-06  1.0643674e+08
    999000   1.8230444e-10  99915.243      99920.997      98325.07       2.592294e-06   5.1688673e-07  2.0754073e-06  1.064361e+08 
   1000000   1.8248693e-10  99919.86       99925.19       98471.477      2.592291e-06   5.1678777e-07  2.0755032e-06  1.064364e+08 
   1001000   1.8266942e-10  99899.983      99904.586      98694.687      2.5923209e-06  5.1723059e-07  2.0750903e-06  1.0643469e+08
   1002000   1.828519e-10   99886.239      99888.784      99369.203      2.592322e-06   5.1751721e-07  2.0748048e-06  1.0642995e+08
   1003000   1.8303439e-10  99897.605      99899.683      99536.753      2.5922979e-06  5.1725702e-07  2.0750409e-06  1.0642972e+08
   1004000   1.8321688e-10  99903.632      99906.307      99342.922      2.5922879e-06  5.1712182e-07  2.0751661e-06  1.0643009e+08
   1005000   1.8339936e-10  99911.902      99914.779      99283.586      2.5923219e-06  5.1698399e-07  2.0753379e-06  1.0643583e+08
   1006000   1.8358185e-10  99902.093      99903.209      99862.911      2.5923193e-06  5.1718514e-07  2.0751341e-06  1.0643392e+08
   1007000   1.8376434e-10  99880.097      99881.41       99774.939      2.5923215e-06  5.1764422e-07  2.0746772e-06  1.0642632e+08
   1008000   1.8394682e-10  99923.826      99924.916      99893.635      2.5923246e-06  5.1673906e-07  2.0755856e-06  1.0644036e+08
   1009000   1.8412931e-10  99905.307      99904.622      100468.28      2.5923168e-06  5.171159e-07   2.0752009e-06  1.0643572e+08
   1010000   1.843118e-10   99900.826      99900.351      100393.48      2.5923318e-06  5.1722398e-07  2.0751078e-06  1.0643733e+08
   1011000   1.8449429e-10  99891.866      99892.658      99960.932      2.5923373e-06  5.1741559e-07  2.0749217e-06  1.0643489e+08
   1012000   1.8467677e-10  99913.918      99913.243      100473.93      2.5923593e-06  5.1697955e-07  2.0753797e-06  1.0644404e+08
   1013000   1.8485926e-10  99899.883      99897.59       101000.8       2.5923328e-06  5.1724462e-07  2.0750882e-06  1.064349e+08 
   1014000   1.8504175e-10  99912.854      99909.913      101230.69      2.5923432e-06  5.169855e-07   2.0753577e-06  1.0644034e+08
   1015000   1.8522423e-10  99908.123      99903.389      101825.46      2.5923113e-06  5.1705197e-07  2.0752594e-06  1.0643502e+08
   1016000   1.8540672e-10  99898.753      99894.599      101622.02      2.5922969e-06  5.1723215e-07  2.0750647e-06  1.064292e+08 
   1017000   1.8558921e-10  99916.205      99914.781      100726.59      2.5922932e-06  5.1686592e-07  2.0754273e-06  1.0643587e+08
   1018000   1.8577169e-10  99909.105      99910.396      99811.392      2.5922935e-06  5.1701376e-07  2.0752798e-06  1.0643325e+08
   1019000   1.8595418e-10  99906.292      99906.206      100269.28      2.5923048e-06  5.1708349e-07  2.0752213e-06  1.0643364e+08
   1020000   1.8613667e-10  99899.602      99900.122      100059.87      2.5922978e-06  5.1721543e-07  2.0750824e-06  1.0643241e+08
   1021000   1.8631915e-10  99903.792      99903.867      100212.78      2.5922975e-06  5.1712814e-07  2.0751694e-06  1.064316e+08 
   1022000   1.8650164e-10  99906.851      99905.774      100600.93      2.5923086e-06  5.1707563e-07  2.0752329e-06  1.0643508e+08
   1023000   1.8668413e-10  99904.099      99901.2        101207.7       2.5923059e-06  5.1713016e-07  2.0751758e-06  1.0643435e+08
   1024000   1.8686662e-10  99916.723      99912.587      101634.21      2.5923108e-06  5.1687275e-07  2.075438e-06   1.0643694e+08
   1025000   1.870491e-10   99915.568      99910.876      101819.11      2.5923219e-06  5.1690791e-07  2.075414e-06   1.0643856e+08
   1026000   1.8723159e-10  99914.175      99909.007      101976.51      2.5923074e-06  5.1692228e-07  2.0753851e-06  1.0643705e+08
   1027000   1.8741408e-10  99922.856      99917.777      101955.49      2.5923108e-06  5.1674544e-07  2.0755654e-06  1.0643653e+08
   1028000   1.8759656e-10  99911.979      99906.48       102085.25      2.5922983e-06  5.1695888e-07  2.0753395e-06  1.0643242e+08
   1029000   1.8777905e-10  99907.156      99900.453      102482.83      2.5922999e-06  5.1706064e-07  2.0752393e-06  1.0643217e+08
   1030000   1.8796154e-10  99899.524      99894.161      102027.08      2.5923067e-06  5.1722591e-07  2.0750808e-06  1.06432e+08  
   1031000   1.8814402e-10  99899.03       99895.826      101304.69      2.5923212e-06  5.1725067e-07  2.0750705e-06  1.0643443e+08
   1032000   1.8832651e-10  99893.676      99891.234      101044.42      2.5923131e-06  5.1735377e-07  2.0749593e-06  1.0643157e+08
   1033000   1.88509e-10    99892.056      99887.44       101769.86      2.5923037e-06  5.1737805e-07  2.0749256e-06  1.0642983e+08
   1034000   1.8869148e-10  99884.135      99881.912      100961.62      2.5923151e-06  5.1755399e-07  2.0747611e-06  1.0642882e+08
   1035000   1.8887397e-10  99897.944      99896.902      100580.46      2.5923265e-06  5.1727857e-07  2.0750479e-06  1.0643387e+08
   1036000   1.8905646e-10  99895.813      99895.694      100269.77      2.5923249e-06  5.1732125e-07  2.0750037e-06  1.0643145e+08
   1037000   1.8923895e-10  99907.86       99907.843      100247.95      2.5923185e-06  5.1706456e-07  2.0752539e-06  1.06435e+08  
   1038000   1.8942143e-10  99905.237      99904.538      100472.97      2.5923225e-06  5.1712304e-07  2.0751994e-06  1.0643522e+08
   1039000   1.8960392e-10  99904.414      99904.827      100100.41      2.5923141e-06  5.1713174e-07  2.0751823e-06  1.0643476e+08
   1040000   1.8978641e-10  99908.134      99909.713      99714.471      2.5923024e-06  5.1704278e-07  2.0752596e-06  1.0643295e+08
   1041000   1.8996889e-10  99923.377      99925.445      99565.856      2.5922919e-06  5.167157e-07   2.0755762e-06  1.0643731e+08
   1042000   1.9015138e-10  99908.82       99912.267      99090.024      2.5922919e-06  5.1701808e-07  2.0752738e-06  1.0643332e+08
   1043000   1.9033387e-10  99909.659      99914.045      98777.01       2.5922988e-06  5.1700749e-07  2.0752913e-06  1.0643417e+08
   1044000   1.9051635e-10  99911.895      99917.725      98296.349      2.5922966e-06  5.1695887e-07  2.0753377e-06  1.0643312e+08
   1045000   1.9069884e-10  99896.844      99901.895      98541.555      2.5922875e-06  5.1726238e-07  2.0750251e-06  1.064267e+08 
   1046000   1.9088133e-10  99889.342      99898.385      97199.089      2.5922801e-06  5.1741086e-07  2.0748693e-06  1.0642548e+08
   1047000   1.9106381e-10  99903.856      99912.718      97273.92       2.5922927e-06  5.17122e-07    2.0751707e-06  1.0643179e+08
   1048000   1.912463e-10   99908.104      99917.288      97170.433      2.5923018e-06  5.1704283e-07  2.075259e-06   1.0643511e+08
   1049000   1.9142879e-10  99891.254      99899.516      97461.879      2.5923285e-06  5.1741954e-07  2.074909e-06   1.0643431e+08
   1050000   1.9161128e-10  99901.577      99910.134      97374.076      2.5923356e-06  5.172122e-07   2.0751234e-06  1.0643596e+08
   1051000   1.9179376e-10  99906.509      99915.113      97363.064      2.5923183e-06  5.1709244e-07  2.0752259e-06  1.0643565e+08
   1052000   1.9197625e-10  99893.975      99900.26       98126.016      2.5923202e-06  5.173547e-07   2.0749655e-06  1.0643236e+08
   1053000   1.9215874e-10  99887.56       99892.214      98665.091      2.5923142e-06  5.1748199e-07  2.0748322e-06  1.0642917e+08
   1054000   1.9234122e-10  99891.76       99895.49       98978.448      2.5923146e-06  5.1739508e-07  2.0749195e-06  1.064305e+08 
   1055000   1.9252371e-10  99899.887      99902.212      99456.427      2.5923161e-06  5.1722778e-07  2.0750883e-06  1.0643449e+08
   1056000   1.927062e-10   99913.025      99915.646      99370.753      2.5923054e-06  5.1694418e-07  2.0753612e-06  1.0643677e+08
   1057000   1.9288868e-10  99896.386      99900.29       98924.861      2.5923047e-06  5.1728914e-07  2.0750156e-06  1.0643115e+08
   1058000   1.9307117e-10  99888.302      99892.63       98774.904      2.5922966e-06  5.1744897e-07  2.0748477e-06  1.0642739e+08
   1059000   1.9325366e-10  99900.973      99905.687      98658.417      2.5922773e-06  5.1716645e-07  2.0751109e-06  1.0642977e+08
   1060000   1.9343614e-10  99907.025      99910.076      99220.797      2.5922764e-06  5.1703984e-07  2.0752366e-06  1.064303e+08 
   1061000   1.9361863e-10  99892.456      99895.727      99132.401      2.592284e-06   5.1735007e-07  2.0749339e-06  1.0642709e+08
   1062000   1.9380112e-10  99901.273      99904.712      99085.271      2.592322e-06   5.1720491e-07  2.0751171e-06  1.0643342e+08
   1063000   1.9398361e-10  99900.064      99902.433      99441.977      2.5923203e-06  5.1722832e-07  2.075092e-06   1.0643653e+08
   1064000   1.9416609e-10  99900.559      99906.597      98215.421      2.5923252e-06  5.1722296e-07  2.0751023e-06  1.0643535e+08
   1065000   1.9434858e-10  99900.97       99908.622      97675.896      2.5923204e-06  5.1720964e-07  2.0751108e-06  1.0643494e+08
   1066000   1.9453107e-10  99900.894      99907.762      97938.202      2.5923205e-06  5.172113e-07   2.0751092e-06  1.064331e+08 
   1067000   1.9471355e-10  99905.126      99912.547      97757.435      2.5923086e-06  5.171115e-07   2.0751971e-06  1.0643358e+08
   1068000   1.9489604e-10  99917.098      99924.357      97823.769      2.5923136e-06  5.168678e-07   2.0754458e-06  1.0643759e+08
   1069000   1.9507853e-10  99896.523      99904.404      97594.802      2.5922959e-06  5.1727748e-07  2.0750184e-06  1.0642888e+08
   1070000   1.9526101e-10  99910.827      99918.413      97707.658      2.592304e-06   5.1698845e-07  2.0753155e-06  1.0643372e+08
   1071000   1.954435e-10   99918.915      99926.315      97778.025      2.5922888e-06  5.1680528e-07  2.0754835e-06  1.0643493e+08
   1072000   1.9562599e-10  99901.401      99908.31       97924.915      2.5922865e-06  5.1716673e-07  2.0751198e-06  1.0642933e+08
   1073000   1.9580847e-10  99901.167      99907.591      98086.641      2.5922927e-06  5.1717786e-07  2.0751149e-06  1.0643098e+08
   1074000   1.9599096e-10  99909.202      99915.689      98073.771      2.592309e-06   5.170272e-07   2.0752818e-06  1.0643772e+08
   1075000   1.9617345e-10  99889.172      99896.874      97647.402      2.5923089e-06  5.1744313e-07  2.0748657e-06  1.0643102e+08
   1076000   1.9635594e-10  99890.607      99898.821      97477.609      2.5923237e-06  5.174282e-07   2.0748955e-06  1.0643043e+08
   1077000   1.9653842e-10  99902.907      99909.722      97957.78       2.5923022e-06  5.1715122e-07  2.075151e-06   1.0643315e+08
   1078000   1.9672091e-10  99911.343      99917.199      98287.06       2.5923208e-06  5.169945e-07   2.0753263e-06  1.064373e+08 
   1079000   1.969034e-10   99911.333      99916.776      98425.098      2.5923119e-06  5.1698588e-07  2.075326e-06   1.0643707e+08
   1080000   1.9708588e-10  99915.463      99921.238      98318.08       2.5922867e-06  5.1687489e-07  2.0754118e-06  1.0643363e+08
   1081000   1.9726837e-10  99910.335      99918.178      97621.233      2.5922884e-06  5.1698307e-07  2.0753053e-06  1.0643008e+08
   1082000   1.9745086e-10  99910.345      99919.044      97335.065      2.592277e-06   5.1697146e-07  2.0753055e-06  1.064301e+08 
   1083000   1.9763334e-10  99902.99       99908.49       98397.42       2.5922997e-06  5.1714692e-07  2.0751527e-06  1.064288e+08 
   1084000   1.9781583e-10  99894.127      99900.117      98224.921      2.5922896e-06  5.1732092e-07  2.0749687e-06  1.0642764e+08
   1085000   1.9799832e-10  99890.162      99897.262      97849.859      2.5922887e-06  5.1740245e-07  2.0748863e-06  1.0642694e+08
   1086000   1.981808e-10   99917.71       99926.169      97422.668      2.5922996e-06  5.1684113e-07  2.0754585e-06  1.0643729e+08
   1087000   1.9836329e-10  99925.23       99933.751      97409.511      2.5922949e-06  5.1668016e-07  2.0756147e-06  1.0643782e+08
   1088000   1.9854578e-10  99907.4        99917.05       97013.995      2.5923061e-06  5.1706176e-07  2.0752444e-06  1.0643055e+08
   1089000   1.9872827e-10  99900.329      99911.351      96548.231      2.5922851e-06  5.1718757e-07  2.0750975e-06  1.0642749e+08
   1090000   1.9891075e-10  99901.112      99912.386      96464.608      2.5922856e-06  5.1717191e-07  2.0751137e-06  1.0643123e+08
   1091000   1.9909324e-10  99904.85       99917.157      96123.149      2.5923106e-06  5.1711919e-07  2.0751914e-06  1.0643388e+08
   1092000   1.9927573e-10  99899.667      99911.703      96208.324      2.5923181e-06  5.1723439e-07  2.0750837e-06  1.0643114e+08
   1093000   1.9945821e-10  99900.719      99911.081      96769.391      2.5922971e-06  5.1719153e-07  2.0751056e-06  1.0642998e+08
   1094000   1.996407e-10   99921.333      99930.523      97181.877      2.5923005e-06  5.1676676e-07  2.0755338e-06  1.0643674e+08
   1095000   1.9982319e-10  99905.751      99914.172      97423.282      2.592288e-06   5.1707787e-07  2.0752101e-06  1.0643264e+08
   1096000   2.0000567e-10  99899.09       99906.028      97912.962      2.5923101e-06  5.1723836e-07  2.0750717e-06  1.0643482e+08
   1097000   2.0018816e-10  99903.801      99908.938      98520.031      2.5923165e-06  5.1714691e-07  2.0751696e-06  1.0643626e+08
   1098000   2.0037065e-10  99899.92       99902.455      99386.272      2.5923081e-06  5.1721911e-07  2.075089e-06   1.0643356e+08
   1099000   2.0055314e-10  99918.241      99918.009      100330.23      2.5922871e-06  5.1681755e-07  2.0754695e-06  1.0643454e+08
   1100000   2.0073562e-10  99904.095      99903.477      100444.95      2.5922969e-06  5.1712123e-07  2.0751757e-06  1.0643083e+08
   1101000   2.0091811e-10  99924.652      99923.568      100621.6       2.5923171e-06  5.1671436e-07  2.0756027e-06  1.0644305e+08
   1102000   2.011006e-10   99900.797      99902.041      99818.816      2.592309e-06   5.172018e-07   2.0751072e-06  1.0643251e+08
   1103000   2.0128308e-10  99914.426      99916.755      99469.467      2.5923022e-06  5.1691193e-07  2.0753903e-06  1.0643578e+08
   1104000   2.0146557e-10  99910.886      99914.101      99169.82       2.5922961e-06  5.1697933e-07  2.0753168e-06  1.0643269e+08
   1105000   2.0164806e-10  99897.064      99901.175      98856.197      2.5922874e-06  5.1725772e-07  2.0750297e-06  1.0642795e+08
   1106000   2.0183054e-10  99922.01       99927.718      98347.192      2.5922938e-06  5.1674601e-07  2.0755478e-06  1.0643967e+08
   1107000   2.0201303e-10  99922.811      99926.381      99062.849      2.5923021e-06  5.1673767e-07  2.0755645e-06  1.0643971e+08
   1108000   2.0219552e-10  99913.3        99914.278      99920.26       2.592308e-06   5.1694113e-07  2.0753669e-06  1.0643675e+08
   1109000   2.02378e-10    99906.014      99908.423      99434.641      2.5922998e-06  5.1708423e-07  2.0752156e-06  1.0643308e+08
   1110000   2.0256049e-10  99911.751      99914.771      99235.81       2.5923216e-06  5.1698688e-07  2.0753347e-06  1.064358e+08 
   1111000   2.0274298e-10  99901.968      99905.182      99161.373      2.5923174e-06  5.1718582e-07  2.0751315e-06  1.0643454e+08
   1112000   2.0292547e-10  99896.711      99899.316      99359.371      2.5923187e-06  5.1729642e-07  2.0750223e-06  1.0643356e+08
   1113000   2.0310795e-10  99888.555      99891.224      99329.809      2.5922946e-06  5.1744168e-07  2.0748529e-06  1.0642817e+08
   1114000   2.0329044e-10  99910.766      99913.652      99279.609      2.5923071e-06  5.1699284e-07  2.0753143e-06  1.0643582e+08
   1115000   2.0347293e-10  99903.173      99906.762      99036.852      2.592298e-06   5.1714142e-07  2.0751565e-06  1.0643236e+08
   1116000   2.0365541e-10  99894.596      99897.31       99321.219      2.5922796e-06  5.173012e-07   2.0749784e-06  1.0642799e+08
   1117000   2.038379e-10   99916.591      99921.622      98568.152      2.5922795e-06  5.1684427e-07  2.0754353e-06  1.0643416e+08
   1118000   2.0402039e-10  99924.355      99931.148      97986.868      2.5922824e-06  5.166859e-07   2.0755966e-06  1.0643534e+08
   1119000   2.0420287e-10  99912.87       99920.488      97699.269      2.5922819e-06  5.169239e-07   2.075358e-06   1.0643214e+08
   1120000   2.0438536e-10  99898.435      99906.749      97452.017      2.5922948e-06  5.172367e-07   2.0750581e-06  1.0642979e+08
   1121000   2.0456785e-10  99908.026      99916.719      97335.02       2.5923035e-06  5.1704611e-07  2.0752574e-06  1.0643463e+08
   1122000   2.0475033e-10  99915.08       99924.877      96972.714      2.5923029e-06  5.1689901e-07  2.0754039e-06  1.0643778e+08
   1123000   2.0493282e-10  99890.608      99901.103      96714.49       2.5923068e-06  5.1741122e-07  2.0748956e-06  1.0643002e+08
   1124000   2.0511531e-10  99900.391      99907.796      97757.754      2.5923095e-06  5.1721076e-07  2.0750988e-06  1.0643202e+08
   1125000   2.052978e-10   99900.77       99906.502      98317.64       2.5922945e-06  5.1718788e-07  2.0751066e-06  1.0643131e+08
   1126000   2.0548028e-10  99907.949      99913.876      98259.71       2.5922974e-06  5.1704163e-07  2.0752558e-06  1.0643292e+08
   1127000   2.0566277e-10  99915.915      99922.065      98193.295      2.5922948e-06  5.1687353e-07  2.0754212e-06  1.0643608e+08
   1128000   2.0584526e-10  99906.94       99910.387      99088.224      2.5922895e-06  5.1705469e-07  2.0752348e-06  1.0643161e+08
   1129000   2.0602774e-10  99910.486      99914.922      98760.968      2.5922926e-06  5.1698414e-07  2.0753085e-06  1.064294e+08 
   1130000   2.0621023e-10  99915.043      99920.494      98426.347      2.5922747e-06  5.1687157e-07  2.0754031e-06  1.0643031e+08
   1131000   2.0639272e-10  99903.063      99909.475      98092.721      2.5922925e-06  5.1713821e-07  2.0751543e-06  1.0642931e+08
   1132000   2.065752e-10   99903.093      99910.066      97905.303      2.5923028e-06  5.1714792e-07  2.0751549e-06  1.0643191e+08
   1133000   2.0675769e-10  99894.15       99900.386      98142.768      2.5923081e-06  5.1733892e-07  2.0749691e-06  1.0643052e+08
   1134000   2.0694018e-10  99894.938      99902.605      97664.924      2.5923093e-06  5.1732384e-07  2.0749855e-06  1.0643239e+08
   1135000   2.0712266e-10  99902.224      99908.559      98117.503      2.5922923e-06  5.1715548e-07  2.0751368e-06  1.0643261e+08
   1136000   2.0730515e-10  99906.342      99911.438      98535.951      2.592298e-06   5.1707566e-07  2.0752224e-06  1.0643137e+08
   1137000   2.0748764e-10  99893.944      99899.69       98306.193      2.5923093e-06  5.173444e-07   2.0749649e-06  1.0642864e+08
   1138000   2.0767013e-10  99902.569      99907.175      98696.221      2.5923018e-06  5.1715778e-07  2.075144e-06   1.0643171e+08
   1139000   2.0785261e-10  99908.305      99913.857      98385.613      2.5922906e-06  5.1702747e-07  2.0752632e-06  1.0643288e+08
   1140000   2.080351e-10   99914.076      99921.253      97847.76       2.5922756e-06  5.1689262e-07  2.075383e-06   1.0643287e+08
   1141000   2.0821759e-10  99907.417      99914.521      97865.813      2.592296e-06   5.1705133e-07  2.0752447e-06  1.0643326e+08
   1142000   2.0840007e-10  99892.665      99900.44       97626.568      2.5922874e-06  5.1734906e-07  2.0749383e-06  1.0642914e+08
   1143000   2.0858256e-10  99907.701      99915.935      97488.195      2.5923141e-06  5.1706347e-07  2.0752506e-06  1.0643582e+08
   1144000   2.0876505e-10  99884.069      99891.725      97657.751      2.5923246e-06  5.1756487e-07  2.0747597e-06  1.0642969e+08
   1145000   2.0894753e-10  99898.543      99906.535      97559.773      2.5923039e-06  5.1724355e-07  2.0750604e-06  1.0643172e+08
   1146000   2.0913002e-10  99901.424      99909.281      97607.759      2.5922944e-06  5.1717413e-07  2.0751202e-06  1.0643117e+08
   1147000   2.0931251e-10  99914.047      99920.608      98054.134      2.592301e-06   5.1691856e-07  2.0753824e-06  1.0643548e+08
   1148000   2.0949499e-10  99926.074      99932.691      98047.15       2.5922924e-06  5.1666015e-07  2.0756322e-06  1.064363e+08 
   1149000   2.0967748e-10  99909.807      99919.31       97065.693      2.5923039e-06  5.1700951e-07  2.0752944e-06  1.0643277e+08
   1150000   2.0985997e-10  99896.111      99907.205      96520.042      2.5923104e-06  5.173005e-07   2.0750099e-06  1.0643034e+08
   1151000   2.1004246e-10  99914.138      99925.983      96287.064      2.5923046e-06  5.169203e-07   2.0753843e-06  1.0643551e+08
   1152000   2.1022494e-10  99918.275      99930.325      96222.54       2.5922917e-06  5.1682145e-07  2.0754703e-06  1.064351e+08 
   1153000   2.1040743e-10  99932.014      99945.612      95718.482      2.5923081e-06  5.1655249e-07  2.0757556e-06  1.0644095e+08
   1154000   2.1058992e-10  99926.764      99940.477      95674.713      2.5923032e-06  5.166566e-07   2.0756466e-06  1.0643815e+08
   1155000   2.107724e-10   99928.495      99942.512      95574.876      2.5922862e-06  5.1660363e-07  2.0756825e-06  1.0643695e+08
   1156000   2.1095489e-10  99899.225      99914.704      95056.221      2.5922997e-06  5.1722516e-07  2.0750745e-06  1.0642995e+08
   1157000   2.1113738e-10  99888.598      99903.29       95309.031      2.5923235e-06  5.1746966e-07  2.0748538e-06  1.0643118e+08
   1158000   2.1131986e-10  99898.295      99914.627      94770.38       2.5923005e-06  5.1724528e-07  2.0750552e-06  1.0643308e+08
   1159000   2.1150235e-10  99900.186      99915.398      95146.699      2.5923063e-06  5.1721173e-07  2.0750945e-06  1.064344e+08 
   1160000   2.1168484e-10  99902.419      99918.015      95020.266      2.5923094e-06  5.1716849e-07  2.0751409e-06  1.0643373e+08
   1161000   2.1186732e-10  99911.601      99929.614      94221.361      2.5922964e-06  5.1696475e-07  2.0753316e-06  1.0643329e+08
   1162000   2.1204981e-10  99913.531      99928.837      95128.881      2.5922829e-06  5.1691121e-07  2.0753717e-06  1.0643377e+08
   1163000   2.122323e-10   99895.85       99908.666      95943.923      2.5922981e-06  5.1729362e-07  2.0750045e-06  1.0643013e+08
   1164000   2.1241479e-10  99898.801      99911.442      96005.095      2.592315e-06   5.1724924e-07  2.0750657e-06  1.0643256e+08
   1165000   2.1259727e-10  99914.356      99927.475      95860.985      2.5922978e-06  5.1690896e-07  2.0753889e-06  1.0643623e+08
   1166000   2.1277976e-10  99898.013      99910.405      96087.911      2.5923196e-06  5.1727027e-07  2.0750494e-06  1.0643141e+08
   1167000   2.1296225e-10  99906.284      99919.383      95859.512      2.5923166e-06  5.1709538e-07  2.0752212e-06  1.0643466e+08
   1168000   2.1314473e-10  99910.401      99923.9        95729.854      2.5923145e-06  5.1700781e-07  2.0753067e-06  1.064366e+08 
   1169000   2.1332722e-10  99897.66       99912.37       95312.071      2.5923306e-06  5.1728857e-07  2.075042e-06   1.064334e+08 
   1170000   2.1350971e-10  99894.48       99907.942      95726.011      2.5923137e-06  5.1733767e-07  2.074976e-06   1.0643375e+08
   1171000   2.1369219e-10  99891.409      99902.209      96613.344      2.5923096e-06  5.1739741e-07  2.0749122e-06  1.0643125e+08
   1172000   2.1387468e-10  99910.306      99919.849      97052.536      2.5923274e-06  5.1702268e-07  2.0753047e-06  1.0643654e+08
   1173000   2.1405717e-10  99908.037      99918.703      96674.762      2.5923343e-06  5.1707671e-07  2.0752576e-06  1.0643437e+08
   1174000   2.1423965e-10  99907.704      99919.016      96458.629      2.592323e-06   5.1707232e-07  2.0752507e-06  1.0643514e+08
   1175000   2.1442214e-10  99882.976      99894.064      96508.687      2.592324e-06   5.17587e-07    2.074737e-06   1.0642774e+08
   1176000   2.1460463e-10  99904.055      99913.003      97245.456      2.5923094e-06  5.1713454e-07  2.0751749e-06  1.0643405e+08
   1177000   2.1478712e-10  99914.503      99925.403      96603.321      2.5923144e-06  5.1692251e-07  2.0753919e-06  1.0643769e+08
   1178000   2.149696e-10   99910.037      99922.833      95964.669      2.5923084e-06  5.1700927e-07  2.0752991e-06  1.0643507e+08
   1179000   2.1515209e-10  99923.642      99935.362      96338.003      2.5922998e-06  5.1671803e-07  2.0755817e-06  1.0643658e+08
   1180000   2.1533458e-10  99916.167      99926.995      96628.762      2.5922751e-06  5.1684867e-07  2.0754265e-06  1.0643252e+08
   1181000   2.1551706e-10  99897.326      99908.242      96580.706      2.5922964e-06  5.1726127e-07  2.0750351e-06  1.0642825e+08
   1182000   2.1569955e-10  99909.56       99922.22       96009.655      2.5923094e-06  5.1702014e-07  2.0752892e-06  1.064365e+08 
   1183000   2.1588204e-10  99901.447      99914.738      95790.381      2.5923156e-06  5.1719485e-07  2.0751207e-06  1.0643312e+08
   1184000   2.1606452e-10  99904.397      99919.896      95055.015      2.5923061e-06  5.1712409e-07  2.075182e-06   1.064337e+08 
   1185000   2.1624701e-10  99908.794      99923.599      95291.443      2.5923164e-06  5.1704306e-07  2.0752733e-06  1.0643525e+08
   1186000   2.164295e-10   99915.055      99927.473      96096.153      2.59233e-06    5.1692658e-07  2.0754034e-06  1.0643815e+08
   1187000   2.1661198e-10  99905.367      99915.819      96744.023      2.5923096e-06  5.171075e-07   2.0752021e-06  1.0643397e+08
   1188000   2.1679447e-10  99916.297      99928.218      96263.643      2.5923111e-06  5.1688197e-07  2.0754292e-06  1.064381e+08 
   1189000   2.1697696e-10  99906.607      99920.279      95668.355      2.592294e-06   5.1706611e-07  2.0752279e-06  1.0643389e+08
   1190000   2.1715945e-10  99900.601      99914.011      95749.909      2.592316e-06   5.1721286e-07  2.0751031e-06  1.0643381e+08
   1191000   2.1734193e-10  99908.29       99922.585      95461.411      2.5923126e-06  5.1704974e-07  2.0752628e-06  1.0643616e+08
   1192000   2.1752442e-10  99916.913      99930.316      95768.447      2.5923022e-06  5.1686027e-07  2.075442e-06   1.0643632e+08
   1193000   2.1770691e-10  99911.39       99924.302      95927.22       2.5923006e-06  5.1697332e-07  2.0753272e-06  1.0643404e+08
   1194000   2.1788939e-10  99915.138      99928.399      95814.336      2.5922996e-06  5.1689446e-07  2.0754051e-06  1.06435e+08  
   1195000   2.1807188e-10  99913.639      99926.128      96070.755      2.5922934e-06  5.1691949e-07  2.075374e-06   1.0643437e+08
   1196000   2.1825437e-10  99902.675      99914.189      96385.777      2.5923104e-06  5.1716417e-07  2.0751462e-06  1.0643446e+08
   1197000   2.1843685e-10  99907.292      99919.6        96125.095      2.5923063e-06  5.1706416e-07  2.0752421e-06  1.0643452e+08
   1198000   2.1861934e-10  99920.011      99932.076      96219.141      2.5923139e-06  5.1680755e-07  2.0755063e-06  1.0643798e+08
   1199000   2.1880183e-10  99886.813      99898.653      96261.256      2.5923153e-06  5.1749855e-07  2.0748167e-06  1.0642895e+08
   1200000   2.1898431e-10  99893.418      99906.29       95922.528      2.5923375e-06  5.1738359e-07  2.0749539e-06  1.06434e+08  
   1201000   2.191668e-10   99903.95       99918.021      95532.071      2.5923339e-06  5.1716119e-07  2.0751727e-06  1.0643576e+08
   1202000   2.1934929e-10  99907.496      99920.517      95886.806      2.5923251e-06  5.1707878e-07  2.0752463e-06  1.0643693e+08
   1203000   2.1953178e-10  99904.114      99916.299      96163.027      2.5922838e-06  5.1710766e-07  2.0751761e-06  1.0642974e+08
   1204000   2.1971426e-10  99898.935      99910.55       96348.335      2.5922996e-06  5.172311e-07   2.0750685e-06  1.0642851e+08
   1205000   2.1989675e-10  99921.151      99933.765      96036.672      2.5922732e-06  5.1674326e-07  2.07553e-06    1.0643479e+08
   1206000   2.2007924e-10  99921.183      99933.852      96018.082      2.5922824e-06  5.1675171e-07  2.0755306e-06  1.0643468e+08
   1207000   2.2026172e-10  99909.533      99922.422      95932.942      2.5922985e-06  5.1700983e-07  2.0752887e-06  1.0643459e+08
   1208000   2.2044421e-10  99906.673      99920.791      95519.024      2.5923147e-06  5.1708544e-07  2.0752293e-06  1.0643588e+08
   1209000   2.206267e-10   99901.928      99915.657      95644.478      2.5923276e-06  5.1719689e-07  2.0751307e-06  1.0643529e+08
   1210000   2.2080918e-10  99904.607      99918.123      95718.449      2.5923151e-06  5.1712876e-07  2.0751864e-06  1.0643433e+08
   1211000   2.2099167e-10  99909.758      99920.666      96595.589      2.5923129e-06  5.1701957e-07  2.0752933e-06  1.0643502e+08
   1212000   2.2117416e-10  99892.555      99903.587      96537.053      2.5922938e-06  5.1735781e-07  2.074936e-06   1.0642793e+08
   1213000   2.2135664e-10  99914.876      99926.687      96298.797      2.5923139e-06  5.1691425e-07  2.0753996e-06  1.0643599e+08
   1214000   2.2153913e-10  99912.589      99925.531      95918.551      2.5923214e-06  5.1696927e-07  2.0753521e-06  1.0643507e+08
   1215000   2.2172162e-10  99921.801      99934.781      95915.093      2.5923172e-06  5.1677366e-07  2.0755435e-06  1.0643931e+08
   1216000   2.2190411e-10  99908.13       99923.56       95081.951      2.5923147e-06  5.1705521e-07  2.0752595e-06  1.0643502e+08
   1217000   2.2208659e-10  99903.522      99920.95       94408.996      2.592305e-06   5.1714124e-07  2.0751638e-06  1.0643326e+08
   1218000   2.2226908e-10  99877.154      99895.6        94041.927      2.5923033e-06  5.1768721e-07  2.0746161e-06  1.064243e+08 
   1219000   2.2245157e-10  99899.999      99918.027      94204.756      2.5922979e-06  5.1720723e-07  2.0750906e-06  1.0642988e+08
   1220000   2.2263405e-10  99915.374      99932.291      94591.644      2.5923021e-06  5.1689207e-07  2.07541e-06    1.0643537e+08
   1221000   2.2281654e-10  99913.427      99929.02       95032.726      2.5923068e-06  5.1693722e-07  2.0753696e-06  1.0643578e+08
   1222000   2.2299903e-10  99895.603      99909.472      95591.512      2.5923113e-06  5.1731202e-07  2.0749993e-06  1.0643326e+08
   1223000   2.2318151e-10  99895.817      99906.076      96798.833      2.5923087e-06  5.1730498e-07  2.0750038e-06  1.0643442e+08
   1224000   2.23364e-10    99891.776      99900.947      97158.543      2.5922902e-06  5.1737042e-07  2.0749198e-06  1.0642873e+08
   1225000   2.2354649e-10  99912.102      99922.322      96828.273      2.5922987e-06  5.1695662e-07  2.075342e-06   1.064354e+08 
   1226000   2.2372898e-10  99900.252      99910.63       96763.53       2.5923106e-06  5.1721472e-07  2.0750959e-06  1.0643294e+08
   1227000   2.2391146e-10  99905.668      99915.943      96803.36       2.5923003e-06  5.170919e-07   2.0752084e-06  1.0643327e+08
   1228000   2.2409395e-10  99908.476      99915.508      97890.99       2.5923002e-06  5.1703349e-07  2.0752667e-06  1.0643451e+08
   1229000   2.2427644e-10  99901.763      99908.89       97852.174      2.5923233e-06  5.17196e-07    2.0751273e-06  1.0643302e+08
   1230000   2.2445892e-10  99904.07       99911.285      97825.099      2.5923e-06     5.1712479e-07  2.0751752e-06  1.0643333e+08
   1231000   2.2464141e-10  99898.012      99908.219      96818.363      2.5923077e-06  5.1725831e-07  2.0750494e-06  1.0643111e+08
   1232000   2.248239e-10   99893.58       99903.046      97061.867      2.5923235e-06  5.1736622e-07  2.0749573e-06  1.0643368e+08
   1233000   2.2500638e-10  99898.924      99905.731      97956.401      2.592311e-06   5.172427e-07   2.0750683e-06  1.0643203e+08
   1234000   2.2518887e-10  99918.729      99924.797      98223.336      2.5922936e-06  5.1681391e-07  2.0754797e-06  1.0643655e+08
   1235000   2.2537136e-10  99918.736      99924.947      98175.7        2.592271e-06   5.1679119e-07  2.0754798e-06  1.0643363e+08
   1236000   2.2555384e-10  99910.53       99917.076      98055.284      2.5922772e-06  5.1696787e-07  2.0753094e-06  1.0643132e+08
   1237000   2.2573633e-10  99914.937      99921.373      98096.604      2.5923078e-06  5.1690694e-07  2.0754009e-06  1.0643649e+08
   1238000   2.2591882e-10  99903.698      99908.222      98724.523      2.5923014e-06  5.1713397e-07  2.0751675e-06  1.0643319e+08
   1239000   2.2610131e-10  99909.122      99914.87       98320.827      2.5922955e-06  5.1701533e-07  2.0752801e-06  1.0643402e+08
   1240000   2.2628379e-10  99893.142      99899.532      98090.323      2.5922929e-06  5.1734474e-07  2.0749482e-06  1.0642599e+08
   1241000   2.2646628e-10  99906.947      99914.239      97802.441      2.5922878e-06  5.1705282e-07  2.0752349e-06  1.0643071e+08
   1242000   2.2664877e-10  99919.749      99926.567      97973.662      2.5922746e-06  5.1677378e-07  2.0755009e-06  1.0643415e+08
   1243000   2.2683125e-10  99899.369      99907.225      97606.062      2.5922756e-06  5.1719802e-07  2.0750775e-06  1.0642759e+08
   1244000   2.2701374e-10  99892.133      99899.442      97781.869      2.5922679e-06  5.1734069e-07  2.0749272e-06  1.0642392e+08
   1245000   2.2719623e-10  99904.122      99910.068      98249.47       2.5922766e-06  5.1710034e-07  2.0751763e-06  1.0643057e+08
   1246000   2.2737871e-10  99905.494      99909.496      98901.065      2.5923056e-06  5.1710087e-07  2.0752048e-06  1.0643664e+08
   1247000   2.275612e-10   99891.214      99895.085      98930.466      2.5923302e-06  5.1742207e-07  2.0749081e-06  1.0643431e+08
   1248000   2.2774369e-10  99900.117      99905.104      98566.306      2.5923137e-06  5.1722064e-07  2.0750931e-06  1.0643319e+08
   1249000   2.2792617e-10  99911.562      99918.821      97817.963      2.5922791e-06  5.1694829e-07  2.0753308e-06  1.0643384e+08
   1250000   2.2810866e-10  99899.15       99904.18       98551.026      2.5922963e-06  5.1722325e-07  2.075073e-06   1.0643299e+08
   1251000   2.2829115e-10  99873.399      99876.231      99260.213      2.5922951e-06  5.1775702e-07  2.0745381e-06  1.0642209e+08
   1252000   2.2847364e-10  99901.078      99903.045      99577.51       2.5922971e-06  5.1718403e-07  2.075113e-06   1.0642822e+08
   1253000   2.2865612e-10  99923.199      99927.426      98843.998      2.5922901e-06  5.1671758e-07  2.0755725e-06  1.0643684e+08
   1254000   2.2883861e-10  99918.22       99922.907      98684.563      2.5922908e-06  5.168217e-07   2.0754691e-06  1.0643603e+08
   1255000   2.290211e-10   99916.542      99922.172      98367.791      2.5923019e-06  5.1686768e-07  2.0754343e-06  1.0643364e+08
   1256000   2.2920358e-10  99910.113      99914.492      98779.834      2.592303e-06   5.1700228e-07  2.0753007e-06  1.0643218e+08
   1257000   2.2938607e-10  99889.305      99893.292      98889.959      2.5923926e-06  5.1752415e-07  2.0748685e-06  1.0643076e+08
   1258000   2.2956856e-10  99898.012      99899.45       99751.415      2.5923804e-06  5.1733108e-07  2.0750494e-06  1.064346e+08 
   1259000   2.2975104e-10  99905.678      99905.571      100275.56      2.5923941e-06  5.1718553e-07  2.0752086e-06  1.0643664e+08
   1260000   2.2993353e-10  99918.327      99919.098      99994.8        2.592377e-06   5.1690571e-07  2.0754713e-06  1.0643793e+08
   1261000   2.3011602e-10  99918.22       99920.769      99399.707      2.5923818e-06  5.1691274e-07  2.0754691e-06  1.0643735e+08
   1262000   2.302985e-10   99918.631      99921.183      99399.421      2.59238e-06    5.169024e-07   2.0754776e-06  1.0643911e+08
   1263000   2.3048099e-10  99908.915      99910.854      99594.724      2.5924015e-06  5.1712571e-07  2.0752758e-06  1.0643914e+08
   1264000   2.3066348e-10  99893.356      99894.933      99700.133      2.5923931e-06  5.1744051e-07  2.0749526e-06  1.0643328e+08
   1265000   2.3084597e-10  99912.846      99914.418      99721.038      2.5924001e-06  5.1704264e-07  2.0753575e-06  1.0643977e+08
   1266000   2.3102845e-10  99902.474      99903.981      99732.365      2.5924039e-06  5.1726184e-07  2.075142e-06   1.0643734e+08
   1267000   2.3121094e-10  99917.838      99919.078      99837.112      2.5923842e-06  5.1692303e-07  2.0754612e-06  1.0643831e+08
   1268000   2.3139343e-10  99915.994      99917.66       99692.878      2.5923716e-06  5.1694876e-07  2.0754229e-06  1.0643676e+08
   1269000   2.3157591e-10  99901.884      99903.622      99654.67       2.5923792e-06  5.1724944e-07  2.0751298e-06  1.0643322e+08
   1270000   2.317584e-10   99916.488      99917.682      99851.038      2.5923721e-06  5.1693898e-07  2.0754331e-06  1.0643762e+08
   1271000   2.3194089e-10  99902.905      99905.418      99396.895      2.5923952e-06  5.1724418e-07  2.075151e-06   1.0643494e+08
   1272000   2.3212337e-10  99894.755      99898.458      98990.293      2.5923857e-06  5.17404e-07    2.0749817e-06  1.0643381e+08
   1273000   2.3230586e-10  99924.24       99928.668      98777.396      2.5923763e-06  5.1678215e-07  2.0755942e-06  1.0643966e+08
   1274000   2.3248835e-10  99915.3        99920.969      98353.736      2.5923792e-06  5.1697071e-07  2.0754085e-06  1.0643708e+08
   1275000   2.3267083e-10  99882.043      99888.895      97924.333      2.5923986e-06  5.1768097e-07  2.0747176e-06  1.0643042e+08
   1276000   2.3285332e-10  99898.887      99906.635      97641.78       2.5923907e-06  5.1732315e-07  2.0750675e-06  1.0643688e+08
   1277000   2.3303581e-10  99893.604      99902.292      97321.901      2.5923605e-06  5.1740271e-07  2.0749578e-06  1.0642994e+08
   1278000   2.332183e-10   99894.583      99902.866      97458.668      2.5923593e-06  5.1738114e-07  2.0749781e-06  1.0642956e+08
   1279000   2.3340078e-10  99919.08       99924.659      98387.414      2.5923692e-06  5.1688223e-07  2.075487e-06   1.0643728e+08
   1280000   2.3358327e-10  99917.406      99922.053      98697.351      2.5923772e-06  5.1692501e-07  2.0754522e-06  1.0643563e+08
   1281000   2.3376576e-10  99925.892      99930.771      98628.486      2.5923561e-06  5.1672761e-07  2.0756285e-06  1.0643526e+08
   1282000   2.3394824e-10  99927.356      99935.054      97687.232      2.5923533e-06  5.1669438e-07  2.0756589e-06  1.064363e+08 
   1283000   2.3413073e-10  99918.751      99927.539      97313.787      2.5923538e-06  5.1687365e-07  2.0754801e-06  1.0643292e+08
   1284000   2.3431322e-10  99913.463      99921.917      97420.376      2.5923811e-06  5.1701084e-07  2.0753703e-06  1.0643665e+08
   1285000   2.344957e-10   99913.643      99921.308      97684.192      2.5923828e-06  5.1700873e-07  2.075374e-06   1.0643964e+08
   1286000   2.3467819e-10  99907.32       99916.234      97260.231      2.5924142e-06  5.1717152e-07  2.0752427e-06  1.0643987e+08
   1287000   2.3486068e-10  99901.373      99912.933      96369.539      2.5923943e-06  5.1727514e-07  2.0751192e-06  1.0643446e+08
   1288000   2.3504316e-10  99902.587      99914.364      96298.057      2.5923986e-06  5.1725419e-07  2.0751444e-06  1.0643415e+08
   1289000   2.3522565e-10  99902.273      99914          96314.419      2.5923597e-06  5.1722182e-07  2.0751379e-06  1.0643071e+08
   1290000   2.3540814e-10  99923.236      99933.397      96859.204      2.5923593e-06  5.1678605e-07  2.0755733e-06  1.0643647e+08
   1291000   2.3559063e-10  99920.766      99929.988      97170.681      2.592368e-06   5.1684602e-07  2.075522e-06   1.0643809e+08
   1292000   2.3577311e-10  99894.452      99906.194      96301.448      2.5923718e-06  5.1739638e-07  2.0749754e-06  1.0642941e+08
   1293000   2.359556e-10   99913.203      99927.026      95624.334      2.5923907e-06  5.1702584e-07  2.0753649e-06  1.0643632e+08
   1294000   2.3613809e-10  99925.286      99938.428      95864.335      2.592391e-06   5.1677511e-07  2.0756159e-06  1.0644037e+08
   1295000   2.3632057e-10  99900.711      99913.041      96111.107      2.5923926e-06  5.1728717e-07  2.0751054e-06  1.0643267e+08
   1296000   2.3650306e-10  99932.306      99947.04       95338.652      2.5923798e-06  5.1661815e-07  2.0757617e-06  1.0644281e+08
   1297000   2.3668555e-10  99910.138      99926.12       94899.087      2.5923762e-06  5.1707498e-07  2.0753012e-06  1.0643405e+08
   1298000   2.3686803e-10  99898.401      99916.243      94265.446      2.5923856e-06  5.1732813e-07  2.0750574e-06  1.0643272e+08
   1299000   2.3705052e-10  99910.679      99929.483      93955.894      2.5924105e-06  5.1709803e-07  2.0753125e-06  1.064377e+08 
   1300000   2.3723301e-10  99925.61       99945.06       93754.555      2.5923958e-06  5.1677323e-07  2.0756226e-06  1.0644363e+08
   1301000   2.3741549e-10  99922.415      99942.699      93472.677      2.5923918e-06  5.1683558e-07  2.0755562e-06  1.0644218e+08
   1302000   2.3759798e-10  99902.831      99924.561      92969.454      2.5923903e-06  5.1724086e-07  2.0751494e-06  1.0643527e+08
   1303000   2.3778047e-10  99919.285      99939.385      93531.065      2.5924043e-06  5.1691306e-07  2.0754912e-06  1.0644292e+08
   1304000   2.3796296e-10  99907.651      99927.064      93749.052      2.5924029e-06  5.171533e-07   2.0752496e-06  1.0643875e+08
   1305000   2.3814544e-10  99904.944      99923.565      94011.333      2.5923845e-06  5.1719115e-07  2.0751933e-06  1.0643366e+08
   1306000   2.3832793e-10  99928.936      99946.89       94258.618      2.5923744e-06  5.1668269e-07  2.0756917e-06  1.0643937e+08
   1307000   2.3851042e-10  99921.036      99940.339      93799.545      2.5923646e-06  5.1683704e-07  2.0755276e-06  1.0643561e+08
   1308000   2.386929e-10   99906.414      99925.464      93869.391      2.5923527e-06  5.1712887e-07  2.0752239e-06  1.0643093e+08
   1309000   2.3887539e-10  99907.065      99926.006      93906.541      2.5923612e-06  5.1712383e-07  2.0752374e-06  1.0643329e+08
   1310000   2.3905788e-10  99883.711      99901.797      94169.031      2.5923874e-06  5.1763507e-07  2.0747523e-06  1.0643075e+08
   1311000   2.3924036e-10  99906.694      99922.769      94864.622      2.59238e-06    5.1715031e-07  2.0752297e-06  1.0643715e+08
   1312000   2.3942285e-10  99894.79       99910.07       95118.495      2.5923758e-06  5.1739337e-07  2.0749824e-06  1.064308e+08 
   1313000   2.3960534e-10  99911.438      99926.072      95351.523      2.592376e-06   5.1704773e-07  2.0753282e-06  1.0643517e+08
   1314000   2.3978782e-10  99921.882      99936.784      95272.012      2.5923659e-06  5.1682071e-07  2.0755452e-06  1.0643732e+08
   1315000   2.3997031e-10  99912.603      99924.128      96392.304      2.592362e-06   5.1700958e-07  2.0753524e-06  1.0643616e+08
   1316000   2.401528e-10   99902.067      99913.795      96313.889      2.5923759e-06  5.1724228e-07  2.0751336e-06  1.0643193e+08
   1317000   2.4033529e-10  99915.951      99929.444      95737.279      2.5923821e-06  5.1696015e-07  2.075422e-06   1.0643885e+08
   1318000   2.4051777e-10  99902.653      99914.998      96108.128      2.5923988e-06  5.1725302e-07  2.0751458e-06  1.0643571e+08
   1319000   2.4070026e-10  99893.078      99905.089      96210          2.5923809e-06  5.1743404e-07  2.0749469e-06  1.0643291e+08
   1320000   2.4088275e-10  99906.395      99918.409      96222.473      2.5924091e-06  5.1718557e-07  2.0752235e-06  1.0644089e+08
   1321000   2.4106523e-10  99910.906      99922.636      96321.749      2.5924162e-06  5.1709899e-07  2.0753172e-06  1.0644126e+08
   1322000   2.4124772e-10  99894.679      99908.509      95603.28       2.5924085e-06  5.1742839e-07  2.0749801e-06  1.0643799e+08
   1323000   2.4143021e-10  99904.807      99918.606      95623.765      2.5923952e-06  5.1720475e-07  2.0751905e-06  1.0643855e+08
   1324000   2.4161269e-10  99905.904      99920.139      95479.311      2.592375e-06   5.1716171e-07  2.0752133e-06  1.0643315e+08
   1325000   2.4179518e-10  99912.321      99928.115      94964.292      2.5923634e-06  5.1701678e-07  2.0753466e-06  1.0643176e+08
   1326000   2.4197767e-10  99887.775      99904.369      94672.066      2.5923451e-06  5.1750835e-07  2.0748367e-06  1.0642218e+08
   1327000   2.4216015e-10  99907.368      99924.753      94427.011      2.5923705e-06  5.1712684e-07  2.0752437e-06  1.0643055e+08
   1328000   2.4234264e-10  99908.258      99925.793      94377.803      2.5923954e-06  5.1713326e-07  2.0752622e-06  1.0643611e+08
   1329000   2.4252513e-10  99900.254      99918.306      94196.895      2.5923748e-06  5.1727887e-07  2.0750959e-06  1.0643276e+08
   1330000   2.4270762e-10  99903.762      99923.578      93610.523      2.5923603e-06  5.1719148e-07  2.0751688e-06  1.0643184e+08
   1331000   2.428901e-10   99915.811      99937.531      92985.714      2.5923821e-06  5.1696298e-07  2.0754191e-06  1.0643594e+08
   1332000   2.4307259e-10  99919.923      99943.651      92318.196      2.592392e-06   5.1688756e-07  2.0755045e-06  1.0644032e+08
   1333000   2.4325508e-10  99909.477      99933.325      92267.838      2.592395e-06   5.1710746e-07  2.0752875e-06  1.0643637e+08
   1334000   2.4343756e-10  99925.811      99949.982      92176.109      2.5923637e-06  5.1673693e-07  2.0756268e-06  1.0643764e+08
   1335000   2.4362005e-10  99911.389      99934.068      92660.596      2.5923701e-06  5.1704292e-07  2.0753272e-06  1.0643533e+08
   1336000   2.4380254e-10  99916.964      99938.779      92955.168      2.5923708e-06  5.169278e-07   2.075443e-06   1.0643664e+08
   1337000   2.4398502e-10  99908.139      99930.778      92670.732      2.5923786e-06  5.1711885e-07  2.0752597e-06  1.0643457e+08
   1338000   2.4416751e-10  99907.731      99931.211      92389.182      2.5923902e-06  5.1713899e-07  2.0752512e-06  1.0643669e+08
   1339000   2.4435e-10     99922.149      99945.347      92498.023      2.5923685e-06  5.1681781e-07  2.0755507e-06  1.0643794e+08
   1340000   2.4453248e-10  99920.904      99942.646      92983.475      2.5923781e-06  5.1685328e-07  2.0755249e-06  1.0643977e+08
   1341000   2.4471497e-10  99914.017      99935.502      93062.488      2.5923971e-06  5.1701534e-07  2.0753818e-06  1.0643958e+08
   1342000   2.4489746e-10  99915.714      99939.241      92381.149      2.5923981e-06  5.1698109e-07  2.075417e-06   1.0643851e+08
   1343000   2.4507995e-10  99906.839      99929          92829.359      2.5923983e-06  5.1716562e-07  2.0752327e-06  1.0643703e+08
   1344000   2.4526243e-10  99916.938      99940.078      92512.116      2.5924055e-06  5.1696304e-07  2.0754425e-06  1.064434e+08 
   1345000   2.4544492e-10  99909.981      99934.148      92161.6        2.5923887e-06  5.1709076e-07  2.075298e-06   1.0643803e+08
   1346000   2.4562741e-10  99891.677      99915.971      92100.874      2.5923904e-06  5.1747266e-07  2.0749178e-06  1.0643142e+08
   1347000   2.4580989e-10  99904.693      99928.259      92357.575      2.5923959e-06  5.1720772e-07  2.0751881e-06  1.0643674e+08
   1348000   2.4599238e-10  99912.028      99934.252      92813.301      2.5923952e-06  5.1705475e-07  2.0753405e-06  1.0643938e+08
   1349000   2.4617487e-10  99906.689      99928.701      92878.843      2.5923851e-06  5.1715552e-07  2.0752296e-06  1.064357e+08 
   1350000   2.4635735e-10  99905.048      99929.627      92019.061      2.5923847e-06  5.1718917e-07  2.0751955e-06  1.064363e+08 
   1351000   2.4653984e-10  99896.112      99920.17       92183.945      2.5923761e-06  5.1736617e-07  2.0750099e-06  1.064318e+08 
   1352000   2.4672233e-10  99902.971      99925.857      92582.865      2.5923718e-06  5.1721945e-07  2.0751524e-06  1.0643315e+08
   1353000   2.4690482e-10  99912.557      99934.085      93046.766      2.5923802e-06  5.1702875e-07  2.0753515e-06  1.0643671e+08
   1354000   2.470873e-10   99916.428      99937.917      93063.814      2.5923869e-06  5.1695502e-07  2.0754319e-06  1.064393e+08 
   1355000   2.4726979e-10  99897.951      99920.79       92593.675      2.5923862e-06  5.1733811e-07  2.0750481e-06  1.0643084e+08
   1356000   2.4745228e-10  99913.65       99935.695      92875.086      2.5923767e-06  5.1700256e-07  2.0753742e-06  1.0643529e+08
   1357000   2.4763476e-10  99920.171      99940.424      93480.905      2.5923773e-06  5.1686769e-07  2.0755096e-06  1.0644035e+08
   1358000   2.4781725e-10  99911.23       99933.115      92925.934      2.5923911e-06  5.1706721e-07  2.0753239e-06  1.064371e+08 
   1359000   2.4799974e-10  99929.798      99950.045      93492.525      2.5923754e-06  5.1666578e-07  2.0757096e-06  1.0644085e+08
   1360000   2.4818222e-10  99916.155      99937.721      93037.585      2.5923833e-06  5.1695704e-07  2.0754262e-06  1.0643698e+08
   1361000   2.4836471e-10  99916.291      99937.285      93229.161      2.592368e-06   5.1693897e-07  2.075429e-06   1.0643624e+08
   1362000   2.485472e-10   99908.63       99928.751      93513.21       2.5923753e-06  5.1710539e-07  2.0752699e-06  1.0643493e+08
   1363000   2.4872968e-10  99908.677      99926.82       94175.219      2.5923721e-06  5.1710117e-07  2.0752709e-06  1.0643343e+08
   1364000   2.4891217e-10  99918.173      99934.197      94893.328      2.592372e-06   5.1690389e-07  2.0754681e-06  1.0643802e+08
   1365000   2.4909466e-10  99907.764      99923.272      95055.441      2.5923858e-06  5.1713383e-07  2.0752519e-06  1.0643667e+08
   1366000   2.4927715e-10  99915.585      99931.052      95077.016      2.5924154e-06  5.1700107e-07  2.0754144e-06  1.0644361e+08
   1367000   2.4945963e-10  99899.241      99913.155      95579.774      2.592389e-06   5.1731407e-07  2.0750749e-06  1.0643321e+08
   1368000   2.4964212e-10  99907.041      99920.109      95870.718      2.5924011e-06  5.1716417e-07  2.0752369e-06  1.0643711e+08
   1369000   2.4982461e-10  99919.896      99932.518      96032.784      2.5923831e-06  5.1687916e-07  2.0755039e-06  1.0643887e+08
   1370000   2.5000709e-10  99925.151      99937.513      96125.141      2.5923754e-06  5.1676233e-07  2.0756131e-06  1.0643854e+08
   1371000   2.5018958e-10  99902.127      99914.276      96173.096      2.5923645e-06  5.1722969e-07  2.0751348e-06  1.0643295e+08
   1372000   2.5037207e-10  99893.335      99904.251      96576.642      2.5923854e-06  5.1743321e-07  2.0749522e-06  1.0643254e+08
   1373000   2.5055455e-10  99894.555      99904.541      96889.203      2.5923841e-06  5.1740659e-07  2.0749776e-06  1.0643369e+08
   1374000   2.5073704e-10  99918.462      99928.612      96857.757      2.5923903e-06  5.1691613e-07  2.0754741e-06  1.0644024e+08
   1375000   2.5091953e-10  99917.111      99928.173      96551.425      2.5923851e-06  5.1693907e-07  2.0754461e-06  1.0643849e+08
   1376000   2.5110201e-10  99920.917      99931.65       96665.507      2.5923818e-06  5.1685663e-07  2.0755251e-06  1.0644017e+08
   1377000   2.512845e-10   99912.501      99922.002      97068.847      2.5923725e-06  5.170222e-07   2.0753503e-06  1.0643476e+08
   1378000   2.5146699e-10  99921.416      99931.111      97013.025      2.5923629e-06  5.1682745e-07  2.0755355e-06  1.0643717e+08
   1379000   2.5164948e-10  99900.356      99909.322      97235.714      2.5923827e-06  5.1728469e-07  2.075098e-06   1.0643241e+08
   1380000   2.5183196e-10  99926.762      99935.181      97445.474      2.5923718e-06  5.167253e-07   2.0756465e-06  1.0644108e+08
   1381000   2.5201445e-10  99904.01       99910.751      97983.813      2.5923954e-06  5.1722148e-07  2.0751739e-06  1.0643617e+08
   1382000   2.5219694e-10  99911.902      99915.878      98916.355      2.5923707e-06  5.1703282e-07  2.0753379e-06  1.0643625e+08
   1383000   2.5237942e-10  99903.669      99906.368      99335.052      2.5923813e-06  5.1721447e-07  2.0751669e-06  1.0643418e+08
   1384000   2.5256191e-10  99898.919      99900.309      99768.329      2.5923789e-06  5.1731066e-07  2.0750682e-06  1.0643409e+08
   1385000   2.527444e-10   99902.05       99902.087      100223.71      2.5923894e-06  5.1725614e-07  2.0751332e-06  1.0643652e+08
   1386000   2.5292688e-10  99918.41       99918.009      100386.66      2.5923972e-06  5.1692417e-07  2.0754731e-06  1.0644e+08   
   1387000   2.5310937e-10  99917.27       99918.372      99883.134      2.5923859e-06  5.1693651e-07  2.0754494e-06  1.0643728e+08
   1388000   2.5329186e-10  99921.805      99922.196      100125.16      2.592377e-06   5.1683341e-07  2.0755436e-06  1.0643793e+08
   1389000   2.5347434e-10  99906.015      99905.474      100420.84      2.5923612e-06  5.171456e-07   2.0752156e-06  1.0643253e+08
   1390000   2.5365683e-10  99904.068      99901.971      100939.6       2.5923852e-06  5.1721001e-07  2.0751752e-06  1.0643473e+08
   1391000   2.5383932e-10  99902.42       99900.091      101015.48      2.5923825e-06  5.172416e-07   2.0751409e-06  1.0643406e+08
   1392000   2.5402181e-10  99918.145      99915.018      101297.98      2.5923693e-06  5.1690177e-07  2.0754675e-06  1.0643673e+08
   1393000   2.5420429e-10  99897.272      99894.658      101105.69      2.5923517e-06  5.1731767e-07  2.075034e-06   1.0642857e+08
   1394000   2.5438678e-10  99898.657      99896.56       100934.13      2.5923646e-06  5.1730186e-07  2.0750628e-06  1.0643087e+08
   1395000   2.5456927e-10  99913.053      99910.759      101014.46      2.5923703e-06  5.1700855e-07  2.0753618e-06  1.0643573e+08
   1396000   2.5475175e-10  99917.155      99915.169      100915.4       2.5923706e-06  5.1692361e-07  2.075447e-06   1.0643928e+08
   1397000   2.5493424e-10  99918.269      99917.314      100571.78      2.5923906e-06  5.1692043e-07  2.0754701e-06  1.0644051e+08
   1398000   2.5511673e-10  99889.815      99889.893      100197.65      2.5923858e-06  5.1750674e-07  2.0748791e-06  1.0643215e+08
   1399000   2.5529921e-10  99918.062      99917.825      100331.53      2.5923925e-06  5.1692669e-07  2.0754658e-06  1.0644072e+08
   1400000   2.554817e-10   99909.819      99909.315      100412.48      2.5923982e-06  5.1710363e-07  2.0752946e-06  1.064385e+08 
   1401000   2.5566419e-10  99902.553      99902.414      100283.35      2.5924047e-06  5.1726104e-07  2.0751437e-06  1.064375e+08 
   1402000   2.5584667e-10  99904.178      99904.48       100137.15      2.5923932e-06  5.1721578e-07  2.0751774e-06  1.0643594e+08
   1403000   2.5602916e-10  99913.299      99915.573      99486.815      2.592397e-06   5.1703011e-07  2.0753669e-06  1.0643836e+08
   1404000   2.5621165e-10  99908.826      99910.581      99656.155      2.592399e-06   5.1712501e-07  2.075274e-06   1.0643689e+08
   1405000   2.5639414e-10  99914.774      99917.304      99402.904      2.5923796e-06  5.1698205e-07  2.0753975e-06  1.0643614e+08
   1406000   2.5657662e-10  99918.133      99921.431      99149.194      2.5923927e-06  5.1692545e-07  2.0754673e-06  1.0644046e+08
   1407000   2.5675911e-10  99896.755      99901.984      98482.047      2.5924043e-06  5.1738105e-07  2.0750232e-06  1.0643693e+08
   1408000   2.569416e-10   99887.933      99892.96       98540.582      2.5924054e-06  5.1756542e-07  2.07484e-06    1.0643475e+08
   1409000   2.5712408e-10  99907.275      99912.422      98520.296      2.5924156e-06  5.1717382e-07  2.0752418e-06  1.0644129e+08
   1410000   2.5730657e-10  99920.591      99923.904      99146.941      2.5924044e-06  5.1688604e-07  2.0755184e-06  1.0644173e+08
   1411000   2.5748906e-10  99928.671      99930.388      99688.443      2.5923812e-06  5.16695e-07    2.0756862e-06  1.0644215e+08
   1412000   2.5767154e-10  99909.792      99910.352      100056.6       2.5923616e-06  5.1706756e-07  2.075294e-06   1.0643153e+08
   1413000   2.5785403e-10  99910.899      99912.596      99677.368      2.5923634e-06  5.1704632e-07  2.075317e-06   1.0643407e+08
   1414000   2.5803652e-10  99910.434      99913.04       99373.089      2.5923763e-06  5.1706888e-07  2.0753074e-06  1.0643594e+08
   1415000   2.58219e-10    99930.246      99932.869      99387.296      2.5923639e-06  5.1664501e-07  2.0757189e-06  1.0644056e+08
   1416000   2.5840149e-10  99914.459      99916.603      99531.426      2.5923633e-06  5.1697231e-07  2.075391e-06   1.0643532e+08
   1417000   2.5858398e-10  99908.88       99908.707      100300.92      2.592378e-06   5.1710291e-07  2.0752751e-06  1.064358e+08 
   1418000   2.5876647e-10  99921.932      99920.885      100606.19      2.5923621e-06  5.1681589e-07  2.0755462e-06  1.064364e+08 
   1419000   2.5894895e-10  99911.184      99909.126      100933.65      2.59236e-06    5.1703701e-07  2.075323e-06   1.0643224e+08
   1420000   2.5913144e-10  99895.495      99893.449      100914.1       2.5923679e-06  5.1737087e-07  2.0749971e-06  1.0643081e+08
   1421000   2.5931393e-10  99901.671      99897.62       101590.5       2.592373e-06   5.172476e-07   2.0751254e-06  1.0643355e+08
   1422000   2.5949641e-10  99906.237      99899.988      102330.3       2.5923959e-06  5.1717568e-07  2.0752202e-06  1.0643732e+08
   1423000   2.596789e-10   99902.137      99893.864      103003.09      2.5923854e-06  5.1725037e-07  2.075135e-06   1.0643626e+08
   1424000   2.5986139e-10  99916.091      99907.915      102984.83      2.5923893e-06  5.1696439e-07  2.0754249e-06  1.0643888e+08
   1425000   2.6004387e-10  99907.571      99898.264      103354.55      2.592375e-06   5.1712712e-07  2.0752479e-06  1.0643448e+08
   1426000   2.6022636e-10  99904.574      99892.809      104173.47      2.5923699e-06  5.1718426e-07  2.0751857e-06  1.0643155e+08
   1427000   2.6040885e-10  99901.441      99888.026      104722.1       2.592354e-06   5.1723341e-07  2.0751206e-06  1.0643064e+08
   1428000   2.6059133e-10  99905.565      99891.739      104863.86      2.5923756e-06  5.1716931e-07  2.0752063e-06  1.0643312e+08
   1429000   2.6077382e-10  99912.962      99898.873      104959.04      2.5923973e-06  5.1703737e-07  2.0753599e-06  1.0644158e+08
   1430000   2.6095631e-10  99885.383      99873.176      104302.3       2.5924012e-06  5.1761421e-07  2.074787e-06   1.0643343e+08
   1431000   2.611388e-10   99899.719      99888.085      104124.94      2.5923766e-06  5.1729177e-07  2.0750848e-06  1.064335e+08 
   1432000   2.6132128e-10  99920.031      99907.482      104451.15      2.5923561e-06  5.1684935e-07  2.0755067e-06  1.0643558e+08
   1433000   2.6150377e-10  99926.858      99913.747      104645.95      2.5923729e-06  5.1672434e-07  2.0756485e-06  1.0644075e+08
   1434000   2.6168626e-10  99910.643      99899.57       103948.21      2.592405e-06   5.1709324e-07  2.0753117e-06  1.0643928e+08
   1435000   2.6186874e-10  99894.033      99885.169      103192.93      2.5923927e-06  5.1742603e-07  2.0749667e-06  1.064333e+08 
   1436000   2.6205123e-10  99884.352      99876.366      102889.29      2.5923865e-06  5.176209e-07   2.0747656e-06  1.0642769e+08
   1437000   2.6223372e-10  99917.866      99907.392      103754.89      2.5923701e-06  5.1690838e-07  2.0754618e-06  1.0643744e+08
   1438000   2.624162e-10   99913.853      99903.387      103748.41      2.5923967e-06  5.1701835e-07  2.0753784e-06  1.0643916e+08
   1439000   2.6259869e-10  99905.74       99894.054      104148.16      2.5923987e-06  5.1718881e-07  2.0752099e-06  1.0643748e+08
   1440000   2.6278118e-10  99907.9        99894.868      104600.64      2.5923783e-06  5.1712359e-07  2.0752547e-06  1.0643567e+08
   1441000   2.6296366e-10  99916.295      99905.564      103839.39      2.5923925e-06  5.1696343e-07  2.0754291e-06  1.0643874e+08
   1442000   2.6314615e-10  99925.702      99915.128      103796.55      2.5924126e-06  5.167881e-07   2.0756245e-06  1.0644504e+08
   1443000   2.6332864e-10  99898.881      99890.92       102895.41      2.5923919e-06  5.1732447e-07  2.0750674e-06  1.0643468e+08
   1444000   2.6351113e-10  99909.364      99900.929      103064.34      2.5923503e-06  5.1706518e-07  2.0752851e-06  1.0643319e+08
   1445000   2.6369361e-10  99902.436      99893.867      103102.48      2.592363e-06   5.1722176e-07  2.0751413e-06  1.0643106e+08
   1446000   2.638761e-10   99904.237      99894.927      103352.09      2.5923744e-06  5.1719569e-07  2.0751787e-06  1.0643444e+08
   1447000   2.6405859e-10  99908.891      99900.988      102886.42      2.5923719e-06  5.1709653e-07  2.0752753e-06  1.0643524e+08
   1448000   2.6424107e-10  99921.451      99914.08       102720.82      2.5923817e-06  5.1684551e-07  2.0755362e-06  1.0643814e+08
   1449000   2.6442356e-10  99905.856      99898.623      102659.03      2.5923875e-06  5.171752e-07   2.0752123e-06  1.064335e+08 
   1450000   2.6460605e-10  99900.553      99893.988      102430.3       2.59238e-06    5.1727787e-07  2.0751021e-06  1.0643349e+08
   1451000   2.6478853e-10  99917.838      99911.148      102489.33      2.5923601e-06  5.1689888e-07  2.0754612e-06  1.0643684e+08
   1452000   2.6497102e-10  99912.853      99906.084      102510.8       2.5923728e-06  5.1701517e-07  2.0753576e-06  1.064356e+08 
   1453000   2.6515351e-10  99910.402      99905.834      101772.04      2.5923709e-06  5.1706423e-07  2.0753067e-06  1.0643413e+08
   1454000   2.6533599e-10  99917.949      99918.424      100093.18      2.5923706e-06  5.1690711e-07  2.0754635e-06  1.0643959e+08
   1455000   2.6551848e-10  99899.296      99901.108      99627.34       2.592379e-06   5.1730297e-07  2.075076e-06   1.0643404e+08
   1456000   2.6570097e-10  99893.665      99894.652      99897.858      2.5924054e-06  5.174463e-07   2.0749591e-06  1.0643322e+08
   1457000   2.6588346e-10  99899.686      99901.612      99589.436      2.5923872e-06  5.1730303e-07  2.0750841e-06  1.0643473e+08
   1458000   2.6606594e-10  99919.543      99920.824      99825.294      2.5923797e-06  5.1688312e-07  2.0754966e-06  1.0643891e+08
   1459000   2.6624843e-10  99917.34       99916.745      100450.29      2.5923718e-06  5.16921e-07    2.0754508e-06  1.0643833e+08
   1460000   2.6643092e-10  99910.395      99911.827      99765.575      2.5923948e-06  5.1708826e-07  2.0753066e-06  1.0643752e+08
   1461000   2.666134e-10   99907.357      99910.204      99289.369      2.5923871e-06  5.1714368e-07  2.0752435e-06  1.064373e+08 
   1462000   2.6679589e-10  99906.212      99909.862      99019.855      2.5924164e-06  5.1719672e-07  2.0752197e-06  1.0643947e+08
   1463000   2.6697838e-10  99897.573      99903.009      98413.682      2.5923983e-06  5.173581e-07   2.0750402e-06  1.0643575e+08
   1464000   2.6716086e-10  99890.866      99896.496      98341.906      2.5923855e-06  5.1748458e-07  2.0749009e-06  1.0643204e+08
   1465000   2.6734335e-10  99909.328      99917.382      97549.674      2.5923872e-06  5.1710282e-07  2.0752844e-06  1.0643883e+08
   1466000   2.6752584e-10  99920.136      99926.662      98071.794      2.592384e-06   5.1687505e-07  2.0755089e-06  1.064408e+08 
   1467000   2.6770832e-10  99903.545      99909.384      98284.851      2.5923736e-06  5.1720931e-07  2.0751643e-06  1.064327e+08 
   1468000   2.6789081e-10  99925.814      99929.302      99093.638      2.5923744e-06  5.1674749e-07  2.0756269e-06  1.0643898e+08
   1469000   2.680733e-10   99914.044      99917.389      99129.575      2.5923775e-06  5.1699517e-07  2.0753824e-06  1.0643404e+08
   1470000   2.6825579e-10  99920.647      99922.86       99514.888      2.5923834e-06  5.168639e-07   2.0755195e-06  1.0643781e+08
   1471000   2.6843827e-10  99914.929      99917.639      99342.497      2.5923796e-06  5.169789e-07   2.0754007e-06  1.0643712e+08
   1472000   2.6862076e-10  99911.316      99913.649      99465.352      2.5923807e-06  5.1705499e-07  2.0753257e-06  1.0643727e+08
   1473000   2.6880325e-10  99902.12       99904.859      99320.091      2.5923808e-06  5.1724608e-07  2.0751347e-06  1.0643525e+08
   1474000   2.6898573e-10  99897.54       99898.249      99994.398      2.5923635e-06  5.1732393e-07  2.0750395e-06  1.0643382e+08
   1475000   2.6916822e-10  99901.708      99902.257      100052.17      2.5923831e-06  5.1725697e-07  2.0751261e-06  1.0643273e+08
   1476000   2.6935071e-10  99924.139      99924.473      100146.38      2.5923835e-06  5.1679143e-07  2.0755921e-06  1.0643969e+08
   1477000   2.6953319e-10  99907.342      99903.331      101583.19      2.5923828e-06  5.171396e-07   2.0752432e-06  1.0643672e+08
   1478000   2.6971568e-10  99918.48       99912.561      102232.22      2.5923691e-06  5.1689459e-07  2.0754745e-06  1.0643892e+08
   1479000   2.6989817e-10  99902.828      99897.578      101992.79      2.5923644e-06  5.1721502e-07  2.0751494e-06  1.0643089e+08
   1480000   2.7008066e-10  99908.302      99903.489      101851.91      2.5923616e-06  5.1709854e-07  2.0752631e-06  1.0643267e+08
   1481000   2.7026314e-10  99905.099      99900.657      101725.05      2.5923803e-06  5.1718368e-07  2.0751966e-06  1.0643351e+08
   1482000   2.7044563e-10  99901.157      99898.363      101169.97      2.5923917e-06  5.1727703e-07  2.0751147e-06  1.0643527e+08
   1483000   2.7062812e-10  99907.358      99907.78       100100.35      2.5923759e-06  5.1713243e-07  2.0752435e-06  1.0643711e+08
   1484000   2.708106e-10   99899.738      99902.826      99201.391      2.5923445e-06  5.1725925e-07  2.0750852e-06  1.0642952e+08
   1485000   2.7099309e-10  99908.721      99912.11       99109.502      2.5923556e-06  5.170838e-07   2.0752718e-06  1.0643245e+08
   1486000   2.7117558e-10  99905.17       99908.855      99007.117      2.5923607e-06  5.1716262e-07  2.075198e-06   1.0643263e+08
   1487000   2.7135806e-10  99912.327      99916.126      98976.147      2.5923671e-06  5.1702039e-07  2.0753467e-06  1.0643578e+08
   1488000   2.7154055e-10  99914.731      99918.814      98883.366      2.5923801e-06  5.1698343e-07  2.0753966e-06  1.0643748e+08
   1489000   2.7172304e-10  99902.027      99905.878      98948.431      2.5923746e-06  5.1724186e-07  2.0751328e-06  1.0643249e+08
   1490000   2.7190552e-10  99903.113      99905.818      99332.518      2.5923699e-06  5.1721455e-07  2.0751553e-06  1.0643333e+08
   1491000   2.7208801e-10  99907.773      99908.269      100075.76      2.5923872e-06  5.1713509e-07  2.0752521e-06  1.0643757e+08
   1492000   2.722705e-10   99906.883      99907.056      100183.07      2.592382e-06   5.1714837e-07  2.0752336e-06  1.0643551e+08
   1493000   2.7245299e-10  99907.563      99907.069      100406.84      2.5923828e-06  5.171351e-07   2.0752477e-06  1.0643343e+08
   1494000   2.7263547e-10  99913.643      99913.483      100301.64      2.5923694e-06  5.1699534e-07  2.075374e-06   1.064384e+08 
   1495000   2.7281796e-10  99900.588      99900.361      100310.64      2.592385e-06   5.1728215e-07  2.0751029e-06  1.064339e+08 
   1496000   2.7300045e-10  99898.499      99898.116      100360.7       2.5923626e-06  5.1730318e-07  2.0750595e-06  1.0643219e+08
   1497000   2.7318293e-10  99916.874      99918.028      99865.079      2.5923685e-06  5.1692739e-07  2.0754412e-06  1.0643759e+08
   1498000   2.7336542e-10  99908.361      99909.032      100017.81      2.592372e-06   5.1710767e-07  2.0752643e-06  1.064328e+08 
   1499000   2.7354791e-10  99915.859      99916.783      99941.012      2.5923465e-06  5.1692644e-07  2.0754201e-06  1.0643221e+08
   1500000   2.7373039e-10  99920.819      99922.226      99784.229      2.5923739e-06  5.1685077e-07  2.0755231e-06  1.0643844e+08
   1501000   2.7391288e-10  99888.677      99890.232      99702.9        2.5923939e-06  5.1753846e-07  2.0748555e-06  1.0643127e+08
   1502000   2.7409537e-10  99878.893      99880.395      99710.678      2.5923961e-06  5.1774385e-07  2.0746522e-06  1.0642949e+08
   1503000   2.7427785e-10  99900.168      99901.629      99745.675      2.5923678e-06  5.1727362e-07  2.0750941e-06  1.0643128e+08
   1504000   2.7446034e-10  99919.8        99919.658      100301.24      2.5923527e-06  5.1685074e-07  2.0755019e-06  1.064368e+08 
   1505000   2.7464283e-10  99914.858      99913.97       100545.86      2.5923775e-06  5.1697824e-07  2.0753993e-06  1.0643853e+08
   1506000   2.7482532e-10  99895.4        99893.912      100727.11      2.5923707e-06  5.173756e-07   2.0749951e-06  1.0643008e+08
   1507000   2.750078e-10   99910.389      99909.193      100644.45      2.5923808e-06  5.1707439e-07  2.0753064e-06  1.0643669e+08
   1508000   2.7519029e-10  99904.654      99904.85       100173.04      2.5923774e-06  5.1719005e-07  2.0751873e-06  1.0643411e+08
   1509000   2.7537278e-10  99918.729      99919.646      99946.431      2.5923689e-06  5.1688923e-07  2.0754797e-06  1.0643516e+08
   1510000   2.7555526e-10  99927.269      99932.15       98629.301      2.5923734e-06  5.1671627e-07  2.0756571e-06  1.064392e+08 
   1511000   2.7573775e-10  99899.189      99904.732      98379.589      2.5923855e-06  5.173117e-07   2.0750738e-06  1.0643274e+08
   1512000   2.7592024e-10  99914.118      99921.632      97735.484      2.5923788e-06  5.1699485e-07  2.0753839e-06  1.0643564e+08
   1513000   2.7610272e-10  99911.633      99920.084      97419.417      2.5923593e-06  5.1702704e-07  2.0753323e-06  1.0643058e+08
   1514000   2.7628521e-10  99933.349      99942.19       97310.678      2.5923686e-06  5.1658522e-07  2.0757834e-06  1.0644021e+08
   1515000   2.764677e-10   99903.008      99913.118      96855.931      2.59239e-06    5.1723684e-07  2.0751531e-06  1.0643537e+08
   1516000   2.7665018e-10  99890.32       99902.953      95999.41       2.5923713e-06  5.1748175e-07  2.0748896e-06  1.0643082e+08
   1517000   2.7683267e-10  99904.493      99917.323      95947.551      2.5923663e-06  5.171823e-07   2.075184e-06   1.0643235e+08
   1518000   2.7701516e-10  99899.521      99912.2        95993.021      2.5923729e-06  5.1729216e-07  2.0750807e-06  1.0643134e+08
   1519000   2.7719765e-10  99913.048      99926.579      95722.072      2.5923829e-06  5.1702123e-07  2.0753617e-06  1.0643692e+08
   1520000   2.7738013e-10  99909.444      99923.303      95608.344      2.5923698e-06  5.1708304e-07  2.0752868e-06  1.0643381e+08
   1521000   2.7756262e-10  99909.372      99923.417      95546.183      2.5923635e-06  5.170782e-07   2.0752853e-06  1.0643661e+08
   1522000   2.7774511e-10  99904.62       99918.867      95473.982      2.5923641e-06  5.1717748e-07  2.0751866e-06  1.0643353e+08
   1523000   2.7792759e-10  99925.476      99940.912      95097.056      2.5923735e-06  5.1675371e-07  2.0756198e-06  1.0644002e+08
   1524000   2.7811008e-10  99916.971      99935.027      94212.435      2.5923721e-06  5.1692898e-07  2.0754432e-06  1.0643648e+08
   1525000   2.7829257e-10  99923.436      99941.494      94218.15       2.5923814e-06  5.1680393e-07  2.0755774e-06  1.0644033e+08
   1526000   2.7847505e-10  99911.817      99932.504      93327.069      2.5923776e-06  5.1704151e-07  2.0753361e-06  1.0643638e+08
   1527000   2.7865754e-10  99912.781      99934.425      93008.429      2.592372e-06   5.1701583e-07  2.0753561e-06  1.0643617e+08
   1528000   2.7884003e-10  99916.901      99936.936      93550.755      2.5923753e-06  5.169336e-07   2.0754417e-06  1.0643747e+08
   1529000   2.7902251e-10  99890.663      99908.349      94309.761      2.5923806e-06  5.1748389e-07  2.0748967e-06  1.0642949e+08
   1530000   2.79205e-10    99900.905      99919.671      93958.592      2.592401e-06   5.1729153e-07  2.0751094e-06  1.0643627e+08
   1531000   2.7938749e-10  99917.133      99933.903      94642.432      2.5923772e-06  5.1693064e-07  2.0754465e-06  1.0644002e+08
   1532000   2.7956998e-10  99905.109      99919.842      95311.761      2.5923928e-06  5.1719603e-07  2.0751968e-06  1.0643525e+08
   1533000   2.7975246e-10  99909.961      99924.55       95365.012      2.5923777e-06  5.1708019e-07  2.0752976e-06  1.0643718e+08
   1534000   2.7993495e-10  99907.605      99920.414      95958.106      2.5923911e-06  5.1714247e-07  2.0752486e-06  1.0643756e+08
   1535000   2.8011744e-10  99919.426      99932.883      95752.932      2.5923836e-06  5.1688949e-07  2.0754942e-06  1.0643981e+08
   1536000   2.8029992e-10  99907.637      99922.241      95357.797      2.5924051e-06  5.1715583e-07  2.0752493e-06  1.0643837e+08
   1537000   2.8048241e-10  99922.854      99936.077      95834.816      2.5923974e-06  5.1683202e-07  2.0755654e-06  1.0644178e+08
   1538000   2.806649e-10   99912.131      99924.454      96124.703      2.5923951e-06  5.170525e-07   2.0753426e-06  1.0643683e+08
   1539000   2.8084738e-10  99927.031      99940.073      95899.172      2.5923969e-06  5.1674482e-07  2.0756521e-06  1.0644138e+08
   1540000   2.8102987e-10  99929.339      99942.223      95954.678      2.5923804e-06  5.1668029e-07  2.0757001e-06  1.064405e+08 
   1541000   2.8121236e-10  99897.963      99909.541      96359.911      2.5923892e-06  5.1734089e-07  2.0750483e-06  1.0643321e+08
   1542000   2.8139484e-10  99908.153      99920.103      96245.777      2.5924044e-06  5.1714441e-07  2.07526e-06    1.0643687e+08
   1543000   2.8157733e-10  99929.324      99942.244      95942.498      2.5923915e-06  5.1669176e-07  2.0756998e-06  1.0644312e+08
   1544000   2.8175982e-10  99904.782      99918.526      95642.533      2.5923929e-06  5.1720296e-07  2.07519e-06    1.0643607e+08
   1545000   2.8194231e-10  99901.425      99914.756      95777.107      2.5923767e-06  5.1725644e-07  2.0751203e-06  1.0643433e+08
   1546000   2.8212479e-10  99894.305      99908.667      95425.093      2.592384e-06   5.1741166e-07  2.0749724e-06  1.0643309e+08
   1547000   2.8230728e-10  99910.73       99923.407      96005.168      2.5924081e-06  5.1709456e-07  2.0753135e-06  1.064391e+08 
   1548000   2.8248977e-10  99902.345      99917.357      95215.956      2.5923864e-06  5.1724702e-07  2.0751394e-06  1.0643558e+08
   1549000   2.8267225e-10  99899.614      99913.713      95518.12       2.5923744e-06  5.1729176e-07  2.0750826e-06  1.064326e+08 
   1550000   2.8285474e-10  99912.239      99927.299      95209.564      2.5923766e-06  5.1703177e-07  2.0753449e-06  1.0643639e+08
   1551000   2.8303723e-10  99915.822      99930.526      95332.184      2.592374e-06   5.169547e-07   2.0754193e-06  1.0643516e+08
   1552000   2.8321971e-10  99924.377      99939.804      95099.191      2.5923656e-06  5.1676858e-07  2.075597e-06   1.0643613e+08
   1553000   2.834022e-10   99920.351      99936.802      94752.471      2.5923863e-06  5.1687297e-07  2.0755134e-06  1.0643921e+08
   1554000   2.8358469e-10  99932.609      99946.276      95695.792      2.5923923e-06  5.1662427e-07  2.075768e-06   1.0644561e+08
   1555000   2.8376717e-10  99903.993      99916.836      95942.72       2.5923961e-06  5.1722248e-07  2.0751736e-06  1.0643529e+08
   1556000   2.8394966e-10  99876.425      99887.039      96660.411      2.5924085e-06  5.178075e-07   2.074601e-06   1.0642782e+08
   1557000   2.8413215e-10  99904.932      99915.464      96716.389      2.59237e-06    5.1717692e-07  2.0751931e-06  1.0643499e+08
   1558000   2.8431464e-10  99914.643      99927.27       96025.787      2.5923771e-06  5.1698233e-07  2.0753948e-06  1.0643591e+08
   1559000   2.8449712e-10  99912.323      99924.962      96019.278      2.5923884e-06  5.1704175e-07  2.0753466e-06  1.0643652e+08
   1560000   2.8467961e-10  99921.236      99934.418      95846.756      2.592404e-06   5.1687229e-07  2.0755317e-06  1.0644078e+08
   1561000   2.848621e-10   99909.64       99924.47       95284.044      2.5924017e-06  5.1711084e-07  2.0752909e-06  1.0643937e+08
   1562000   2.8504458e-10  99912.766      99929.17       94760.967      2.5923898e-06  5.17034e-07    2.0753558e-06  1.0643687e+08
   1563000   2.8522707e-10  99911.318      99928.045      94651.142      2.5924017e-06  5.1707591e-07  2.0753257e-06  1.0643741e+08
   1564000   2.8540956e-10  99900.701      99917.984      94454.626      2.5924048e-06  5.172996e-07   2.0751052e-06  1.0643611e+08
   1565000   2.8559204e-10  99912.194      99930.27       94200.892      2.5923922e-06  5.1704822e-07  2.0753439e-06  1.0643781e+08
   1566000   2.8577453e-10  99909.911      99927.863      94240.017      2.5924023e-06  5.1710583e-07  2.0752965e-06  1.064352e+08 
   1567000   2.8595702e-10  99908.553      99926.747      94157.909      2.59239e-06    5.1712171e-07  2.0752683e-06  1.0643558e+08
   1568000   2.861395e-10   99922.437      99939.503      94549.112      2.5923983e-06  5.1684163e-07  2.0755567e-06  1.0644127e+08
   1569000   2.8632199e-10  99900.344      99915.909      95028.509      2.5924074e-06  5.1730964e-07  2.0750978e-06  1.0643501e+08
   1570000   2.8650448e-10  99899.204      99914.566      95095.655      2.5924116e-06  5.1733747e-07  2.0750741e-06  1.0643719e+08
   1571000   2.8668697e-10  99882.059      99897.042      95205.436      2.5923891e-06  5.1767112e-07  2.074718e-06   1.0642861e+08
   1572000   2.8686945e-10  99913.158      99928.801      95015.541      2.5923811e-06  5.170171e-07   2.075364e-06   1.0643712e+08
   1573000   2.8705194e-10  99921.537      99935.599      95552.662      2.5923795e-06  5.1684152e-07  2.075538e-06   1.0643727e+08
   1574000   2.8723443e-10  99924.642      99938.276      95698.734      2.5923697e-06  5.1676719e-07  2.0756025e-06  1.0643687e+08
   1575000   2.8741691e-10  99901.906      99916.304      95420.738      2.5923847e-06  5.1725442e-07  2.0751302e-06  1.0643182e+08
   1576000   2.875994e-10   99901.722      99916.753      95208.768      2.5923713e-06  5.1724489e-07  2.0751264e-06  1.0643203e+08
   1577000   2.8778189e-10  99910.256      99925.145      95264.927      2.5923893e-06  5.170856e-07   2.0753037e-06  1.064368e+08 
   1578000   2.8796437e-10  99909.712      99923.345      95684.401      2.5923929e-06  5.171005e-07   2.0752924e-06  1.064367e+08 
   1579000   2.8814686e-10  99920.261      99933.365      95871.885      2.5924083e-06  5.1689681e-07  2.0755115e-06  1.0644234e+08
   1580000   2.8832935e-10  99911.975      99924.24       96144.13       2.5923877e-06  5.1704834e-07  2.0753394e-06  1.0643728e+08
   1581000   2.8851183e-10  99904.246      99915.875      96349.052      2.592399e-06   5.1722018e-07  2.0751788e-06  1.0643533e+08
   1582000   2.8869432e-10  99896.797      99906.51       96982.666      2.5924037e-06  5.1737957e-07  2.0750241e-06  1.0643566e+08
   1583000   2.8887681e-10  99889.797      99900.729      96567.449      2.5924169e-06  5.175382e-07   2.0748787e-06  1.0643332e+08
   1584000   2.890593e-10   99902.687      99915.144      96070.502      2.5923868e-06  5.1724032e-07  2.0751465e-06  1.0643583e+08
   1585000   2.8924178e-10  99928.353      99941.748      95782.598      2.5923805e-06  5.1670094e-07  2.0756796e-06  1.0644056e+08
   1586000   2.8942427e-10  99913.95       99927.837      95603.605      2.5923953e-06  5.170149e-07   2.0753804e-06  1.0643816e+08
   1587000   2.8960676e-10  99913.348      99926.203      95948.094      2.5923898e-06  5.1702186e-07  2.0753679e-06  1.0643801e+08
   1588000   2.8978924e-10  99919.198      99931.547      96123.172      2.5923713e-06  5.1688184e-07  2.0754894e-06  1.0643722e+08
   1589000   2.8997173e-10  99913.761      99924.888      96526.649      2.5923846e-06  5.1700806e-07  2.0753765e-06  1.0643627e+08
   1590000   2.9015422e-10  99913.944      99923.133      97174.745      2.5923711e-06  5.1699085e-07  2.0753803e-06  1.0643536e+08
   1591000   2.903367e-10   99905.383      99915.905      96720.64       2.5923593e-06  5.1715681e-07  2.0752025e-06  1.0643027e+08
   1592000   2.9051919e-10  99899.467      99909.603      96843.612      2.5923748e-06  5.1729525e-07  2.0750796e-06  1.0642944e+08
   1593000   2.9070168e-10  99913.876      99924.55       96678.099      2.5923934e-06  5.1701452e-07  2.0753789e-06  1.0643722e+08
   1594000   2.9088416e-10  99912.23       99923.217      96571.66       2.5923932e-06  5.1704848e-07  2.0753447e-06  1.0643893e+08
   1595000   2.9106665e-10  99924.946      99936.195      96496.81       2.5923968e-06  5.1678796e-07  2.0756088e-06  1.0644178e+08
   1596000   2.9124914e-10  99910.429      99920.458      96890.628      2.5923924e-06  5.1708511e-07  2.0753073e-06  1.0643609e+08
   1597000   2.9143163e-10  99922.89       99933.053      96858.323      2.5923923e-06  5.1682618e-07  2.0755661e-06  1.0643982e+08
   1598000   2.9161411e-10  99911.385      99919.518      97525.268      2.5923856e-06  5.1705851e-07  2.0753271e-06  1.0643473e+08
   1599000   2.917966e-10   99906.198      99912.624      98091.183      2.5923848e-06  5.1716536e-07  2.0752194e-06  1.0643415e+08
   1600000   2.9197909e-10  99915.873      99921.334      98423.764      2.5923824e-06  5.1696202e-07  2.0754204e-06  1.0643816e+08
   1601000   2.9216157e-10  99911.752      99914.399      99360.391      2.5923794e-06  5.1704467e-07  2.0753348e-06  1.0643633e+08
   1602000   2.9234406e-10  99898.99       99902.042      99212.475      2.5923846e-06  5.1731492e-07  2.0750697e-06  1.0643377e+08
   1603000   2.9252655e-10  99891.963      99893.592      99681.162      2.5924139e-06  5.1749019e-07  2.0749237e-06  1.0643377e+08
   1604000   2.9270903e-10  99909.409      99912.498      99210.468      2.5923872e-06  5.1710112e-07  2.0752861e-06  1.0643696e+08
   1605000   2.9289152e-10  99889.691      99891.357      99666.862      2.5924056e-06  5.1752909e-07  2.0748765e-06  1.0643185e+08
   1606000   2.9307401e-10  99892.412      99893.3        99929.59       2.592399e-06   5.1746593e-07  2.074933e-06   1.0643407e+08
   1607000   2.9325649e-10  99895.299      99895.564      100140.75      2.5924011e-06  5.174081e-07   2.074993e-06   1.0643441e+08
   1608000   2.9343898e-10  99904.845      99904.944      100205.67      2.5923987e-06  5.1720737e-07  2.0751913e-06  1.0643639e+08
   1609000   2.9362147e-10  99907.21       99906.951      100328.1       2.5923864e-06  5.1714601e-07  2.0752404e-06  1.0643655e+08
   1610000   2.9380396e-10  99930.06       99930.114      100246.36      2.5923948e-06  5.1667978e-07  2.0757151e-06  1.0644314e+08
   1611000   2.9398644e-10  99922.412      99922.765      100138.79      2.5923952e-06  5.1683901e-07  2.0755562e-06  1.0643931e+08
   1612000   2.9416893e-10  99932.003      99931.768      100344.82      2.5924066e-06  5.1665123e-07  2.0757554e-06  1.0644325e+08
   1613000   2.9435142e-10  99907.35       99908.927      99714.042      2.592409e-06   5.1716571e-07  2.0752433e-06  1.0643683e+08
   1614000   2.945339e-10   99911.904      99914.258      99458.905      2.5924095e-06  5.170716e-07   2.0753379e-06  1.0644169e+08
   1615000   2.9471639e-10  99907.213      99909.509      99473.576      2.5924177e-06  5.1717719e-07  2.0752405e-06  1.0644077e+08
   1616000   2.9489888e-10  99926.157      99925.612      100442.72      2.5924212e-06  5.1678721e-07  2.075634e-06   1.0644472e+08
   1617000   2.9508136e-10  99897.48       99896.219      100653.51      2.5923966e-06  5.1735831e-07  2.0750383e-06  1.0643456e+08
   1618000   2.9526385e-10  99901.911      99900.269      100785.13      2.5923904e-06  5.1726004e-07  2.0751303e-06  1.0643529e+08
   1619000   2.9544634e-10  99902.105      99900.833      100661.74      2.592382e-06   5.1724763e-07  2.0751344e-06  1.0643186e+08
   1620000   2.9562883e-10  99920.015      99920.025      100250.88      2.5923797e-06  5.1687326e-07  2.0755064e-06  1.0643929e+08
   1621000   2.9581131e-10  99903.513      99903.093      100377.85      2.5923898e-06  5.1722617e-07  2.0751636e-06  1.0643448e+08
   1622000   2.959938e-10   99916.684      99914.708      100911.49      2.5923876e-06  5.1695038e-07  2.0754372e-06  1.0643738e+08
   1623000   2.9617629e-10  99907.575      99907.349      100317.32      2.5923833e-06  5.1713531e-07  2.075248e-06   1.0643649e+08
   1624000   2.9635877e-10  99898.172      99899.489      99791.627      2.5923937e-06  5.17341e-07    2.0750527e-06  1.0643343e+08
   1625000   2.9654126e-10  99917.127      99920.045      99275.313      2.5924023e-06  5.169559e-07   2.0754464e-06  1.0644067e+08
   1626000   2.9672375e-10  99922.722      99924.951      99511.61       2.5923773e-06  5.1681463e-07  2.0755626e-06  1.0643859e+08
   1627000   2.9690623e-10  99925.302      99929.044      99007.829      2.59239e-06    5.1677379e-07  2.0756162e-06  1.0644122e+08
   1628000   2.9708872e-10  99915.447      99917.968      99406.59       2.5923936e-06  5.1698211e-07  2.0754115e-06  1.0643688e+08
   1629000   2.9727121e-10  99906.856      99910.031      99179.375      2.5923978e-06  5.1716478e-07  2.0752331e-06  1.064367e+08 
   1630000   2.9745369e-10  99905.958      99907.491      99727.121      2.5924147e-06  5.1720034e-07  2.0752144e-06  1.0643843e+08
   1631000   2.9763618e-10  99906.42       99907.317      99940.563      2.5923865e-06  5.1716255e-07  2.075224e-06   1.0643586e+08
   1632000   2.9781867e-10  99919.114      99922.863      98999.302      2.5923879e-06  5.1690024e-07  2.0754877e-06  1.0643915e+08
   1633000   2.9800116e-10  99919.733      99923.006      99159.309      2.5923954e-06  5.1689491e-07  2.0755005e-06  1.0644052e+08
   1634000   2.9818364e-10  99922.541      99923.941      99788.544      2.5924012e-06  5.1684233e-07  2.0755589e-06  1.0644155e+08
   1635000   2.9836613e-10  99915.934      99915.617      100356.08      2.5923964e-06  5.1697477e-07  2.0754216e-06  1.0643945e+08
   1636000   2.9854862e-10  99908.565      99907.656      100546.87      2.5923994e-06  5.1713087e-07  2.0752686e-06  1.0643643e+08
   1637000   2.987311e-10   99901.637      99902.91       99809.799      2.592398e-06   5.1727338e-07  2.0751246e-06  1.0643566e+08
   1638000   2.9891359e-10  99907.74       99906.624      100615.01      2.5923968e-06  5.1714537e-07  2.0752514e-06  1.0643729e+08
   1639000   2.9909608e-10  99921.765      99920.708      100609.49      2.5924178e-06  5.1687502e-07  2.0755427e-06  1.0644467e+08
   1640000   2.9927856e-10  99882.612      99882.14       100374.48      2.5924066e-06  5.1767712e-07  2.0747295e-06  1.0643013e+08
   1641000   2.9946105e-10  99908.397      99909.794      99775.389      2.592419e-06   5.1715397e-07  2.0752651e-06  1.0643908e+08
   1642000   2.9964354e-10  99917.143      99918.754      99712.631      2.5923973e-06  5.1695056e-07  2.0754467e-06  1.0644046e+08
   1643000   2.9982602e-10  99915.724      99917.458      99669.843      2.5923834e-06  5.1696611e-07  2.0754173e-06  1.0644104e+08
   1644000   3.0000851e-10  99892.683      99894.217      99713.715      2.5923809e-06  5.1744223e-07  2.0749387e-06  1.0643232e+08
   1645000   3.00191e-10    99911.926      99914.726      99309.67       2.5923897e-06  5.1705129e-07  2.0753384e-06  1.064392e+08 
   1646000   3.0037349e-10  99900.297      99905.291      98564.19       2.5923882e-06  5.1729139e-07  2.0750968e-06  1.06435e+08  
   1647000   3.0055597e-10  99903.559      99907.967      98763.687      2.5923957e-06  5.172311e-07   2.0751646e-06  1.0643497e+08
   1648000   3.0073846e-10  99913.892      99918.348      98757.642      2.5924092e-06  5.1702995e-07  2.0753792e-06  1.0644023e+08
   1649000   3.0092095e-10  99911.983      99916.604      98700.885      2.5923818e-06  5.1704226e-07  2.0753396e-06  1.0643654e+08
   1650000   3.0110343e-10  99913.026      99918.007      98581.201      2.5924117e-06  5.1705045e-07  2.0753612e-06  1.0643824e+08
   1651000   3.0128592e-10  99909.31       99914.116      98636.098      2.5923941e-06  5.1711004e-07  2.075284e-06   1.0643556e+08
   1652000   3.0146841e-10  99907.038      99911.563      98727.744      2.5923939e-06  5.1715709e-07  2.0752368e-06  1.0643608e+08
   1653000   3.0165089e-10  99911.047      99915.014      98918.485      2.592372e-06   5.1705188e-07  2.0753201e-06  1.0643516e+08
   1654000   3.0183338e-10  99909.445      99912.191      99325.082      2.5923827e-06  5.1709589e-07  2.0752868e-06  1.0643531e+08
   1655000   3.0201587e-10  99908.916      99911.462      99391.309      2.5923779e-06  5.1710205e-07  2.0752758e-06  1.0643417e+08
   1656000   3.0219835e-10  99915.292      99920.12       98634.705      2.5923816e-06  5.1697335e-07  2.0754083e-06  1.0643715e+08
   1657000   3.0238084e-10  99917.388      99921.597      98843.758      2.5923833e-06  5.1693147e-07  2.0754518e-06  1.0643741e+08
   1658000   3.0256333e-10  99908.338      99912.729      98774.176      2.5923701e-06  5.1710628e-07  2.0752638e-06  1.0643393e+08
   1659000   3.0274582e-10  99900.396      99906.81       98089.386      2.5923754e-06  5.1727649e-07  2.0750989e-06  1.0643238e+08
   1660000   3.029283e-10   99912.925      99919.886      97919.219      2.5924068e-06  5.1704769e-07  2.0753591e-06  1.0643846e+08
   1661000   3.0311079e-10  99913.274      99919.013      98328.01       2.5924003e-06  5.1703394e-07  2.0753664e-06  1.0643884e+08
   1662000   3.0329328e-10  99903.559      99906.688      99191.179      2.5924108e-06  5.1724624e-07  2.0751646e-06  1.0643658e+08
   1663000   3.0347576e-10  99901.302      99902.094      99970.387      2.5924075e-06  5.1728984e-07  2.0751177e-06  1.0643628e+08
   1664000   3.0365825e-10  99905.834      99904.883      100557.87      2.592415e-06   5.1720318e-07  2.0752118e-06  1.064378e+08 
   1665000   3.0384074e-10  99912.703      99910.911      100846.26      2.5923987e-06  5.170442e-07   2.0753545e-06  1.0643978e+08
   1666000   3.0402322e-10  99904.655      99901.225      101385.82      2.5924028e-06  5.1721545e-07  2.0751873e-06  1.0643643e+08
   1667000   3.0420571e-10  99893.733      99891.834      100862.92      2.5923937e-06  5.1743326e-07  2.0749605e-06  1.0643361e+08
   1668000   3.043882e-10   99920.208      99919.201      100591         2.5923973e-06  5.1688692e-07  2.0755104e-06  1.0644377e+08
   1669000   3.0457068e-10  99908.773      99908.665      100278.77      2.5923896e-06  5.1711674e-07  2.0752729e-06  1.0643499e+08
   1670000   3.0475317e-10  99909.276      99910.751      99750.093      2.592387e-06   5.1710369e-07  2.0752833e-06  1.0643388e+08
   1671000   3.0493566e-10  99914.748      99915.356      100045.66      2.5923969e-06  5.1699991e-07  2.075397e-06   1.0643655e+08
   1672000   3.0511815e-10  99910.788      99911.67       99949.791      2.5923719e-06  5.1705718e-07  2.0753147e-06  1.064323e+08 
   1673000   3.0530063e-10  99920.641      99922.626      99590.861      2.5923804e-06  5.1686101e-07  2.0755194e-06  1.0643749e+08
   1674000   3.0548312e-10  99924.597      99927.819      99181.3        2.5924005e-06  5.1679896e-07  2.0756016e-06  1.0644124e+08
   1675000   3.0566561e-10  99918.345      99920.716      99459.591      2.5923686e-06  5.1689689e-07  2.0754717e-06  1.0643529e+08
   1676000   3.0584809e-10  99901.707      99904.269      99378.839      2.5923654e-06  5.1723933e-07  2.0751261e-06  1.0643019e+08
   1677000   3.0603058e-10  99916.272      99919.754      99085.999      2.592369e-06   5.1694037e-07  2.0754286e-06  1.0643561e+08
   1678000   3.0621307e-10  99910.828      99912.623      99644.574      2.5924133e-06  5.1709775e-07  2.0753156e-06  1.0643688e+08
   1679000   3.0639555e-10  99905.079      99906.288      99834.615      2.5923924e-06  5.1719627e-07  2.0751961e-06  1.0643722e+08
   1680000   3.0657804e-10  99900.306      99901.853      99717.263      2.5923945e-06  5.1729745e-07  2.075097e-06   1.0643362e+08
   1681000   3.0676053e-10  99916.772      99919.163      99451.4        2.5923993e-06  5.169603e-07   2.075439e-06   1.0643879e+08
   1682000   3.0694301e-10  99919.459      99920.59       99875.059      2.5924029e-06  5.1690806e-07  2.0754948e-06  1.0644124e+08
   1683000   3.071255e-10   99919.227      99919.574      100137.42      2.5924005e-06  5.1691047e-07  2.07549e-06    1.0643991e+08
   1684000   3.0730799e-10  99914.58       99915.866      99818.538      2.5923992e-06  5.1700569e-07  2.0753935e-06  1.0643799e+08
   1685000   3.0749048e-10  99914.944      99915.503      100062.3       2.5923738e-06  5.169727e-07   2.0754011e-06  1.0643376e+08
   1686000   3.0767296e-10  99930.913      99931.958      99915.641      2.5923798e-06  5.1664701e-07  2.0757328e-06  1.0644007e+08
   1687000   3.0785545e-10  99902.506      99903.991      99739.956      2.5923898e-06  5.1724709e-07  2.0751427e-06  1.0643456e+08
   1688000   3.0803794e-10  99911.742      99914.058      99471.223      2.5923952e-06  5.1706062e-07  2.0753346e-06  1.0643858e+08
   1689000   3.0822042e-10  99910.77       99912.891      99535.667      2.5924045e-06  5.1709013e-07  2.0753144e-06  1.0644024e+08
   1690000   3.0840291e-10  99899.88       99901.838      99579.107      2.5923938e-06  5.1730569e-07  2.0750882e-06  1.0643468e+08
   1691000   3.085854e-10   99913.379      99917.146      98987.643      2.5923967e-06  5.170281e-07   2.0753686e-06  1.0643847e+08
   1692000   3.0876788e-10  99908.129      99912.237      98868.287      2.5924063e-06  5.1714681e-07  2.0752595e-06  1.0643709e+08
   1693000   3.0895037e-10  99921.129      99925.631      98749.768      2.5923897e-06  5.1686019e-07  2.0755295e-06  1.064405e+08 
   1694000   3.0913286e-10  99907.228      99913.239      98230.899      2.592376e-06   5.1713518e-07  2.0752408e-06  1.0643302e+08
   1695000   3.0931534e-10  99920.785      99926.734      98265.375      2.5923992e-06  5.1687683e-07  2.0755224e-06  1.0643955e+08
   1696000   3.0949783e-10  99891.907      99898.926      97878.527      2.5923994e-06  5.1747684e-07  2.0749225e-06  1.0643103e+08
   1697000   3.0968032e-10  99891.348      99899.126      97624.109      2.5924214e-06  5.1751044e-07  2.0749109e-06  1.0643479e+08
   1698000   3.0986281e-10  99906.439      99914.669      97488.028      2.5924104e-06  5.1718603e-07  2.0752244e-06  1.0643804e+08
   1699000   3.1004529e-10  99913.723      99920.528      97971.842      2.5923793e-06  5.1700361e-07  2.0753757e-06  1.0643687e+08
   1700000   3.1022778e-10  99912.769      99918.628      98287.418      2.5923883e-06  5.1703243e-07  2.0753559e-06  1.0643732e+08
   1701000   3.1041027e-10  99907.786      99914.695      97931.025      2.5923855e-06  5.171331e-07   2.0752524e-06  1.0643495e+08
   1702000   3.1059275e-10  99907.202      99913.712      98064.144      2.5923974e-06  5.1715718e-07  2.0752402e-06  1.0643671e+08
   1703000   3.1077524e-10  99900.534      99907.415      97933.305      2.5923933e-06  5.1729157e-07  2.0751017e-06  1.0643451e+08
   1704000   3.1095773e-10  99918.933      99925.105      98188.906      2.5924141e-06  5.1693021e-07  2.0754839e-06  1.0644161e+08
   1705000   3.1114021e-10  99902.933      99908.472      98384.466      2.5923973e-06  5.1724575e-07  2.0751516e-06  1.0643541e+08
   1706000   3.113227e-10   99920.148      99923.701      99065.968      2.59239e-06    5.1688081e-07  2.0755092e-06  1.0643932e+08
   1707000   3.1150519e-10  99920.746      99923.535      99322.134      2.5923957e-06  5.1687415e-07  2.0755216e-06  1.0644059e+08
   1708000   3.1168767e-10  99902.097      99905.054      99247.274      2.5923955e-06  5.172613e-07   2.0751342e-06  1.064342e+08 
   1709000   3.1187016e-10  99900.4        99904.822      98755.752      2.5923935e-06  5.1729453e-07  2.075099e-06   1.0643503e+08
   1710000   3.1205265e-10  99925.503      99931.021      98414.35       2.5923834e-06  5.1676298e-07  2.0756204e-06  1.0644104e+08
   1711000   3.1223514e-10  99909.937      99916.429      98072.867      2.5923758e-06  5.1707876e-07  2.0752971e-06  1.0643503e+08
   1712000   3.1241762e-10  99916.636      99922.963      98134.9        2.5923987e-06  5.1696253e-07  2.0754362e-06  1.0643946e+08
   1713000   3.1260011e-10  99909.59       99915.364      98312.413      2.5923817e-06  5.1709183e-07  2.0752898e-06  1.0643443e+08
   1714000   3.127826e-10   99911.858      99917.331      98415.543      2.592373e-06   5.1703604e-07  2.075337e-06   1.0643316e+08
   1715000   3.1296508e-10  99924.263      99929.766      98418.109      2.5923647e-06  5.167701e-07   2.0755946e-06  1.0643734e+08
   1716000   3.1314757e-10  99906.008      99912.485      98073.742      2.5923557e-06  5.1714029e-07  2.0752154e-06  1.0643143e+08
   1717000   3.1333006e-10  99884.994      99891.386      98081.448      2.5923724e-06  5.1759339e-07  2.074779e-06   1.0642707e+08
   1718000   3.1351254e-10  99910.462      99915.662      98505.569      2.5923772e-06  5.1706922e-07  2.075308e-06   1.0643599e+08
   1719000   3.1369503e-10  99917.034      99920.937      98945.788      2.5923801e-06  5.1693564e-07  2.0754445e-06  1.0643729e+08
   1720000   3.1387752e-10  99917.677      99922.009      98802.962      2.5923806e-06  5.1692281e-07  2.0754578e-06  1.0643841e+08
   1721000   3.1406e-10     99900.155      99902.626      99407.786      2.5923976e-06  5.1730371e-07  2.0750939e-06  1.0643603e+08
   1722000   3.1424249e-10  99900.142      99902.823      99337.682      2.5924175e-06  5.173239e-07   2.0750936e-06  1.0643719e+08
   1723000   3.1442498e-10  99902.884      99905.267      99440.077      2.5924106e-06  5.1726009e-07  2.0751506e-06  1.0643739e+08
   1724000   3.1460747e-10  99901.533      99904.824      99134.977      2.5924008e-06  5.1727835e-07  2.0751225e-06  1.0643531e+08
   1725000   3.1478995e-10  99900.657      99904.215      99044.811      2.592385e-06   5.1728071e-07  2.0751043e-06  1.0643446e+08
   1726000   3.1497244e-10  99899.846      99902.59       99316.252      2.5923904e-06  5.1730299e-07  2.0750874e-06  1.0643358e+08
   1727000   3.1515493e-10  99913.183      99915.662      99418.336      2.5923843e-06  5.1701987e-07  2.0753645e-06  1.0643736e+08
   1728000   3.1533741e-10  99928.489      99932.339      98975.108      2.5923776e-06  5.1669519e-07  2.0756824e-06  1.0644226e+08
   1729000   3.155199e-10   99910.018      99915.477      98418.376      2.5923643e-06  5.1706556e-07  2.0752987e-06  1.0643394e+08
   1730000   3.1570239e-10  99906.29       99911.75       98414.581      2.5923776e-06  5.1715626e-07  2.0752213e-06  1.0643234e+08
   1731000   3.1588487e-10  99898.849      99903.393      98713.36       2.5923949e-06  5.1732815e-07  2.0750667e-06  1.0643289e+08
   1732000   3.1606736e-10  99913.516      99915.803      99482.59       2.5923983e-06  5.1702695e-07  2.0753714e-06  1.0644132e+08
   1733000   3.1624985e-10  99897.497      99901.248      98977.132      2.5924071e-06  5.1736848e-07  2.0750387e-06  1.0643789e+08
   1734000   3.1643233e-10  99909.537      99913.729      98841.758      2.5924065e-06  5.1711773e-07  2.0752887e-06  1.0644042e+08
   1735000   3.1661482e-10  99907.435      99911.941      98734.414      2.5923864e-06  5.1714134e-07  2.0752451e-06  1.0643375e+08
   1736000   3.1679731e-10  99922.353      99924.735      99460.087      2.5923772e-06  5.168222e-07   2.075555e-06   1.0643825e+08
   1737000   3.169798e-10   99921.32       99923.561      99506.208      2.5924185e-06  5.1688502e-07  2.0755335e-06  1.0644127e+08
   1738000   3.1716228e-10  99904.131      99906.35       99496.225      2.5924117e-06  5.1723523e-07  2.0751765e-06  1.0643742e+08
   1739000   3.1734477e-10  99913.665      99918.499      98631.118      2.5924091e-06  5.1703459e-07  2.0753745e-06  1.0643982e+08
   1740000   3.1752726e-10  99904.347      99905.71       99782.382      2.5923851e-06  5.1720419e-07  2.0751809e-06  1.0643316e+08
   1741000   3.1770974e-10  99916.376      99917.283      99947.018      2.5923621e-06  5.1693127e-07  2.0754308e-06  1.0643478e+08
   1742000   3.1789223e-10  99926.678      99928.135      99773.512      2.5923701e-06  5.1672535e-07  2.0756448e-06  1.0643879e+08
   1743000   3.1807472e-10  99918.588      99919.977      99788.052      2.5923882e-06  5.1691143e-07  2.0754768e-06  1.0643695e+08
   1744000   3.182572e-10   99936.758      99937.155      100138.23      2.5923688e-06  5.1651459e-07  2.0758542e-06  1.064393e+08 
   1745000   3.1843969e-10  99934.517      99934.451      100290.94      2.592368e-06   5.1656037e-07  2.0758076e-06  1.0644104e+08
   1746000   3.1862218e-10  99896.437      99896.121      100336.3       2.5923957e-06  5.1737907e-07  2.0750166e-06  1.0643373e+08
   1747000   3.1880467e-10  99901.813      99902.434      100028.14      2.5923986e-06  5.1727025e-07  2.0751283e-06  1.0643612e+08
   1748000   3.1898715e-10  99881.728      99882.357      100005.41      2.59238e-06    5.1766891e-07  2.0747111e-06  1.0642669e+08
   1749000   3.1916964e-10  99917.682      99919.356      99692.096      2.5923746e-06  5.1691664e-07  2.0754579e-06  1.0643758e+08
   1750000   3.1935213e-10  99911.403      99914.314      99272.076      2.5923784e-06  5.1705092e-07  2.0753275e-06  1.0643633e+08
   1751000   3.1953461e-10  99927.989      99931.694      99022.892      2.5923786e-06  5.1670655e-07  2.075672e-06   1.0644074e+08
   1752000   3.197171e-10   99921.628      99925.161      99074.283      2.5923821e-06  5.168422e-07   2.0755399e-06  1.0643932e+08
   1753000   3.1989959e-10  99907.309      99912.651      98454.653      2.5923962e-06  5.1715376e-07  2.0752425e-06  1.0643624e+08
   1754000   3.2008207e-10  99898.197      99903.687      98396.042      2.5923976e-06  5.1734441e-07  2.0750532e-06  1.0643532e+08
   1755000   3.2026456e-10  99915.669      99921.384      98338.45       2.5924067e-06  5.1699058e-07  2.0754161e-06  1.0644113e+08
   1756000   3.2044705e-10  99922.874      99929.935      97895.744      2.5923942e-06  5.1682841e-07  2.0755658e-06  1.0644279e+08
   1757000   3.2062953e-10  99915.531      99923.762      97496.739      2.5923699e-06  5.1695666e-07  2.0754133e-06  1.0643681e+08
   1758000   3.2081202e-10  99914.51       99922.646      97527.847      2.5923793e-06  5.1698727e-07  2.0753921e-06  1.0643543e+08
   1759000   3.2099451e-10  99911.747      99922.865      96527.739      2.5923806e-06  5.1704596e-07  2.0753347e-06  1.0643604e+08
   1760000   3.21177e-10    99899.582      99912.197      96014.735      2.5923698e-06  5.172878e-07   2.075082e-06   1.0642943e+08
   1761000   3.2135948e-10  99911.033      99923.502      96075.092      2.5923835e-06  5.1706365e-07  2.0753198e-06  1.0643615e+08
   1762000   3.2154197e-10  99901.572      99913.09       96383.547      2.5923853e-06  5.1726201e-07  2.0751233e-06  1.0643267e+08
   1763000   3.2172446e-10  99917.849      99928.484      96695.157      2.5923834e-06  5.1692195e-07  2.0754614e-06  1.0643809e+08
   1764000   3.2190694e-10  99926.898      99939.086      96184.755      2.5923731e-06  5.1672376e-07  2.0756494e-06  1.0643977e+08
   1765000   3.2208943e-10  99918.99       99931.115      96197.887      2.5923916e-06  5.1690645e-07  2.0754851e-06  1.0643781e+08
   1766000   3.2227192e-10  99906.443      99918.704      96139.938      2.5924096e-06  5.1718509e-07  2.0752245e-06  1.064375e+08 
   1767000   3.224544e-10   99910.684      99921.923      96486.174      2.5923814e-06  5.1706887e-07  2.0753126e-06  1.0643626e+08
   1768000   3.2263689e-10  99904.686      99915.589      96592.575      2.5923993e-06  5.1721127e-07  2.075188e-06   1.0643335e+08
   1769000   3.2281938e-10  99918.837      99928.89       96891          2.5923997e-06  5.1691781e-07  2.0754819e-06  1.0643881e+08
   1770000   3.2300186e-10  99914.375      99925.208      96625.475      2.592385e-06   5.169957e-07   2.0753892e-06  1.0643676e+08
   1771000   3.2318435e-10  99904.961      99916.795      96281.021      2.5923981e-06  5.1720445e-07  2.0751937e-06  1.0643475e+08
   1772000   3.2336684e-10  99907.886      99921.155      95804.45       2.5923767e-06  5.1712222e-07  2.0752545e-06  1.0643154e+08
   1773000   3.2354933e-10  99918.318      99934.441      94860.409      2.5923929e-06  5.1692176e-07  2.0754711e-06  1.064398e+08 
   1774000   3.2373181e-10  99899.145      99915.62       94723.434      2.5923909e-06  5.1731804e-07  2.0750729e-06  1.0643277e+08
   1775000   3.239143e-10   99906.128      99923.376      94471.573      2.5923987e-06  5.1718072e-07  2.0752179e-06  1.0643457e+08
   1776000   3.2409679e-10  99908.55       99926.683      94178.084      2.5924112e-06  5.1714295e-07  2.0752682e-06  1.0643913e+08
   1777000   3.2427927e-10  99904.39       99924.748      93430.019      2.5923841e-06  5.1720221e-07  2.0751818e-06  1.064348e+08 
   1778000   3.2446176e-10  99909.788      99931.255      93064.54       2.5923856e-06  5.170916e-07   2.075294e-06   1.0643786e+08
   1779000   3.2464425e-10  99907.13       99925.514      94092.75       2.5923958e-06  5.1715704e-07  2.0752388e-06  1.064379e+08 
   1780000   3.2482673e-10  99915.757      99932.726      94574.884      2.5924105e-06  5.1699256e-07  2.075418e-06   1.0643992e+08
   1781000   3.2500922e-10  99916.568      99933.643      94539.985      2.5923795e-06  5.1694473e-07  2.0754348e-06  1.0643839e+08
   1782000   3.2519171e-10  99910.245      99925.844      95027.213      2.5923914e-06  5.1708793e-07  2.0753034e-06  1.0643738e+08
   1783000   3.2537419e-10  99903.523      99918.728      95152.442      2.5924067e-06  5.1724285e-07  2.0751638e-06  1.0643786e+08
   1784000   3.2555668e-10  99890.429      99906.957      94696.673      2.5924004e-06  5.1750855e-07  2.0748918e-06  1.06433e+08  
   1785000   3.2573917e-10  99907.118      99925.139      94214.191      2.5923914e-06  5.1715289e-07  2.0752385e-06  1.0643621e+08
   1786000   3.2592166e-10  99914.744      99934.018      93802.631      2.5923782e-06  5.1698132e-07  2.0753969e-06  1.0643779e+08
   1787000   3.2610414e-10  99906.395      99924.523      94177.709      2.5924057e-06  5.1718222e-07  2.0752235e-06  1.0643839e+08
   1788000   3.2628663e-10  99891.806      99907.718      94904.356      2.5923971e-06  5.1747669e-07  2.0749205e-06  1.0643243e+08
   1789000   3.2646912e-10  99909.035      99924.953      94919.791      2.592395e-06   5.1711667e-07  2.0752783e-06  1.0643659e+08
   1790000   3.266516e-10   99912.02       99928.795      94635.89       2.5923953e-06  5.1705497e-07  2.0753403e-06  1.064373e+08 
   1791000   3.2683409e-10  99906.177      99923.045      94599.022      2.5923979e-06  5.1717895e-07  2.075219e-06   1.0643627e+08
   1792000   3.2701658e-10  99919.758      99936.87       94530.921      2.5923907e-06  5.1688959e-07  2.0755011e-06  1.0643935e+08
   1793000   3.2719906e-10  99922.461      99937.747      95144.431      2.5923842e-06  5.1682695e-07  2.0755572e-06  1.0643911e+08
   1794000   3.2738155e-10  99918.858      99933.049      95507.11       2.5923874e-06  5.1690502e-07  2.0754824e-06  1.0643842e+08
   1795000   3.2756404e-10  99908.932      99923.6        95337.286      2.5923927e-06  5.1711652e-07  2.0752762e-06  1.0643536e+08
   1796000   3.2774652e-10  99901.302      99915.752      95402.561      2.59239e-06    5.1727232e-07  2.0751177e-06  1.0643503e+08
   1797000   3.2792901e-10  99908.672      99920.962      96132.418      2.592394e-06   5.1712318e-07  2.0752708e-06  1.0643673e+08
   1798000   3.281115e-10   99916.361      99930.383      95561.26       2.5923734e-06  5.1694286e-07  2.0754305e-06  1.064381e+08 
   1799000   3.2829399e-10  99909.083      99925.23       94843.134      2.5923921e-06  5.1711278e-07  2.0752793e-06  1.0643749e+08
   1800000   3.2847647e-10  99931.735      99950.605      93955.101      2.5923849e-06  5.166351e-07   2.0757498e-06  1.0644164e+08
   1801000   3.2865896e-10  99908.37       99927.055      93993.46       2.5923834e-06  5.1711887e-07  2.0752645e-06  1.0643498e+08
   1802000   3.2884145e-10  99911.846      99930.583      93979.41       2.5923988e-06  5.1706209e-07  2.0753367e-06  1.0643841e+08
   1803000   3.2902393e-10  99895.391      99913.382      94212.634      2.5924054e-06  5.1741045e-07  2.0749949e-06  1.0643448e+08
   1804000   3.2920642e-10  99889.174      99906.783      94333.977      2.5924125e-06  5.1754675e-07  2.0748658e-06  1.0643382e+08
   1805000   3.2938891e-10  99902.483      99920.442      94230.279      2.5924071e-06  5.172649e-07   2.0751422e-06  1.0643763e+08
   1806000   3.2957139e-10  99905.294      99922.477      94492.657      2.592403e-06   5.1720238e-07  2.0752006e-06  1.0643774e+08
   1807000   3.2975388e-10  99932.001      99951.257      93826.223      2.5924166e-06  5.1666126e-07  2.0757554e-06  1.0644581e+08
   1808000   3.2993637e-10  99915.679      99934.11       94085.54       2.592394e-06   5.1697772e-07  2.0754163e-06  1.0643961e+08
   1809000   3.3011885e-10  99892.595      99909.698      94506.752      2.5923934e-06  5.174566e-07   2.0749368e-06  1.0643172e+08
   1810000   3.3030134e-10  99924.507      99940.239      94997.152      2.5924185e-06  5.168188e-07   2.0755997e-06  1.0644384e+08
   1811000   3.3048383e-10  99908.66       99922.409      95644.507      2.5924004e-06  5.1712989e-07  2.0752705e-06  1.0643909e+08
   1812000   3.3066632e-10  99903.083      99916.297      95817.85       2.5923992e-06  5.1724454e-07  2.0751547e-06  1.0643698e+08
   1813000   3.308488e-10   99902.429      99915.853      95746.917      2.5924084e-06  5.1726734e-07  2.0751411e-06  1.064376e+08 
   1814000   3.3103129e-10  99915.605      99931.227      95024.958      2.5924061e-06  5.1699136e-07  2.0754148e-06  1.0643996e+08
   1815000   3.3121378e-10  99908.323      99924.247      94916.647      2.5924044e-06  5.1714084e-07  2.0752635e-06  1.0643688e+08
   1816000   3.3139626e-10  99902.358      99917.607      95136.409      2.5924105e-06  5.1727089e-07  2.0751396e-06  1.064366e+08 
   1817000   3.3157875e-10  99908.361      99922.545      95498.549      2.5923973e-06  5.1713304e-07  2.0752643e-06  1.064377e+08 
   1818000   3.3176124e-10  99903.129      99916.97       95608.485      2.5924003e-06  5.1724468e-07  2.0751557e-06  1.0643596e+08
   1819000   3.3194372e-10  99919.992      99934.127      95526.649      2.5923979e-06  5.1689195e-07  2.0755059e-06  1.0644265e+08
   1820000   3.3212621e-10  99899.035      99913.2        95495.834      2.5923697e-06  5.1729913e-07  2.0750706e-06  1.0643226e+08
   1821000   3.323087e-10   99899.022      99911.438      96080.642      2.592364e-06   5.1729368e-07  2.0750703e-06  1.0643211e+08
   1822000   3.3249118e-10  99898.052      99912.121      95526.817      2.5923681e-06  5.1731794e-07  2.0750502e-06  1.0643163e+08
   1823000   3.3267367e-10  99908.041      99922.179      95513.723      2.5923818e-06  5.1712412e-07  2.0752577e-06  1.0643382e+08
   1824000   3.3285616e-10  99905.577      99919.807      95480.615      2.5923779e-06  5.1717137e-07  2.0752065e-06  1.0643219e+08
   1825000   3.3303865e-10  99918.671      99932.279      95701.602      2.5923654e-06  5.1688695e-07  2.0754785e-06  1.0643535e+08
   1826000   3.3322113e-10  99922.162      99934.519      96123.561      2.5923736e-06  5.1682257e-07  2.075551e-06   1.064371e+08 
   1827000   3.3340362e-10  99902.342      99914.148      96287.789      2.5923756e-06  5.1723627e-07  2.0751393e-06  1.0643245e+08
   1828000   3.3358611e-10  99888.853      99900.128      96451.971      2.5923832e-06  5.1752412e-07  2.0748591e-06  1.0643076e+08
   1829000   3.3376859e-10  99894.593      99907.371      95955.022      2.5923911e-06  5.1741275e-07  2.0749783e-06  1.0643362e+08
   1830000   3.3395108e-10  99904.084      99916.976      95926.512      2.5923879e-06  5.1721242e-07  2.0751755e-06  1.0643491e+08
   1831000   3.3413357e-10  99910.075      99923.131      95877.591      2.5923901e-06  5.1709016e-07  2.0752999e-06  1.0643548e+08
   1832000   3.3431605e-10  99902.672      99915.93       95802.908      2.5923784e-06  5.1723228e-07  2.0751462e-06  1.0643286e+08
   1833000   3.3449854e-10  99917.257      99931.581      95460.798      2.592363e-06   5.169139e-07   2.0754491e-06  1.064366e+08 
   1834000   3.3468103e-10  99901.872      99915.475      95686.502      2.5923647e-06  5.1723516e-07  2.0751295e-06  1.0643046e+08
   1835000   3.3486351e-10  99918.249      99931.874      95695.566      2.5923631e-06  5.1689339e-07  2.0754697e-06  1.0643313e+08
   1836000   3.35046e-10    99926.687      99939.641      95928.673      2.5923692e-06  5.1672418e-07  2.075645e-06   1.0643858e+08
   1837000   3.3522849e-10  99890.887      99903.478      96013.905      2.5923921e-06  5.1749076e-07  2.0749014e-06  1.0642856e+08
   1838000   3.3541098e-10  99920.264      99931.922      96355.477      2.5923747e-06  5.1686312e-07  2.0755116e-06  1.064373e+08 
   1839000   3.3559346e-10  99922.842      99934.89       96227.714      2.5923592e-06  5.1679411e-07  2.0755651e-06  1.0643715e+08
   1840000   3.3577595e-10  99919.9        99931.056      96522.787      2.5923691e-06  5.1686514e-07  2.075504e-06   1.0643608e+08
   1841000   3.3595844e-10  99926.703      99936.193      97087.017      2.5923694e-06  5.1672407e-07  2.0756453e-06  1.0643883e+08
   1842000   3.3614092e-10  99915.368      99922.315      97925.946      2.5923755e-06  5.1696561e-07  2.0754099e-06  1.0643647e+08
   1843000   3.3632341e-10  99901.218      99908.609      97763.544      2.592393e-06   5.1727706e-07  2.075116e-06   1.0643344e+08
   1844000   3.365059e-10   99909.08       99915.411      98126.072      2.5923997e-06  5.1712044e-07  2.0752793e-06  1.0643858e+08
   1845000   3.3668838e-10  99914.084      99918.005      98936.815      2.5924104e-06  5.1702718e-07  2.0753832e-06  1.0644162e+08
   1846000   3.3687087e-10  99912.256      99914.48       99502.769      2.5923874e-06  5.1704218e-07  2.0753452e-06  1.0643668e+08
   1847000   3.3705336e-10  99918.123      99918.967      99969.942      2.5923768e-06  5.1690967e-07  2.0754671e-06  1.0643754e+08
   1848000   3.3723584e-10  99894.889      99895.145      100143.62      2.5923807e-06  5.1739624e-07  2.0749845e-06  1.0643189e+08
   1849000   3.3741833e-10  99912.311      99912.49       100186.58      2.5923803e-06  5.1703398e-07  2.0753464e-06  1.0643628e+08
   1850000   3.3760082e-10  99909.966      99910.052      100215.43      2.5923643e-06  5.1706668e-07  2.0752977e-06  1.064327e+08 
   1851000   3.3778331e-10  99908.904      99911.828      99264.988      2.5923736e-06  5.1709805e-07  2.0752756e-06  1.0643497e+08
   1852000   3.3796579e-10  99903.925      99907.351      99092.193      2.5923778e-06  5.1720564e-07  2.0751722e-06  1.0643482e+08
   1853000   3.3814828e-10  99911.783      99918.597      97966.956      2.5923857e-06  5.170503e-07   2.0753354e-06  1.0643952e+08
   1854000   3.3833077e-10  99896.352      99904.021      97665.487      2.5924275e-06  5.174126e-07   2.0750149e-06  1.0643702e+08
   1855000   3.3851325e-10  99916.412      99923.254      97962.583      2.5924e-06     5.1696846e-07  2.0754316e-06  1.0643953e+08
   1856000   3.3869574e-10  99912.69       99919.843      97854.695      2.592385e-06   5.1703075e-07  2.0753542e-06  1.0643591e+08
   1857000   3.3887823e-10  99909.47       99916.163      98004.941      2.5924026e-06  5.1711522e-07  2.0752874e-06  1.0643912e+08
   1858000   3.3906071e-10  99902.38       99909.156      97970.515      2.5924218e-06  5.1728174e-07  2.0751401e-06  1.0643778e+08
   1859000   3.392432e-10   99907.895      99914.529      98023.17       2.5924033e-06  5.1714868e-07  2.0752546e-06  1.0643876e+08
   1860000   3.3942569e-10  99914.654      99921.189      98063.222      2.592405e-06   5.1700998e-07  2.075395e-06   1.0643659e+08
   1861000   3.3960817e-10  99919.096      99926.067      97921.942      2.5923844e-06  5.1689714e-07  2.0754873e-06  1.0643684e+08
   1862000   3.3979066e-10  99915.126      99923.226      97540.087      2.59239e-06    5.169852e-07   2.0754048e-06  1.0643705e+08
   1863000   3.3997315e-10  99916.686      99925.624      97261.553      2.5924117e-06  5.1697442e-07  2.0754373e-06  1.0644035e+08
   1864000   3.4015564e-10  99913.483      99920.389      97937.987      2.5924081e-06  5.1703734e-07  2.0753707e-06  1.0644075e+08
   1865000   3.4033812e-10  99904.676      99912.248      97706.203      2.5923927e-06  5.1720491e-07  2.0751878e-06  1.064356e+08 
   1866000   3.4052061e-10  99901.952      99911.127      97167.427      2.5923855e-06  5.172543e-07   2.0751312e-06  1.0643353e+08
   1867000   3.407031e-10   99886.261      99895.715      97058.408      2.5923893e-06  5.1758408e-07  2.0748053e-06  1.0642984e+08
   1868000   3.4088558e-10  99903.43       99915.532      96189.963      2.5923819e-06  5.1721999e-07  2.0751619e-06  1.0643615e+08
   1869000   3.4106807e-10  99913.344      99927.423      95538.859      2.5924021e-06  5.1703423e-07  2.0753678e-06  1.0644006e+08
   1870000   3.4125056e-10  99925.748      99940.119      95453.631      2.5924013e-06  5.1677578e-07  2.0756255e-06  1.0644153e+08
   1871000   3.4143304e-10  99895.027      99908.223      95815.93       2.5923872e-06  5.1739984e-07  2.0749874e-06  1.0643174e+08
   1872000   3.4161553e-10  99923.802      99936.096      96146.563      2.5923984e-06  5.1681338e-07  2.0755851e-06  1.0644083e+08
   1873000   3.4179802e-10  99907.08       99919.463      96099.605      2.5923961e-06  5.1715836e-07  2.0752377e-06  1.0643598e+08
   1874000   3.4198051e-10  99915.466      99927.678      96165.395      2.5923797e-06  5.1696781e-07  2.0754119e-06  1.0643706e+08
   1875000   3.4216299e-10  99907.933      99919.613      96335.684      2.5923979e-06  5.1714251e-07  2.0752554e-06  1.0643609e+08
   1876000   3.4234548e-10  99907.551      99920.744      95829.505      2.5923843e-06  5.1713681e-07  2.0752475e-06  1.0643638e+08
   1877000   3.4252797e-10  99915.691      99927.931      96156.238      2.5923984e-06  5.169818e-07   2.0754166e-06  1.064382e+08 
   1878000   3.4271045e-10  99922.589      99933.821      96500.423      2.5923898e-06  5.1682999e-07  2.0755599e-06  1.0643781e+08
   1879000   3.4289294e-10  99904.398      99915.856      96406.432      2.5923715e-06  5.1718949e-07  2.075182e-06   1.0643432e+08
   1880000   3.4307543e-10  99907.278      99918.182      96594.732      2.5923608e-06  5.1711894e-07  2.0752418e-06  1.0643157e+08
   1881000   3.4325791e-10  99905.889      99916.405      96723.049      2.5923724e-06  5.1715944e-07  2.075213e-06   1.0643193e+08
   1882000   3.434404e-10   99911.688      99921.923      96822.861      2.5923764e-06  5.1704299e-07  2.0753334e-06  1.0643643e+08
   1883000   3.4362289e-10  99909.723      99919.838      96860.978      2.5923857e-06  5.1709306e-07  2.0752926e-06  1.0643739e+08
   1884000   3.4380537e-10  99890.972      99899.605      97337.856      2.5923822e-06  5.1747913e-07  2.0749031e-06  1.0643033e+08
   1885000   3.4398786e-10  99916.9        99926.233      97129.895      2.5924062e-06  5.169645e-07   2.0754417e-06  1.0644174e+08
   1886000   3.4417035e-10  99911.053      99921.901      96617.177      2.5923891e-06  5.1706884e-07  2.0753202e-06  1.0643901e+08
   1887000   3.4435284e-10  99896.514      99906.987      96727.939      2.5923916e-06  5.1737335e-07  2.0750182e-06  1.0643426e+08
   1888000   3.4453532e-10  99922.721      99932.69       96922.811      2.5923943e-06  5.1683167e-07  2.0755626e-06  1.064412e+08 
   1889000   3.4471781e-10  99926.116      99934.692      97392.211      2.5923935e-06  5.1676034e-07  2.0756331e-06  1.0643833e+08
   1890000   3.449003e-10   99907.414      99915.481      97543.538      2.5923772e-06  5.1713253e-07  2.0752446e-06  1.0643232e+08
   1891000   3.4508278e-10  99919.672      99928.915      97162.565      2.5923744e-06  5.1687512e-07  2.0754993e-06  1.0643717e+08
   1892000   3.4526527e-10  99915.701      99924.75       97223.45       2.5923781e-06  5.1696133e-07  2.0754168e-06  1.0643651e+08
   1893000   3.4544776e-10  99925.108      99933.873      97327.632      2.5923704e-06  5.1675821e-07  2.0756122e-06  1.0643916e+08
   1894000   3.4563024e-10  99900.127      99910.306      96829.957      2.5923628e-06  5.172695e-07   2.0750933e-06  1.0643056e+08
   1895000   3.4581273e-10  99905.484      99915.7        96822.938      2.5923618e-06  5.1715719e-07  2.0752046e-06  1.064316e+08 
   1896000   3.4599522e-10  99897.408      99907.609      96819.647      2.592371e-06   5.1733416e-07  2.0750368e-06  1.0643072e+08
   1897000   3.461777e-10   99902.12       99911.764      97010.995      2.5924009e-06  5.1726617e-07  2.0751347e-06  1.0643611e+08
   1898000   3.4636019e-10  99910.586      99922.882      96132.335      2.5923903e-06  5.1707975e-07  2.0753105e-06  1.0643781e+08
   1899000   3.4654268e-10  99907.861      99920.92       95874.542      2.592381e-06   5.1712703e-07  2.0752539e-06  1.0643276e+08
   1900000   3.4672517e-10  99917.457      99929.576      96198.688      2.5923784e-06  5.1692516e-07  2.0754533e-06  1.0643668e+08
   1901000   3.4690765e-10  99914.54       99927.975      95755.434      2.5923755e-06  5.1698282e-07  2.0753927e-06  1.0643489e+08
   1902000   3.4709014e-10  99907.61       99918.864      96478.151      2.5923697e-06  5.1712096e-07  2.0752487e-06  1.0643314e+08
   1903000   3.4727263e-10  99911.028      99923.189      96177.973      2.5923578e-06  5.1703813e-07  2.0753197e-06  1.0643216e+08
   1904000   3.4745511e-10  99893.227      99903.058      96939.355      2.5923773e-06  5.174273e-07   2.07495e-06    1.0642805e+08
   1905000   3.476376e-10   99893.097      99902.385      97120.881      2.5923952e-06  5.1744791e-07  2.0749473e-06  1.0643048e+08
   1906000   3.4782009e-10  99910.71       99921.552      96618.865      2.5923985e-06  5.1708536e-07  2.0753131e-06  1.0643654e+08
   1907000   3.4800257e-10  99907.194      99919.431      96148.964      2.5923976e-06  5.1715748e-07  2.0752401e-06  1.0643538e+08
   1908000   3.4818506e-10  99913.948      99925.396      96419.286      2.5924182e-06  5.1703782e-07  2.0753804e-06  1.0644094e+08
   1909000   3.4836755e-10  99896.65       99907.241      96688.447      2.5923911e-06  5.1737003e-07  2.0750211e-06  1.0643397e+08
   1910000   3.4855003e-10  99905.767      99916.334      96705.764      2.5923699e-06  5.1715949e-07  2.0752104e-06  1.0643362e+08
   1911000   3.4873252e-10  99901.131      99912.862      96311.854      2.592387e-06   5.1727283e-07  2.0751141e-06  1.0643307e+08
   1912000   3.4891501e-10  99902.925      99915.595      95999.711      2.5923888e-06  5.1723738e-07  2.0751514e-06  1.0643304e+08
   1913000   3.490975e-10   99917.388      99928.878      96409.002      2.5923712e-06  5.1691933e-07  2.0754518e-06  1.0643843e+08
   1914000   3.4927998e-10  99908.075      99919.363      96466.888      2.5923846e-06  5.1712621e-07  2.0752584e-06  1.0643664e+08
   1915000   3.4946247e-10  99903.946      99913.634      96997.753      2.5923913e-06  5.1721871e-07  2.0751726e-06  1.0643409e+08
   1916000   3.4964496e-10  99940.149      99947.612      97778.53       2.5923794e-06  5.1645482e-07  2.0759246e-06  1.0644342e+08
   1917000   3.4982744e-10  99922.427      99927.859      98439.862      2.5923816e-06  5.1682509e-07  2.0755565e-06  1.06438e+08  
   1918000   3.5000993e-10  99903.073      99909.637      98041.762      2.592382e-06   5.1722749e-07  2.0751545e-06  1.0643351e+08
   1919000   3.5019242e-10  99900.272      99906.745      98069.619      2.5923886e-06  5.172923e-07   2.0750963e-06  1.064345e+08 
   1920000   3.503749e-10   99921.29       99926.32       98573.216      2.5923891e-06  5.1685624e-07  2.0755329e-06  1.0644108e+08
   1921000   3.5055739e-10  99920.081      99923.775      99018.972      2.5923972e-06  5.1688947e-07  2.0755078e-06  1.0644089e+08
   1922000   3.5073988e-10  99919.41       99922.487      99224.644      2.5923869e-06  5.1689304e-07  2.0754938e-06  1.0643904e+08
   1923000   3.5092236e-10  99923.174      99926.339      99198.669      2.5923647e-06  5.1679271e-07  2.075572e-06   1.0643947e+08
   1924000   3.5110485e-10  99909.744      99915.176      98427.019      2.5923827e-06  5.170897e-07   2.075293e-06   1.0643407e+08
   1925000   3.5128734e-10  99914.886      99922.57       97679.16       2.5923776e-06  5.1697778e-07  2.0753999e-06  1.0643443e+08
   1926000   3.5146983e-10  99897.314      99904.568      97805.097      2.5923773e-06  5.1734246e-07  2.0750348e-06  1.064301e+08 
   1927000   3.5165231e-10  99935.285      99941.298      98258.457      2.5923782e-06  5.1655459e-07  2.0758236e-06  1.0644361e+08
   1928000   3.518348e-10   99898.936      99903.39       98743.572      2.5923882e-06  5.173196e-07   2.0750685e-06  1.0643253e+08
   1929000   3.5201729e-10  99909.14       99913.093      98921.081      2.5923909e-06  5.1711036e-07  2.0752805e-06  1.0643501e+08
   1930000   3.5219977e-10  99920.447      99926.95       98079.517      2.5924037e-06  5.1688837e-07  2.0755154e-06  1.0644014e+08
   1931000   3.5238226e-10  99905.112      99913.825      97325.138      2.5923743e-06  5.1717745e-07  2.0751968e-06  1.0643346e+08
   1932000   3.5256475e-10  99893.18       99902.847      96994.14       2.5923689e-06  5.1741992e-07  2.074949e-06   1.0642871e+08
   1933000   3.5274723e-10  99915.934      99924.434      97407.263      2.59238e-06    5.1695837e-07  2.0754216e-06  1.0643909e+08
   1934000   3.5292972e-10  99907.741      99917.789      96881.348      2.5923837e-06  5.171323e-07   2.0752514e-06  1.0643626e+08
   1935000   3.5311221e-10  99902.498      99912.517      96886.094      2.5923926e-06  5.1725001e-07  2.0751425e-06  1.0643497e+08
   1936000   3.5329469e-10  99915.187      99926.229      96556.402      2.5923865e-06  5.1698041e-07  2.0754061e-06  1.0643862e+08
   1937000   3.5347718e-10  99918.821      99931.09       96149.522      2.5923838e-06  5.169022e-07   2.0754816e-06  1.0643836e+08
   1938000   3.5365967e-10  99913.433      99924.2        96646.625      2.5923733e-06  5.1700363e-07  2.0753697e-06  1.064353e+08 
   1939000   3.5384216e-10  99919.319      99929.365      96893.595      2.5923717e-06  5.1687979e-07  2.0754919e-06  1.0643943e+08
   1940000   3.5402464e-10  99919.45       99929.866      96770.053      2.5923838e-06  5.1688914e-07  2.0754947e-06  1.0643793e+08
   1941000   3.5420713e-10  99906.155      99917.572      96421.808      2.5923766e-06  5.1715811e-07  2.0752185e-06  1.0643382e+08
   1942000   3.5438962e-10  99908.301      99919.757      96410.942      2.5923876e-06  5.1712455e-07  2.0752631e-06  1.0643574e+08
   1943000   3.545721e-10   99917.576      99928.202      96697.927      2.5923949e-06  5.1693919e-07  2.0754557e-06  1.0643988e+08
   1944000   3.5475459e-10  99922.184      99933.741      96391.107      2.5923875e-06  5.1683602e-07  2.0755514e-06  1.0644107e+08
   1945000   3.5493708e-10  99911.607      99922.801      96502.085      2.5923723e-06  5.1704055e-07  2.0753317e-06  1.0643601e+08
   1946000   3.5511956e-10  99912.816      99922.839      96894.573      2.5923802e-06  5.1702336e-07  2.0753569e-06  1.0643685e+08
   1947000   3.5530205e-10  99911.396      99919.024      97694.308      2.5924158e-06  5.1708847e-07  2.0753274e-06  1.0644142e+08
   1948000   3.5548454e-10  99890.468      99894.926      98733.585      2.5924055e-06  5.175128e-07   2.0748927e-06  1.0643377e+08
   1949000   3.5566702e-10  99907.079      99909.173      99540.7        2.5924049e-06  5.171672e-07   2.0752377e-06  1.0643978e+08
   1950000   3.5584951e-10  99911.481      99911.065      100384.83      2.5923943e-06  5.1706519e-07  2.0753291e-06  1.0644018e+08
   1951000   3.56032e-10    99900.064      99897.799      100991.57      2.5923823e-06  5.1729028e-07  2.075092e-06   1.0643366e+08
   1952000   3.5621449e-10  99892.937      99892.728      100297.03      2.5923775e-06  5.1743359e-07  2.0749439e-06  1.0642941e+08
   1953000   3.5639697e-10  99909.242      99907.856      100706.98      2.5923642e-06  5.1708158e-07  2.0752826e-06  1.0643329e+08
   1954000   3.5657946e-10  99911.477      99909.621      100866.2       2.5923807e-06  5.1705164e-07  2.075329e-06   1.0643624e+08
   1955000   3.5676195e-10  99927.92       99924.617      101366.88      2.5923904e-06  5.1671975e-07  2.0756706e-06  1.0644202e+08
   1956000   3.5694443e-10  99912.891      99910.679      100986.73      2.5923703e-06  5.1701186e-07  2.0753584e-06  1.0643473e+08
   1957000   3.5712692e-10  99928.265      99926.071      100996.44      2.5923708e-06  5.1669305e-07  2.0756778e-06  1.0644038e+08
   1958000   3.5730941e-10  99923.982      99920.225      101514.81      2.5923767e-06  5.1678789e-07  2.0755888e-06  1.064381e+08 
   1959000   3.5749189e-10  99920.603      99915.354      102010.44      2.5923697e-06  5.1685107e-07  2.0755186e-06  1.0643686e+08
   1960000   3.5767438e-10  99911.24       99906.601      101796.85      2.5923771e-06  5.1705295e-07  2.0753241e-06  1.0643655e+08
   1961000   3.5785687e-10  99909.276      99905.45       101522.96      2.5923615e-06  5.1707814e-07  2.0752833e-06  1.0643331e+08
   1962000   3.5803935e-10  99925.935      99924.162      100853.34      2.5923679e-06  5.1673856e-07  2.0756294e-06  1.0643796e+08
   1963000   3.5822184e-10  99914.877      99912.652      100993.31      2.5923639e-06  5.1696424e-07  2.0753997e-06  1.0643534e+08
   1964000   3.5840433e-10  99911.327      99910.419      100549.09      2.5923821e-06  5.1705621e-07  2.0753259e-06  1.0643645e+08
   1965000   3.5858682e-10  99913.206      99915.548      99463.948      2.5923695e-06  5.1700455e-07  2.075365e-06   1.0643486e+08
   1966000   3.587693e-10   99919.566      99920.731      99864.267      2.5923803e-06  5.1688317e-07  2.0754971e-06  1.0643924e+08
   1967000   3.5895179e-10  99907.179      99909.288      99535.854      2.5923483e-06  5.1710852e-07  2.0752398e-06  1.0643274e+08
   1968000   3.5913428e-10  99924.67       99925.42       100008.06      2.5923733e-06  5.167702e-07   2.0756031e-06  1.0643955e+08
   1969000   3.5931676e-10  99891.842      99893.826      99562.271      2.5923862e-06  5.1746502e-07  2.0749212e-06  1.0643106e+08
   1970000   3.5949925e-10  99896.866      99900.754      98930.641      2.5923795e-06  5.173539e-07   2.0750256e-06  1.0643272e+08
   1971000   3.5968174e-10  99913.214      99918.897      98346.755      2.5923866e-06  5.1702148e-07  2.0753651e-06  1.0643831e+08
   1972000   3.5986422e-10  99922.656      99927.092      98773.342      2.5923874e-06  5.1682614e-07  2.0755613e-06  1.0644214e+08
   1973000   3.6004671e-10  99902.67       99906.558      98936.493      2.5923965e-06  5.1725034e-07  2.0751461e-06  1.0643732e+08
   1974000   3.602292e-10   99898.444      99901.562      99189.55       2.592415e-06   5.1735665e-07  2.0750583e-06  1.0643745e+08
   1975000   3.6041168e-10  99915.64       99920.458      98638.467      2.592393e-06   5.1697751e-07  2.0754155e-06  1.0644013e+08
   1976000   3.6059417e-10  99909.879      99914.927      98556.076      2.5923845e-06  5.1708868e-07  2.0752959e-06  1.0643539e+08
   1977000   3.6077666e-10  99913.276      99919.531      98155.466      2.5923799e-06  5.1701347e-07  2.0753664e-06  1.0643623e+08
   1978000   3.6095915e-10  99910.548      99918.905      97449.836      2.5923848e-06  5.1707505e-07  2.0753097e-06  1.0643669e+08
   1979000   3.6114163e-10  99902.855      99911.384      97384.679      2.5923734e-06  5.1722344e-07  2.07515e-06    1.0643225e+08
   1980000   3.6132412e-10  99911.684      99921.988      96799.58       2.5923893e-06  5.1705595e-07  2.0753333e-06  1.064386e+08 
   1981000   3.6150661e-10  99924.464      99935.48       96574.16       2.5923942e-06  5.1679537e-07  2.0755988e-06  1.0644221e+08
   1982000   3.6168909e-10  99915.671      99928.268      96036.701      2.5923804e-06  5.1696426e-07  2.0754162e-06  1.064362e+08 
   1983000   3.6187158e-10  99920.637      99933.069      96096.873      2.5923821e-06  5.1686277e-07  2.0755193e-06  1.0643846e+08
   1984000   3.6205407e-10  99902.983      99915.754      95965.771      2.5923721e-06  5.1721948e-07  2.0751526e-06  1.0643387e+08
   1985000   3.6223655e-10  99906.985      99917.818      96618.05       2.5923747e-06  5.1713898e-07  2.0752357e-06  1.0643686e+08
   1986000   3.6241904e-10  99908.039      99919.34       96462.336      2.5923841e-06  5.1712643e-07  2.0752576e-06  1.0643575e+08
   1987000   3.6260153e-10  99893.715      99906.603      95917.675      2.5923772e-06  5.174171e-07   2.0749601e-06  1.0643008e+08
   1988000   3.6278401e-10  99916.45       99929.516      95880.642      2.5923759e-06  5.1694355e-07  2.0754323e-06  1.064401e+08 
   1989000   3.629665e-10   99919.672      99932.946      95814.475      2.5923886e-06  5.1688936e-07  2.0754993e-06  1.0644016e+08
   1990000   3.6314899e-10  99906.911      99920.593      95665.163      2.5923785e-06  5.1714428e-07  2.0752342e-06  1.0643503e+08
   1991000   3.6333148e-10  99910.558      99923.069      96060.429      2.5923867e-06  5.1707675e-07  2.0753099e-06  1.0643718e+08
   1992000   3.6351396e-10  99898.517      99913.396      95256.195      2.5923977e-06  5.1733788e-07  2.0750598e-06  1.0643418e+08
   1993000   3.6369645e-10  99901.657      99913.898      96141.877      2.5923623e-06  5.1723727e-07  2.0751251e-06  1.0643085e+08
   1994000   3.6387894e-10  99924.659      99935.033      96789.392      2.5923699e-06  5.1676709e-07  2.0756029e-06  1.0643898e+08
   1995000   3.6406142e-10  99913.984      99924.914      96592.674      2.5923757e-06  5.1699455e-07  2.0753811e-06  1.0643609e+08
   1996000   3.6424391e-10  99905.867      99918.229      96105.64       2.5923828e-06  5.1717032e-07  2.0752125e-06  1.0643402e+08
   1997000   3.644264e-10   99900.066      99911.126      96535.251      2.5923697e-06  5.1727768e-07  2.075092e-06   1.0643181e+08
   1998000   3.6460888e-10  99909.133      99918.109      97241.294      2.5923745e-06  5.1709411e-07  2.0752804e-06  1.0643407e+08
   1999000   3.6479137e-10  99915.903      99923.936      97563.383      2.592371e-06   5.1694999e-07  2.075421e-06   1.0643574e+08
   2000000   3.6497386e-10  99926.692      99935.332      97371.262      2.5923741e-06  5.1672903e-07  2.0756451e-06  1.0643932e+08
   2001000   3.6515635e-10  99911.035      99922.034      96566.546      2.5923944e-06  5.1707457e-07  2.0753199e-06  1.0643562e+08
   2002000   3.6533883e-10  99911.008      99920.742      96989.657      2.5923841e-06  5.1706479e-07  2.0753193e-06  1.0643676e+08
   2003000   3.6552132e-10  99911.412      99920.976      97046.979      2.5923765e-06  5.1704875e-07  2.0753277e-06  1.0643502e+08
   2004000   3.6570381e-10  99927.037      99934.721      97691.362      2.5923861e-06  5.1673389e-07  2.0756523e-06  1.0644235e+08
   2005000   3.6588629e-10  99914.959      99920.687      98333.655      2.5923689e-06  5.1696756e-07  2.0754014e-06  1.0643474e+08
   2006000   3.6606878e-10  99927.386      99932.501      98550.954      2.5923669e-06  5.1670742e-07  2.0756595e-06  1.0643888e+08
   2007000   3.6625127e-10  99901.988      99907.292      98462.056      2.5923929e-06  5.1726098e-07  2.0751319e-06  1.0643417e+08
   2008000   3.6643375e-10  99909.441      99916.219      97976.911      2.5923906e-06  5.1710379e-07  2.0752868e-06  1.0643673e+08
   2009000   3.6661624e-10  99919.029      99927.465      97431.74       2.5923719e-06  5.1688604e-07  2.0754859e-06  1.0643794e+08
   2010000   3.6679873e-10  99910.515      99919.457      97254.019      2.5923935e-06  5.1708439e-07  2.0753091e-06  1.0643775e+08
   2011000   3.6698121e-10  99898.461      99905.005      98043.932      2.5923884e-06  5.173297e-07   2.0750587e-06  1.0643317e+08
   2012000   3.671637e-10   99913.409      99919.447      98228.131      2.5923678e-06  5.1699868e-07  2.0753692e-06  1.0643559e+08
   2013000   3.6734619e-10  99905.591      99910.543      98583.73       2.5923887e-06  5.1718189e-07  2.0752068e-06  1.0643459e+08
   2014000   3.6752868e-10  99907.804      99914.711      97931.737      2.5923779e-06  5.1712514e-07  2.0752527e-06  1.0643567e+08
   2015000   3.6771116e-10  99917.623      99924.842      97837.223      2.5923608e-06  5.1690411e-07  2.0754567e-06  1.0643598e+08
   2016000   3.6789365e-10  99920.893      99927.842      97930.947      2.5923728e-06  5.168482e-07   2.0755246e-06  1.0643738e+08
   2017000   3.6807614e-10  99900.902      99906.239      98450.073      2.5923992e-06  5.1728982e-07  2.0751094e-06  1.0643575e+08
   2018000   3.6825862e-10  99916.084      99920.266      98851.718      2.5923764e-06  5.1695166e-07  2.0754247e-06  1.0643688e+08
   2019000   3.6844111e-10  99922.136      99925.963      98976.422      2.5923531e-06  5.1680265e-07  2.0755504e-06  1.064357e+08 
   2020000   3.686236e-10   99906.702      99909.346      99356.443      2.5923771e-06  5.171472e-07   2.0752299e-06  1.0643397e+08
   2021000   3.6880608e-10  99933.47       99934.936      99777.362      2.5923679e-06  5.1658205e-07  2.0757859e-06  1.0644205e+08
   2022000   3.6898857e-10  99901.483      99905.217      98986.754      2.5923861e-06  5.1726461e-07  2.0751215e-06  1.0643439e+08
   2023000   3.6917106e-10  99899.828      99905.12       98464.047      2.5923925e-06  5.1730545e-07  2.0750871e-06  1.0643549e+08
   2024000   3.6935354e-10  99908.561      99913.959      98437.291      2.5923892e-06  5.1712069e-07  2.0752685e-06  1.0643722e+08
   2025000   3.6953603e-10  99909.865      99916.586      97996.457      2.5923846e-06  5.1708904e-07  2.0752956e-06  1.0643819e+08
   2026000   3.6971852e-10  99902.228      99910.366      97514.755      2.5924345e-06  5.1729755e-07  2.0751369e-06  1.064413e+08 
   2027000   3.6990101e-10  99906.147      99913.271      97857.551      2.5924076e-06  5.1718924e-07  2.0752183e-06  1.0643806e+08
   2028000   3.7008349e-10  99907.084      99915.183      97532.639      2.5923942e-06  5.1715636e-07  2.0752378e-06  1.0643488e+08
   2029000   3.7026598e-10  99914.252      99923.14       97276.183      2.5923689e-06  5.1698216e-07  2.0753867e-06  1.0643457e+08
   2030000   3.7044847e-10  99924.459      99934.868      96777.415      2.5923576e-06  5.1675891e-07  2.0755987e-06  1.0643557e+08
   2031000   3.7063095e-10  99928.777      99940.159      96456.485      2.5923764e-06  5.1668805e-07  2.0756884e-06  1.0643913e+08
   2032000   3.7081344e-10  99921.879      99933.765      96280.778      2.59239e-06    5.1684494e-07  2.0755451e-06  1.0643842e+08
   2033000   3.7099593e-10  99918.189      99931.834      95689.11       2.5923792e-06  5.1691068e-07  2.0754685e-06  1.0643716e+08
   2034000   3.7117841e-10  99888.038      99903.327      95108.904      2.5923709e-06  5.1752872e-07  2.0748422e-06  1.0642796e+08
   2035000   3.713609e-10   99932.28       99947.963      95021.374      2.592377e-06   5.166158e-07   2.0757612e-06  1.0644211e+08
   2036000   3.7154339e-10  99936.074      99949.75       95696.543      2.5923767e-06  5.1653671e-07  2.07584e-06    1.0644268e+08
   2037000   3.7172587e-10  99925.244      99939.047      95643.127      2.5923908e-06  5.1677575e-07  2.075615e-06   1.064408e+08 
   2038000   3.7190836e-10  99895.626      99908.283      95996.722      2.5923861e-06  5.1738634e-07  2.0749998e-06  1.0643282e+08
   2039000   3.7209085e-10  99888.751      99902.085      95763.361      2.592391e-06   5.1753396e-07  2.074857e-06   1.0642924e+08
   2040000   3.7227334e-10  99910.812      99924.906      95531.29       2.5923911e-06  5.1707585e-07  2.0753152e-06  1.064353e+08 
   2041000   3.7245582e-10  99926.669      99939.427      95994.172      2.5923882e-06  5.1674358e-07  2.0756446e-06  1.0643978e+08
   2042000   3.7263831e-10  99922.384      99934.676      96145.566      2.5923844e-06  5.1682877e-07  2.0755556e-06  1.0643857e+08
   2043000   3.728208e-10   99910.252      99923.146      95932.11       2.5923841e-06  5.1708053e-07  2.0753036e-06  1.0643439e+08
   2044000   3.7300328e-10  99914.169      99927.736      95710.839      2.5923888e-06  5.1700381e-07  2.075385e-06   1.0643601e+08
   2045000   3.7318577e-10  99915.378      99929.37       95570.073      2.5923982e-06  5.1698818e-07  2.0754101e-06  1.0643817e+08
   2046000   3.7336826e-10  99916.669      99931.895      95158.442      2.5923985e-06  5.1696156e-07  2.0754369e-06  1.0644185e+08
   2047000   3.7355074e-10  99890.009      99904.361      95423.956      2.5924119e-06  5.1752875e-07  2.0748831e-06  1.0643302e+08
   2048000   3.7373323e-10  99897.8        99913.215      95076.431      2.5924227e-06  5.1737778e-07  2.075045e-06   1.0643487e+08
   2049000   3.7391572e-10  99894.408      99908.23       95605.724      2.5924066e-06  5.1743211e-07  2.0749745e-06  1.0643361e+08
   2050000   3.740982e-10   99906.114      99917.952      96281.114      2.5924051e-06  5.1718741e-07  2.0752176e-06  1.0643865e+08
   2051000   3.7428069e-10  99909.725      99918.341      97362.251      2.5924091e-06  5.171164e-07   2.0752926e-06  1.064371e+08 
   2052000   3.7446318e-10  99913.981      99922.312      97461.672      2.5924025e-06  5.1702144e-07  2.0753811e-06  1.0643807e+08
   2053000   3.7464567e-10  99912.223      99922.759      96722.447      2.5923853e-06  5.1704082e-07  2.0753445e-06  1.0643627e+08
   2054000   3.7482815e-10  99907.191      99920.028      95948.184      2.5923839e-06  5.171439e-07   2.07524e-06    1.0643436e+08
   2055000   3.7501064e-10  99898.796      99911.923      95842.899      2.5923936e-06  5.1732792e-07  2.0750656e-06  1.0643154e+08
   2056000   3.7519313e-10  99929.499      99940.671      96527.363      2.5923791e-06  5.1667567e-07  2.0757034e-06  1.0644043e+08
   2057000   3.7537561e-10  99912.718      99922.39       97012.329      2.5923788e-06  5.1702399e-07  2.0753548e-06  1.0643315e+08
   2058000   3.755581e-10   99915.216      99925.675      96751.466      2.5924046e-06  5.1699788e-07  2.0754067e-06  1.0643691e+08
   2059000   3.7574059e-10  99900.64       99913.9        95800.039      2.5924199e-06  5.1731597e-07  2.0751039e-06  1.0643525e+08
   2060000   3.7592307e-10  99921.601      99935.752      95522.943      2.5924032e-06  5.1686391e-07  2.0755393e-06  1.0644122e+08
   2061000   3.7610556e-10  99911.244      99926.941      94995.522      2.5924096e-06  5.1708543e-07  2.0753242e-06  1.0643754e+08
   2062000   3.7628805e-10  99906.312      99922.412      94856.061      2.5923984e-06  5.1717667e-07  2.0752218e-06  1.0643611e+08
   2063000   3.7647053e-10  99909.264      99926.772      94387.981      2.5924014e-06  5.1711835e-07  2.0752831e-06  1.0643643e+08
   2064000   3.7665302e-10  99906.017      99923.048      94544.131      2.5924003e-06  5.1718472e-07  2.0752156e-06  1.064347e+08 
   2065000   3.7683551e-10  99918.159      99935.103      94585.306      2.5923873e-06  5.1691944e-07  2.0754678e-06  1.0643793e+08
   2066000   3.77018e-10    99915.199      99930.528      95122.641      2.5924181e-06  5.1701179e-07  2.0754063e-06  1.0644118e+08
   2067000   3.7720048e-10  99897.581      99911.313      95639.068      2.5924044e-06  5.1736403e-07  2.0750404e-06  1.0643455e+08
   2068000   3.7738297e-10  99928.636      99940.637      96249.404      2.5923963e-06  5.1671084e-07  2.0756855e-06  1.0644208e+08
   2069000   3.7756546e-10  99915.185      99927.925      95988.286      2.5924008e-06  5.1699479e-07  2.0754061e-06  1.0643667e+08
   2070000   3.7774794e-10  99905.846      99918.239      96095.314      2.5923927e-06  5.1718061e-07  2.0752121e-06  1.0643561e+08
   2071000   3.7793043e-10  99927.33       99938.412      96555.273      2.5924116e-06  5.1675321e-07  2.0756583e-06  1.0644366e+08
   2072000   3.7811292e-10  99918.635      99931.019      96110.933      2.5924241e-06  5.1694636e-07  2.0754777e-06  1.0644198e+08
   2073000   3.782954e-10   99901.514      99912.846      96445.817      2.5924065e-06  5.1728437e-07  2.0751221e-06  1.0643472e+08
   2074000   3.7847789e-10  99924.622      99935.509      96617.619      2.5924002e-06  5.1679815e-07  2.0756021e-06  1.0644232e+08
   2075000   3.7866038e-10  99929.297      99938.967      97029.242      2.5923878e-06  5.1668864e-07  2.0756992e-06  1.0644173e+08
   2076000   3.7884286e-10  99917.741      99925.272      97733.211      2.5923905e-06  5.1693129e-07  2.0754592e-06  1.0643727e+08
   2077000   3.7902535e-10  99905.437      99911.725      98136.629      2.5923911e-06  5.1718754e-07  2.0752036e-06  1.0643244e+08
   2078000   3.7920784e-10  99922.747      99927.87       98543.446      2.592398e-06   5.1683487e-07  2.0755631e-06  1.0643953e+08
   2079000   3.7939033e-10  99878.517      99881.632      99170.815      2.5924099e-06  5.1776552e-07  2.0746444e-06  1.0642818e+08
   2080000   3.7957281e-10  99901.361      99906.905      98381.089      2.592397e-06   5.1727807e-07  2.0751189e-06  1.0643497e+08
   2081000   3.797553e-10   99913.868      99918.901      98564.704      2.5924036e-06  5.170249e-07   2.0753787e-06  1.064405e+08 
   2082000   3.7993779e-10  99890.627      99896.195      98362.329      2.5924147e-06  5.1751874e-07  2.0748959e-06  1.0643492e+08
   2083000   3.8012027e-10  99911.538      99917.878      98125.123      2.5923895e-06  5.1705914e-07  2.0753303e-06  1.0643457e+08
   2084000   3.8030276e-10  99922.582      99928.121      98404.209      2.5923996e-06  5.1683986e-07  2.0755597e-06  1.0643932e+08
   2085000   3.8048525e-10  99908.382      99913.403      98563.164      2.5923685e-06  5.1710374e-07  2.0752648e-06  1.0643808e+08
   2086000   3.8066773e-10  99902.554      99908.691      98184.158      2.5923798e-06  5.1723609e-07  2.0751437e-06  1.0643478e+08
   2087000   3.8085022e-10  99896.88       99904.983      97521.184      2.5923688e-06  5.1734295e-07  2.0750258e-06  1.0643204e+08
   2088000   3.8103271e-10  99912.47       99920.578      97535.115      2.5923489e-06  5.1699925e-07  2.0753497e-06  1.0643471e+08
   2089000   3.8121519e-10  99924.575      99932.104      97740.61       2.5923559e-06  5.1675478e-07  2.0756011e-06  1.0643744e+08
   2090000   3.8139768e-10  99913.901      99921.123      97832.95       2.5923705e-06  5.1699106e-07  2.0753794e-06  1.0643644e+08
   2091000   3.8158017e-10  99894.299      99901.282      97892.697      2.5923741e-06  5.1740189e-07  2.0749722e-06  1.0643183e+08
   2092000   3.8176266e-10  99906.544      99915.738      97166.037      2.5923765e-06  5.171499e-07   2.0752266e-06  1.0643597e+08
   2093000   3.8194514e-10  99922.111      99931.375      97157.911      2.5923689e-06  5.1681901e-07  2.0755499e-06  1.0644082e+08
   2094000   3.8212763e-10  99902.922      99910.21       97799.546      2.5923614e-06  5.1721001e-07  2.0751513e-06  1.0643242e+08
   2095000   3.8231012e-10  99902.144      99909.822      97668.661      2.5923575e-06  5.1722231e-07  2.0751352e-06  1.064317e+08 
   2096000   3.824926e-10   99905.097      99913.063      97575.097      2.5923657e-06  5.1716914e-07  2.0751965e-06  1.0643537e+08
   2097000   3.8267509e-10  99907.608      99914.438      97957.611      2.5923662e-06  5.1711752e-07  2.0752487e-06  1.0643653e+08
   2098000   3.8285758e-10  99915.637      99920.44       98643.355      2.5923643e-06  5.1694883e-07  2.0754155e-06  1.0643893e+08
   2099000   3.8304006e-10  99903.508      99907.622      98861.674      2.5923655e-06  5.1720201e-07  2.0751635e-06  1.0643375e+08
   2100000   3.8322255e-10  99920.785      99923.479      99353.764      2.5923558e-06  5.1683341e-07  2.0755224e-06  1.0643807e+08
   2101000   3.8340504e-10  99910.784      99912.096      99805.986      2.5923441e-06  5.1702944e-07  2.0753146e-06  1.0643261e+08
   2102000   3.8358752e-10  99922.147      99921.829      100362.68      2.5923388e-06  5.1678807e-07  2.0755507e-06  1.0643508e+08
   2103000   3.8377001e-10  99918.489      99915.841      101138.39      2.5923233e-06  5.1684863e-07  2.0754747e-06  1.0643261e+08
   2104000   3.839525e-10   99936.021      99932.534      101436.22      2.592339e-06   5.1650011e-07  2.0758389e-06  1.0644112e+08
   2105000   3.8413499e-10  99918.258      99914.922      101368.24      2.5923636e-06  5.1689367e-07  2.0754699e-06  1.0643925e+08
   2106000   3.8431747e-10  99923.237      99922.696      100438.4       2.5923759e-06  5.1680256e-07  2.0755733e-06  1.0644232e+08
   2107000   3.8449996e-10  99891.774      99892.69       99919.547      2.592372e-06   5.174522e-07   2.0749198e-06  1.0643106e+08
   2108000   3.8468245e-10  99915.792      99918.683      99283.124      2.5923591e-06  5.1694045e-07  2.0754187e-06  1.064364e+08 
   2109000   3.8486493e-10  99954.249      99957.504      99199.881      2.5923433e-06  5.1612579e-07  2.0762175e-06  1.0644527e+08
   2110000   3.8504742e-10  99933.636      99937.405      99007.373      2.5923162e-06  5.1652684e-07  2.0757893e-06  1.0643419e+08
   2111000   3.8522991e-10  99924.389      99927.09       99355.195      2.5923419e-06  5.1674463e-07  2.0755973e-06  1.0643455e+08
   2112000   3.8541239e-10  99902.587      99903.846      99815.7        2.5923401e-06  5.1719573e-07  2.0751444e-06  1.0642949e+08
   2113000   3.8559488e-10  99908.537      99912.112      99047.116      2.5923546e-06  5.1708663e-07  2.075268e-06   1.0643324e+08
   2114000   3.8577737e-10  99922.64       99926.037      99120.541      2.5923307e-06  5.1676978e-07  2.0755609e-06  1.0643682e+08
   2115000   3.8595985e-10  99908.941      99911.067      99532.055      2.5923366e-06  5.1706027e-07  2.0752764e-06  1.0643013e+08
   2116000   3.8614234e-10  99928.592      99930.77       99534.64       2.5923433e-06  5.1665872e-07  2.0756846e-06  1.064367e+08 
   2117000   3.8632483e-10  99919.184      99921.571      99454.752      2.592362e-06   5.1687283e-07  2.0754891e-06  1.0643611e+08
   2118000   3.8650732e-10  99921.752      99924.98       99176.465      2.592373e-06   5.1683048e-07  2.0755425e-06  1.0644119e+08
   2119000   3.866898e-10   99909.035      99912.622      99043.62       2.5923542e-06  5.170759e-07   2.0752783e-06  1.0643652e+08
   2120000   3.8687229e-10  99910.982      99913.999      99236.184      2.5923577e-06  5.1703891e-07  2.0753188e-06  1.0643845e+08
   2121000   3.8705478e-10  99894.603      99897.833      99148.464      2.5923661e-06  5.1738759e-07  2.0749785e-06  1.064329e+08 
   2122000   3.8723726e-10  99898.799      99901.641      99282.238      2.5923654e-06  5.1729969e-07  2.0750657e-06  1.0643426e+08
   2123000   3.8741975e-10  99897.548      99903.216      98336.15       2.5923651e-06  5.1732534e-07  2.0750397e-06  1.0643258e+08
   2124000   3.8760224e-10  99898.992      99905.561      98036.282      2.5923516e-06  5.1728191e-07  2.0750697e-06  1.0643004e+08
   2125000   3.8778472e-10  99885.031      99890.588      98360.691      2.592377e-06   5.1759727e-07  2.0747797e-06  1.0642925e+08
   2126000   3.8796721e-10  99904.818      99910.846      98222.864      2.5923881e-06  5.1719738e-07  2.0751907e-06  1.064402e+08 
   2127000   3.881497e-10   99922.385      99926.771      98789.692      2.5923951e-06  5.1683948e-07  2.0755556e-06  1.0644492e+08
   2128000   3.8833219e-10  99892.358      99896.597      98808.506      2.5923743e-06  5.1744242e-07  2.0749319e-06  1.0643188e+08
   2129000   3.8851467e-10  99904.372      99907.455      99207.444      2.5923682e-06  5.1718671e-07  2.0751815e-06  1.0643519e+08
   2130000   3.8869716e-10  99916.55       99918.613      99560.555      2.5923435e-06  5.1690904e-07  2.0754344e-06  1.0643617e+08
   2131000   3.8887965e-10  99911.887      99915.201      99137.674      2.5923295e-06  5.1699198e-07  2.0753376e-06  1.0643257e+08
   2132000   3.8906213e-10  99922.347      99925.27       99279.068      2.5923361e-06  5.1678127e-07  2.0755548e-06  1.0643609e+08
   2133000   3.8924462e-10  99918.39       99920.545      99531.706      2.5923472e-06  5.1687459e-07  2.0754726e-06  1.0643606e+08
   2134000   3.8942711e-10  99916.113      99918.219      99545.798      2.5923463e-06  5.1692095e-07  2.0754253e-06  1.0643602e+08
   2135000   3.8960959e-10  99904.243      99907.171      99259.332      2.5923508e-06  5.1717197e-07  2.0751788e-06  1.0643215e+08
   2136000   3.8979208e-10  99899.748      99904.406      98675.878      2.5923635e-06  5.1727811e-07  2.0750854e-06  1.0643224e+08
   2137000   3.8997457e-10  99903.897      99910.655      97977.841      2.5923529e-06  5.1718132e-07  2.0751716e-06  1.0643277e+08
   2138000   3.9015705e-10  99911.695      99918.29       98040.096      2.5923567e-06  5.170231e-07   2.0753336e-06  1.0643571e+08
   2139000   3.9033954e-10  99900.738      99907.21       98070.239      2.5923711e-06  5.1726509e-07  2.075106e-06   1.064341e+08 
   2140000   3.9052203e-10  99913.528      99920.228      98006.881      2.5923556e-06  5.169839e-07   2.0753717e-06  1.0643897e+08
   2141000   3.9070452e-10  99913.59       99921.93       97458.361      2.592366e-06   5.1699309e-07  2.0753729e-06  1.0643391e+08
   2142000   3.90887e-10    99935.73       99943.667      97615.442      2.5923488e-06  5.1651597e-07  2.0758328e-06  1.0644089e+08
   2143000   3.9106949e-10  99933.709      99941.203      97761.543      2.5923525e-06  5.1656164e-07  2.0757908e-06  1.0644106e+08
   2144000   3.9125198e-10  99909.54       99916.748      97833.059      2.5923664e-06  5.170776e-07   2.0752888e-06  1.0643633e+08
   2145000   3.9143446e-10  99894.216      99901.167      97903.645      2.5923749e-06  5.1740439e-07  2.0749705e-06  1.0643326e+08
   2146000   3.9161695e-10  99924.616      99931.528      97947.032      2.5923608e-06  5.1675888e-07  2.075602e-06   1.0644183e+08
   2147000   3.9179944e-10  99898.876      99905.796      97918.52       2.5923455e-06  5.1727816e-07  2.0750673e-06  1.0643152e+08
   2148000   3.9198192e-10  99907.298      99912.401      98534.771      2.5923367e-06  5.170945e-07   2.0752422e-06  1.0643281e+08
   2149000   3.9216441e-10  99921.176      99926.675      98415.953      2.5923728e-06  5.1684227e-07  2.0755305e-06  1.0644058e+08
   2150000   3.923469e-10   99897.112      99904.865      97638.485      2.5923623e-06  5.1733164e-07  2.0750307e-06  1.064335e+08 
   2151000   3.9252938e-10  99901.531      99911.082      97041.447      2.5923833e-06  5.1726088e-07  2.0751224e-06  1.0643618e+08
   2152000   3.9271187e-10  99912.099      99923.307      96497.683      2.5923703e-06  5.1702832e-07  2.075342e-06   1.0643773e+08
   2153000   3.9289436e-10  99909.336      99920.418      96536.965      2.5923629e-06  5.1707837e-07  2.0752846e-06  1.0643894e+08
   2154000   3.9307685e-10  99899.642      99907.924      97463.882      2.5923603e-06  5.1727713e-07  2.0750832e-06  1.0643229e+08
   2155000   3.9325933e-10  99889.936      99900.289      96761.532      2.5923526e-06  5.1747098e-07  2.0748816e-06  1.0642755e+08
   2156000   3.9344182e-10  99908.305      99915.645      97787.436      2.5923662e-06  5.1710307e-07  2.0752632e-06  1.0643333e+08
   2157000   3.9362431e-10  99918.229      99923.424      98515.085      2.5923636e-06  5.1689431e-07  2.0754693e-06  1.0643778e+08
   2158000   3.9380679e-10  99904.558      99909.319      98646.371      2.5923676e-06  5.1718224e-07  2.0751853e-06  1.064353e+08 
   2159000   3.9398928e-10  99907.539      99914.26       97993.825      2.5923703e-06  5.1712303e-07  2.0752473e-06  1.0643952e+08
   2160000   3.9417177e-10  99892.536      99897.171      98676.544      2.5923808e-06  5.1744522e-07  2.0749356e-06  1.064346e+08 
   2161000   3.9435425e-10  99902.773      99906.938      98843.681      2.592373e-06   5.1722479e-07  2.0751482e-06  1.0643652e+08
   2162000   3.9453674e-10  99921.533      99926.468      98605.404      2.5923548e-06  5.1681685e-07  2.0755379e-06  1.0643828e+08
   2163000   3.9471923e-10  99885.855      99891.569      98309.031      2.5923524e-06  5.1755555e-07  2.0747968e-06  1.064281e+08 
   2164000   3.9490171e-10  99898.821      99904.697      98267.552      2.5923789e-06  5.1731276e-07  2.0750662e-06  1.0643578e+08
   2165000   3.950842e-10   99897.021      99900.876      98941.729      2.5923791e-06  5.1735034e-07  2.0750288e-06  1.0643193e+08
   2166000   3.9526669e-10  99913.024      99916.807      98982.132      2.5923645e-06  5.1700329e-07  2.0753612e-06  1.0643444e+08
   2167000   3.9544918e-10  99916.897      99921.211      98808.474      2.5923631e-06  5.1692148e-07  2.0754416e-06  1.064369e+08 
   2168000   3.9563166e-10  99913.259      99916.371      99206.555      2.5923631e-06  5.1699708e-07  2.0753661e-06  1.0643498e+08
   2169000   3.9581415e-10  99915.958      99919.692      99001.455      2.5923511e-06  5.1692898e-07  2.0754221e-06  1.064374e+08 
   2170000   3.9599664e-10  99911.986      99915.398      99105.13       2.5923733e-06  5.1703369e-07  2.0753396e-06  1.064393e+08 
   2171000   3.9617912e-10  99907.37       99909.96       99375.24       2.5923774e-06  5.1713368e-07  2.0752437e-06  1.06437e+08  
   2172000   3.9636161e-10  99919.771      99918.889      100548.82      2.5923528e-06  5.1685151e-07  2.0755013e-06  1.064377e+08 
   2173000   3.965441e-10   99923.771      99923.625      100306.8       2.5923524e-06  5.1676799e-07  2.0755844e-06  1.0643805e+08
   2174000   3.9672658e-10  99906.203      99905.729      100399.05      2.5923464e-06  5.1712687e-07  2.0752195e-06  1.0643178e+08
   2175000   3.9690907e-10  99916.182      99915.552      100461.01      2.5923563e-06  5.1692954e-07  2.0754268e-06  1.0643882e+08
   2176000   3.9709156e-10  99907.116      99905.871      100657.57      2.5923637e-06  5.1712528e-07  2.0752385e-06  1.0643803e+08
   2177000   3.9727404e-10  99904.247      99901.773      101065.69      2.5923719e-06  5.1719303e-07  2.0751789e-06  1.0643593e+08
   2178000   3.9745653e-10  99912.829      99909.123      101486.5       2.5923585e-06  5.1700139e-07  2.0753571e-06  1.0643635e+08
   2179000   3.9763902e-10  99914.061      99912.088      100907.92      2.5923535e-06  5.1697079e-07  2.0753827e-06  1.0643633e+08
   2180000   3.9782151e-10  99911.145      99909.666      100739.85      2.5923725e-06  5.1705032e-07  2.0753221e-06  1.0643683e+08
   2181000   3.9800399e-10  99924.975      99924.474      100426.75      2.5923693e-06  5.1675987e-07  2.0756094e-06  1.0644302e+08
   2182000   3.9818648e-10  99908.516      99907.685      100520.29      2.5923663e-06  5.170988e-07   2.0752675e-06  1.0643757e+08
   2183000   3.9836897e-10  99899.274      99898.342      100545         2.5923627e-06  5.1728714e-07  2.0750756e-06  1.0643291e+08
   2184000   3.9855145e-10  99909.311      99909.393      100216.05      2.5923455e-06  5.170614e-07   2.0752841e-06  1.0643259e+08
   2185000   3.9873394e-10  99913.638      99915.245      99710.495      2.5923449e-06  5.1697096e-07  2.0753739e-06  1.0643398e+08
   2186000   3.9891643e-10  99910.922      99911.656      99999.624      2.5923602e-06  5.1704266e-07  2.0753175e-06  1.0643621e+08
   2187000   3.9909891e-10  99917.002      99917.254      100166.67      2.5923612e-06  5.1691735e-07  2.0754438e-06  1.064397e+08 
   2188000   3.992814e-10   99910.795      99912.315      99736.685      2.5923612e-06  5.1704628e-07  2.0753149e-06  1.0643538e+08
   2189000   3.9946389e-10  99906.581      99910.754      98844.992      2.5923614e-06  5.1713411e-07  2.0752273e-06  1.064336e+08 
   2190000   3.9964637e-10  99937.303      99940.28       99276.022      2.5923616e-06  5.1649605e-07  2.0758655e-06  1.0644327e+08
   2191000   3.9982886e-10  99917.589      99923.531      98264.635      2.5923717e-06  5.1691574e-07  2.075456e-06   1.064375e+08 
   2192000   4.0001135e-10  99903.558      99912.031      97403.728      2.5923636e-06  5.1719907e-07  2.0751646e-06  1.0643542e+08
   2193000   4.0019384e-10  99916.394      99923.583      97846.352      2.5923573e-06  5.1692617e-07  2.0754312e-06  1.0643851e+08
   2194000   4.0037632e-10  99915.286      99922.599      97803.516      2.5923607e-06  5.1695252e-07  2.0754082e-06  1.0643722e+08
   2195000   4.0055881e-10  99894.345      99901.69       97771.955      2.5923399e-06  5.1736672e-07  2.0749732e-06  1.0642768e+08
   2196000   4.007413e-10   99906.227      99913.197      97909.035      2.592345e-06   5.1712497e-07  2.07522e-06    1.0643184e+08
   2197000   4.0092378e-10  99898.462      99907.734      97131.772      2.5923443e-06  5.1728558e-07  2.0750587e-06  1.0643251e+08
   2198000   4.0110627e-10  99901.116      99909.024      97590.433      2.5923454e-06  5.1723158e-07  2.0751138e-06  1.0643241e+08
   2199000   4.0128876e-10  99916.766      99922.428      98357.188      2.5923506e-06  5.1691168e-07  2.0754389e-06  1.0643583e+08
   2200000   4.0147124e-10  99910.41       99913.823      99103.098      2.5923673e-06  5.1706038e-07  2.0753069e-06  1.0643403e+08
   2201000   4.0165373e-10  99894.474      99897.164      99328.794      2.592355e-06   5.1737915e-07  2.0749759e-06  1.064299e+08 
   2202000   4.0183622e-10  99913.058      99914.06       99912.282      2.5923548e-06  5.1699294e-07  2.0753619e-06  1.0643633e+08
   2203000   4.020187e-10   99915.323      99917.542      99507.109      2.5923574e-06  5.1694844e-07  2.0754089e-06  1.064366e+08 
   2204000   4.0220119e-10  99924.269      99927.566      99155.812      2.5923616e-06  5.1676686e-07  2.0755948e-06  1.0643966e+08
   2205000   4.0238368e-10  99914.348      99917.851      99077.005      2.5923508e-06  5.1696216e-07  2.0753887e-06  1.0643703e+08
   2206000   4.0256617e-10  99917.58       99923.356      98320.262      2.5923526e-06  5.1689675e-07  2.0754558e-06  1.0643713e+08
   2207000   4.0274865e-10  99926.514      99932.526      98249.977      2.5923504e-06  5.1670903e-07  2.0756414e-06  1.0643875e+08
   2208000   4.0293114e-10  99915.243      99920.292      98560.676      2.5923556e-06  5.1694831e-07  2.0754073e-06  1.064358e+08 
   2209000   4.0311363e-10  99904.184      99908.525      98786.588      2.5923632e-06  5.1718564e-07  2.0751776e-06  1.0643451e+08
   2210000   4.0329611e-10  99894.492      99898.675      98829.748      2.5923557e-06  5.1737945e-07  2.0749762e-06  1.0643165e+08
   2211000   4.034786e-10   99906.136      99909.628      99072.549      2.5923487e-06  5.171306e-07   2.0752181e-06  1.0643431e+08
   2212000   4.0366109e-10  99904.083      99909.563      98405.336      2.5923594e-06  5.1718391e-07  2.0751755e-06  1.0643326e+08
   2213000   4.0384357e-10  99894.112      99898.203      98860.062      2.5923525e-06  5.1738411e-07  2.0749684e-06  1.0643022e+08
   2214000   4.0402606e-10  99920.05       99924.074      98908.515      2.5923594e-06  5.1685227e-07  2.0755071e-06  1.0643827e+08
   2215000   4.0420855e-10  99925.68       99928.802      99215.648      2.5923652e-06  5.1674114e-07  2.0756241e-06  1.0643989e+08
   2216000   4.0439103e-10  99925.23       99928.761      99078.456      2.5923657e-06  5.1675096e-07  2.0756147e-06  1.0643981e+08
   2217000   4.0457352e-10  99905.626      99910.506      98607.665      2.5923627e-06  5.1715518e-07  2.0752075e-06  1.064337e+08 
   2218000   4.0475601e-10  99917.766      99923.004      98500.183      2.5923603e-06  5.1690063e-07  2.0754597e-06  1.0643693e+08
   2219000   4.049385e-10   99906.872      99912.732      98281.208      2.5923703e-06  5.1713686e-07  2.0752334e-06  1.0643395e+08
   2220000   4.0512098e-10  99923.422      99928.057      98707.684      2.5923628e-06  5.1678567e-07  2.0755772e-06  1.0643909e+08
   2221000   4.0530347e-10  99904.687      99910.805      98192.696      2.5923586e-06  5.1717059e-07  2.075188e-06   1.0643167e+08
   2222000   4.0548596e-10  99892.649      99897.396      98638.963      2.592352e-06   5.1741403e-07  2.074938e-06   1.0642949e+08
   2223000   4.0566844e-10  99900          99905.646      98345.804      2.5923481e-06  5.1725745e-07  2.0750907e-06  1.0643044e+08
   2224000   4.0585093e-10  99919.79       99925.128      98468.78       2.5923256e-06  5.1682387e-07  2.0755017e-06  1.0643419e+08
   2225000   4.0603342e-10  99918.994      99924.224      98504.006      2.5923425e-06  5.1685731e-07  2.0754852e-06  1.0643326e+08
   2226000   4.062159e-10   99920.028      99926.318      98150.272      2.592348e-06   5.1684139e-07  2.0755067e-06  1.0643715e+08
   2227000   4.0639839e-10  99912.631      99918.114      98413.175      2.5923508e-06  5.1699778e-07  2.075353e-06   1.0643504e+08
   2228000   4.0658088e-10  99912.272      99916.862      98711.509      2.5923416e-06  5.1699605e-07  2.0753456e-06  1.0643297e+08
   2229000   4.0676336e-10  99908.404      99911.505      99205.576      2.5923342e-06  5.1706898e-07  2.0752652e-06  1.0643246e+08
   2230000   4.0694585e-10  99903.427      99906.291      99279.966      2.5923597e-06  5.171979e-07   2.0751618e-06  1.0643201e+08
   2231000   4.0712834e-10  99913.655      99914.932      99820.609      2.592376e-06   5.1700172e-07  2.0753743e-06  1.0643791e+08
   2232000   4.0731083e-10  99899.879      99900.962      99871.829      2.5923782e-06  5.1729003e-07  2.0750881e-06  1.0643541e+08
   2233000   4.0749331e-10  99897.47       99899.251      99636.09       2.5923852e-06  5.1734713e-07  2.0750381e-06  1.0643446e+08
   2234000   4.076758e-10   99918.009      99919.588      99724.227      2.5923889e-06  5.1692417e-07  2.0754647e-06  1.0644198e+08
   2235000   4.0785829e-10  99902.627      99904.114      99739.403      2.5923933e-06  5.1724808e-07  2.0751452e-06  1.0643569e+08
   2236000   4.0804077e-10  99899.561      99903.169      99026.759      2.5923928e-06  5.1731124e-07  2.0750815e-06  1.0643552e+08
   2237000   4.0822326e-10  99890.397      99892.782      99426.67       2.5923841e-06  5.1749288e-07  2.0748912e-06  1.0643115e+08
   2238000   4.0840575e-10  99909.396      99911.053      99689.213      2.5923919e-06  5.1710607e-07  2.0752858e-06  1.0643994e+08
   2239000   4.0858823e-10  99894.924      99894.689      100307.57      2.5923811e-06  5.1739593e-07  2.0749852e-06  1.0643413e+08
   2240000   4.0877072e-10  99918.167      99917.424      100500.82      2.592387e-06   5.1691896e-07  2.075468e-06   1.0644241e+08
   2241000   4.0895321e-10  99913.118      99912.928      100310.87      2.5923644e-06  5.1700123e-07  2.0753631e-06  1.0643616e+08
   2242000   4.0913569e-10  99910.736      99910.839      100210.23      2.5923539e-06  5.1704025e-07  2.0753136e-06  1.0643321e+08
   2243000   4.0931818e-10  99910.413      99912.435      99568.476      2.5923567e-06  5.170497e-07   2.0753069e-06  1.0643652e+08
   2244000   4.0950067e-10  99897.626      99896.72       100534.81      2.59237e-06    5.1732862e-07  2.0750413e-06  1.0643448e+08
   2245000   4.0968316e-10  99912.72       99910.808      100886.45      2.5923529e-06  5.1699802e-07  2.0753549e-06  1.0643583e+08
   2246000   4.0986564e-10  99898.818      99894.112      101806.84      2.592361e-06   5.1729489e-07  2.0750661e-06  1.0643118e+08
   2247000   4.1004813e-10  99901.656      99896.757      101874.23      2.5923617e-06  5.1723662e-07  2.075125e-06   1.0643325e+08
   2248000   4.1023062e-10  99910.74       99905.747      101914.67      2.5923493e-06  5.1703553e-07  2.0753137e-06  1.0643406e+08
   2249000   4.104131e-10   99931.564      99923.517      102956.94      2.5923479e-06  5.1660166e-07  2.0757463e-06  1.064408e+08 
   2250000   4.1059559e-10  99917.454      99907.172      103690.33      2.5923681e-06  5.1691494e-07  2.0754532e-06  1.0643896e+08
   2251000   4.1077808e-10  99895.263      99884.392      103865.23      2.59236e-06    5.173677e-07   2.0749923e-06  1.0643116e+08
   2252000   4.1096056e-10  99900.11       99888.504      104115.75      2.5923423e-06  5.1724938e-07  2.0750929e-06  1.0643055e+08
   2253000   4.1114305e-10  99927.929      99916.761      103997.33      2.5923296e-06  5.166588e-07   2.0756708e-06  1.0643797e+08
   2254000   4.1132554e-10  99941.419      99929.661      104208.03      2.5923147e-06  5.1636374e-07  2.075951e-06   1.0644228e+08
   2255000   4.1150803e-10  99911.415      99898.041      104718.52      2.5923313e-06  5.1700353e-07  2.0753278e-06  1.0643231e+08
   2256000   4.1169051e-10  99914.897      99903.036      104216.05      2.5923215e-06  5.1692143e-07  2.0754001e-06  1.0643247e+08
   2257000   4.11873e-10    99911.42       99899.717      104159.74      2.5923451e-06  5.1701721e-07  2.0753279e-06  1.0643432e+08
   2258000   4.1205549e-10  99897.956      99888.502      103393.89      2.59234e-06    5.1729183e-07  2.0750482e-06  1.0643186e+08
   2259000   4.1223797e-10  99911.065      99904.175      102549.72      2.5923498e-06  5.1702926e-07  2.0753205e-06  1.0643803e+08
   2260000   4.1242046e-10  99910.614      99906.933      101475.8       2.592348e-06   5.1703689e-07  2.0753111e-06  1.0643598e+08
   2261000   4.1260295e-10  99924.514      99918.328      102327.47      2.5923391e-06  5.1673925e-07  2.0755998e-06  1.0643616e+08
   2262000   4.1278543e-10  99907.662      99903.004      101799.63      2.5923598e-06  5.1711001e-07  2.0752498e-06  1.0643442e+08
   2263000   4.1296792e-10  99894.379      99890.342      101578.53      2.5923502e-06  5.1737629e-07  2.0749739e-06  1.0642847e+08
   2264000   4.1315041e-10  99915.256      99909.862      102053.4       2.5923634e-06  5.169559e-07   2.0754075e-06  1.0643862e+08
   2265000   4.1333289e-10  99904.84       99899.17       102135.28      2.5923534e-06  5.1716218e-07  2.0751912e-06  1.0643517e+08
   2266000   4.1351538e-10  99909.128      99901.246      102879.2       2.592359e-06   5.1707872e-07  2.0752802e-06  1.0643526e+08
   2267000   4.1369787e-10  99922.008      99913.898      102968.56      2.5923735e-06  5.1682569e-07  2.0755478e-06  1.0644073e+08
   2268000   4.1388036e-10  99919.519      99909.934      103459.17      2.5923591e-06  5.1686301e-07  2.0754961e-06  1.0643874e+08
   2269000   4.1406284e-10  99914.843      99903.509      104039.35      2.5923391e-06  5.1694019e-07  2.075399e-06   1.0643569e+08
   2270000   4.1424533e-10  99909.799      99899.51       103684.81      2.5923527e-06  5.1705851e-07  2.0752942e-06  1.0643542e+08
   2271000   4.1442782e-10  99904.33       99895.505      103189.84      2.5923606e-06  5.1718001e-07  2.0751806e-06  1.0643346e+08
   2272000   4.146103e-10   99907.054      99898.475      103110.38      2.5923566e-06  5.1711939e-07  2.0752372e-06  1.0643535e+08
   2273000   4.1479279e-10  99914.585      99906.17       103062.9       2.5923496e-06  5.1695595e-07  2.0753936e-06  1.0643767e+08
   2274000   4.1497528e-10  99909.001      99901.435      102773.66      2.5923444e-06  5.1706678e-07  2.0752776e-06  1.0643516e+08
   2275000   4.1515776e-10  99909.465      99904.068      102048.53      2.5923529e-06  5.1706562e-07  2.0752872e-06  1.0643583e+08
   2276000   4.1534025e-10  99911.444      99907.904      101429.74      2.5923283e-06  5.1699989e-07  2.0753284e-06  1.0643312e+08
   2277000   4.1552274e-10  99921.974      99919.327      101141.53      2.5923527e-06  5.1680563e-07  2.0755471e-06  1.0643732e+08
   2278000   4.1570522e-10  99931.526      99927.503      101611.31      2.5923686e-06  5.1662309e-07  2.0757455e-06  1.0644344e+08
   2279000   4.1588771e-10  99913.404      99910.27       101295.85      2.5923604e-06  5.1699127e-07  2.0753691e-06  1.0643554e+08
   2280000   4.160702e-10   99914.764      99909.766      101920.48      2.5923629e-06  5.1696562e-07  2.0753973e-06  1.0643621e+08
   2281000   4.1625269e-10  99905.952      99902.865      101272.59      2.5923546e-06  5.1714029e-07  2.0752143e-06  1.0643455e+08
   2282000   4.1643517e-10  99922.262      99920.084      100985.14      2.5923345e-06  5.1678145e-07  2.0755531e-06  1.0643879e+08
   2283000   4.1661766e-10  99917.59       99915.372      100993.45      2.5923359e-06  5.1687989e-07  2.075456e-06   1.0643655e+08
   2284000   4.1680015e-10  99898.387      99896.802      100762.55      2.5923324e-06  5.1727521e-07  2.0750571e-06  1.0642747e+08
   2285000   4.1698263e-10  99919.464      99917.461      100923.36      2.5923366e-06  5.1684169e-07  2.0754949e-06  1.0643626e+08
   2286000   4.1716512e-10  99897.397      99897.034      100352.93      2.5923382e-06  5.1730164e-07  2.0750366e-06  1.0643011e+08
   2287000   4.1734761e-10  99900.003      99899.217      100496.95      2.5923441e-06  5.1725343e-07  2.0750907e-06  1.0643013e+08
   2288000   4.1753009e-10  99927.061      99927.065      100260.08      2.5923349e-06  5.1668213e-07  2.0756528e-06  1.0643632e+08
   2289000   4.1771258e-10  99908.066      99907.049      100582.21      2.5923447e-06  5.170865e-07   2.0752582e-06  1.0643182e+08
   2290000   4.1789507e-10  99887.328      99889.166      99606.552      2.5923444e-06  5.1751701e-07  2.0748274e-06  1.0642896e+08
   2291000   4.1807755e-10  99898.202      99900.768      99374.098      2.5923669e-06  5.1731356e-07  2.0750533e-06  1.0643557e+08
   2292000   4.1826004e-10  99900.191      99903.926      98985.173      2.5923405e-06  5.1724591e-07  2.0750946e-06  1.0643058e+08
   2293000   4.1844253e-10  99910.133      99912.096      99587.759      2.5923551e-06  5.1705402e-07  2.0753011e-06  1.0643601e+08
   2294000   4.1862502e-10  99916.272      99917.616      99801.186      2.5923593e-06  5.1693069e-07  2.0754287e-06  1.0643985e+08
   2295000   4.188075e-10   99906.338      99906.397      100220.76      2.5923217e-06  5.1709937e-07  2.0752223e-06  1.0643074e+08
   2296000   4.1898999e-10  99913.444      99913.624      100187.46      2.5923284e-06  5.1695848e-07  2.0753699e-06  1.0643245e+08
   2297000   4.1917248e-10  99917.587      99916.991      100451.08      2.5923585e-06  5.1690252e-07  2.075456e-06   1.064378e+08 
   2298000   4.1935496e-10  99901.745      99900.997      100486.29      2.5923471e-06  5.1722015e-07  2.0751269e-06  1.0643113e+08
   2299000   4.1953745e-10  99895.591      99894.217      100689.1       2.5923331e-06  5.1733405e-07  2.0749991e-06  1.0642782e+08
   2300000   4.1971994e-10  99911.714      99909.741      100905.72      2.5923514e-06  5.1701747e-07  2.075334e-06   1.0643529e+08
   2301000   4.1990242e-10  99893.837      99890.868      101221.13      2.592361e-06   5.1739838e-07  2.0749626e-06  1.0643248e+08
   2302000   4.2008491e-10  99893.973      99891.086      101193.45      2.5923731e-06  5.174076e-07   2.0749655e-06  1.064325e+08 
   2303000   4.202674e-10   99906.204      99903.633      101100.09      2.5923696e-06  5.1715011e-07  2.0752195e-06  1.0643533e+08
   2304000   4.2044988e-10  99906.711      99904.463      100992.66      2.592363e-06   5.17133e-07    2.07523e-06    1.0643581e+08
   2305000   4.2063237e-10  99899.159      99898.818      100347.28      2.5923528e-06  5.1727958e-07  2.0750732e-06  1.0643368e+08
   2306000   4.2081486e-10  99904.392      99902.97       100713.85      2.5923544e-06  5.171725e-07   2.0751819e-06  1.0643626e+08
   2307000   4.2099735e-10  99907.578      99905.841      100822.75      2.5923509e-06  5.1710279e-07  2.0752481e-06  1.0643557e+08
   2308000   4.2117983e-10  99899.239      99895.592      101453.23      2.5923595e-06  5.1728466e-07  2.0750748e-06  1.0643299e+08
   2309000   4.2136232e-10  99891.421      99885.19       102309.45      2.5923713e-06  5.1745886e-07  2.0749124e-06  1.0643421e+08
   2310000   4.2154481e-10  99878.382      99872.76       102092.77      2.5923915e-06  5.1774985e-07  2.0746416e-06  1.0643329e+08
   2311000   4.2172729e-10  99900.541      99894.969      102098.08      2.5923839e-06  5.1728207e-07  2.0751019e-06  1.0643928e+08
   2312000   4.2190978e-10  99898.825      99894.944      101530.78      2.5923533e-06  5.172871e-07   2.0750662e-06  1.0643449e+08
   2313000   4.2209227e-10  99905.069      99900.251      101850.35      2.5923528e-06  5.1715684e-07  2.0751959e-06  1.064319e+08 
   2314000   4.2227475e-10  99898.698      99892.805      102203.89      2.592329e-06   5.1726541e-07  2.0750636e-06  1.0643043e+08
   2315000   4.2245724e-10  99903.861      99899.401      101729.51      2.5923749e-06  5.1720402e-07  2.0751708e-06  1.0643514e+08
   2316000   4.2263973e-10  99909.602      99905.603      101581.21      2.5923663e-06  5.1707619e-07  2.0752901e-06  1.0643583e+08
   2317000   4.2282221e-10  99899.6        99895.597      101572.38      2.5923568e-06  5.172745e-07   2.0750823e-06  1.0643297e+08
   2318000   4.230047e-10   99906.402      99900.884      102085.91      2.5923411e-06  5.1711748e-07  2.0752236e-06  1.0643481e+08
   2319000   4.2318719e-10  99908.745      99904.255      101744.61      2.592336e-06   5.1706367e-07  2.0752723e-06  1.0643406e+08
   2320000   4.2336968e-10  99921.738      99916.878      101881.64      2.5923489e-06  5.1680667e-07  2.0755422e-06  1.0644197e+08
   2321000   4.2355216e-10  99899.914      99893.055      102528.03      2.592347e-06   5.1725811e-07  2.0750889e-06  1.0643191e+08
   2322000   4.2373465e-10  99893.989      99887.752      102313.74      2.5923459e-06  5.1738011e-07  2.0749658e-06  1.0642915e+08
   2323000   4.2391714e-10  99895.148      99889.102      102251.26      2.5923586e-06  5.1736875e-07  2.0749899e-06  1.0643402e+08
   2324000   4.2409962e-10  99911.869      99907.989      101543.53      2.5923672e-06  5.1703007e-07  2.0753372e-06  1.0643938e+08
   2325000   4.2428211e-10  99908.051      99907.26       100506.54      2.5923576e-06  5.1709971e-07  2.0752579e-06  1.0643505e+08
   2326000   4.244646e-10   99898.807      99902.241      99084.36       2.5923611e-06  5.1729525e-07  2.0750659e-06  1.0643293e+08
   2327000   4.2464708e-10  99891.017      99895.224      98817.902      2.5923702e-06  5.1746613e-07  2.074904e-06   1.0643161e+08
   2328000   4.2482957e-10  99895.896      99902.533      98010.302      2.5923621e-06  5.173567e-07   2.0750054e-06  1.0643195e+08
   2329000   4.2501206e-10  99918.355      99925.247      97947.583      2.5923548e-06  5.1688289e-07  2.0754719e-06  1.0643928e+08
   2330000   4.2519454e-10  99903.137      99908.726      98367.773      2.5923599e-06  5.1720406e-07  2.0751558e-06  1.064333e+08 
   2331000   4.2537703e-10  99927.02       99932.586      98399.81       2.5923579e-06  5.16706e-07    2.0756519e-06  1.0644072e+08
   2332000   4.2555952e-10  99900.385      99905.046      98675.818      2.5923559e-06  5.1725725e-07  2.0750987e-06  1.0643184e+08
   2333000   4.2574201e-10  99894.459      99894.573      100190.44      2.5923564e-06  5.1738083e-07  2.0749756e-06  1.0643233e+08
   2334000   4.2592449e-10  99908.093      99907.537      100428.37      2.5923667e-06  5.1710798e-07  2.0752588e-06  1.0643732e+08
   2335000   4.2610698e-10  99898.21       99898.005      100301.02      2.5923565e-06  5.17303e-07    2.0750535e-06  1.0643245e+08
   2336000   4.2628947e-10  99911.914      99915.672      98989.254      2.5923452e-06  5.1700708e-07  2.0753381e-06  1.0643726e+08
   2337000   4.2647195e-10  99922.227      99927.794      98394.461      2.5923503e-06  5.16798e-07    2.0755523e-06  1.0643734e+08
   2338000   4.2665444e-10  99920.251      99925.934      98353.68       2.5923337e-06  5.1682244e-07  2.0755113e-06  1.0643632e+08
   2339000   4.2683693e-10  99896.778      99901.608      98615.403      2.592339e-06   5.1731531e-07  2.0750237e-06  1.0643044e+08
   2340000   4.2701941e-10  99907.642      99912.253      98699.781      2.5923333e-06  5.1708392e-07  2.0752494e-06  1.06433e+08  
   2341000   4.272019e-10   99902.987      99908.032      98549.705      2.5923173e-06  5.1716461e-07  2.0751527e-06  1.0642992e+08
   2342000   4.2738439e-10  99908.972      99914.169      98504.925      2.5923323e-06  5.1705533e-07  2.075277e-06   1.0643378e+08
   2343000   4.2756687e-10  99890.482      99894.31       98944.282      2.5923572e-06  5.1746428e-07  2.0748929e-06  1.0643183e+08
   2344000   4.2774936e-10  99895.5        99897.312      99623.742      2.5923577e-06  5.1736052e-07  2.0749972e-06  1.0643398e+08
   2345000   4.2793185e-10  99919.872      99919.658      100325.66      2.5923608e-06  5.1685735e-07  2.0755034e-06  1.064397e+08 
   2346000   4.2811434e-10  99906.095      99906.403      100137.19      2.5923384e-06  5.1712113e-07  2.0752173e-06  1.0643087e+08
   2347000   4.2829682e-10  99920.957      99922.534      99727.834      2.5923361e-06  5.1681009e-07  2.075526e-06   1.0643758e+08
   2348000   4.2847931e-10  99910.3        99912.279      99582.499      2.5923644e-06  5.1705984e-07  2.0753046e-06  1.0643665e+08
   2349000   4.286618e-10   99902.885      99904.832      99585.861      2.5923637e-06  5.1721313e-07  2.0751506e-06  1.0643656e+08
   2350000   4.2884428e-10  99913.382      99914.305      99938.83       2.5923676e-06  5.1699902e-07  2.0753686e-06  1.0643884e+08
   2351000   4.2902677e-10  99905.513      99907.728      99498.81       2.5923486e-06  5.1714346e-07  2.0752052e-06  1.0643304e+08
   2352000   4.2920926e-10  99903.345      99905.476      99524.615      2.5923446e-06  5.1718451e-07  2.0751601e-06  1.0643309e+08
   2353000   4.2939174e-10  99905.21       99909.076      98946.52       2.5923497e-06  5.1715087e-07  2.0751989e-06  1.0643508e+08
   2354000   4.2957423e-10  99904.531      99907.009      99409.694      2.5923624e-06  5.1717764e-07  2.0751848e-06  1.06435e+08  
   2355000   4.2975672e-10  99908.585      99910.917      99462.867      2.5923518e-06  5.1708281e-07  2.075269e-06   1.0643673e+08
   2356000   4.299392e-10   99897.089      99901.644      98708.089      2.5923607e-06  5.1733052e-07  2.0750302e-06  1.0643466e+08
   2357000   4.3012169e-10  99913.151      99917.262      98872.218      2.5923191e-06  5.1695524e-07  2.0753638e-06  1.064346e+08 
   2358000   4.3030418e-10  99902.36       99905.547      99170.67       2.592322e-06   5.1718229e-07  2.0751397e-06  1.0642855e+08
   2359000   4.3048667e-10  99909.675      99913.253      99047.11       2.5923213e-06  5.1702966e-07  2.0752916e-06  1.0643166e+08
   2360000   4.3066915e-10  99900.482      99901.9        99760.463      2.5923371e-06  5.1723648e-07  2.0751007e-06  1.0643083e+08
   2361000   4.3085164e-10  99892.134      99894.62       99395.067      2.5923297e-06  5.1740244e-07  2.0749273e-06  1.0642765e+08
   2362000   4.3103413e-10  99904.268      99905.653      99775.161      2.5923538e-06  5.1717453e-07  2.0751793e-06  1.0643448e+08
   2363000   4.3121661e-10  99888.223      99888.422      100156.01      2.592365e-06   5.1751894e-07  2.074846e-06   1.0643175e+08
   2364000   4.313991e-10   99901.579      99899.85       100814.05      2.5923742e-06  5.1725071e-07  2.0751234e-06  1.0643708e+08
   2365000   4.3158159e-10  99910.872      99908.069      101182.59      2.5923709e-06  5.1705445e-07  2.0753165e-06  1.0643811e+08
   2366000   4.3176407e-10  99891.726      99888.786      101209.05      2.5923632e-06  5.1744444e-07  2.0749188e-06  1.064323e+08 
   2367000   4.3194656e-10  99899.443      99897.126      101008.32      2.5923528e-06  5.1727372e-07  2.0750791e-06  1.0643191e+08
   2368000   4.3212905e-10  99930.809      99930.331      100424.8       2.5923355e-06  5.1660494e-07  2.0757306e-06  1.0643707e+08
   2369000   4.3231153e-10  99921.086      99921          100283.79      2.5923218e-06  5.1679318e-07  2.0755286e-06  1.0643345e+08
   2370000   4.3249402e-10  99902.853      99901.299      100756.88      2.5923419e-06  5.1719196e-07  2.0751499e-06  1.0643238e+08
   2371000   4.3267651e-10  99910.906      99909.08       100855.82      2.5923428e-06  5.1702566e-07  2.0753172e-06  1.0643637e+08
   2372000   4.32859e-10    99909.218      99906.834      101040.44      2.5923358e-06  5.1705371e-07  2.0752821e-06  1.0643414e+08
   2373000   4.3304148e-10  99902.128      99897.376      101825.54      2.592325e-06   5.1719012e-07  2.0751349e-06  1.0642983e+08
   2374000   4.3322397e-10  99914.79       99910.267      101761.46      2.5923442e-06  5.169463e-07   2.0753979e-06  1.0643646e+08
   2375000   4.3340646e-10  99906.479      99902.122      101697.75      2.5923465e-06  5.171213e-07   2.0752252e-06  1.0643438e+08
   2376000   4.3358894e-10  99895.674      99890.982      101799.1       2.5923551e-06  5.1735433e-07  2.0750008e-06  1.0643265e+08
   2377000   4.3377143e-10  99896.377      99891.412      101891.19      2.5923707e-06  5.1735534e-07  2.0750154e-06  1.0643581e+08
   2378000   4.3395392e-10  99894.694      99887.688      102571.99      2.5923747e-06  5.1739425e-07  2.0749804e-06  1.0643336e+08
   2379000   4.341364e-10   99893.125      99886.101      102576.48      2.5923598e-06  5.1741196e-07  2.0749479e-06  1.0643237e+08
   2380000   4.3431889e-10  99918.873      99913.874      101925         2.5923627e-06  5.1688001e-07  2.0754827e-06  1.0644127e+08
   2381000   4.3450138e-10  99908.174      99903.195      101907.48      2.5923601e-06  5.170997e-07   2.0752604e-06  1.0643597e+08
   2382000   4.3468387e-10  99911.089      99904.758      102362.57      2.5923646e-06  5.1704366e-07  2.075321e-06   1.064361e+08 
   2383000   4.3486635e-10  99920.272      99915.19       101954.26      2.5923545e-06  5.1684277e-07  2.0755117e-06  1.06439e+08  
   2384000   4.3504884e-10  99891.638      99884.25       102696.45      2.5923634e-06  5.1744641e-07  2.074917e-06   1.0643036e+08
   2385000   4.3523133e-10  99902.452      99896.273      102302.86      2.5923748e-06  5.1723326e-07  2.0751416e-06  1.0643492e+08
   2386000   4.3541381e-10  99897.641      99893.761      101529.31      2.5923796e-06  5.1733798e-07  2.0750416e-06  1.0643446e+08
   2387000   4.355963e-10   99921.82       99920.693      100633.02      2.5923756e-06  5.1683169e-07  2.0755439e-06  1.0644266e+08
   2388000   4.3577879e-10  99914.798      99915.352      100063.51      2.5923669e-06  5.1696887e-07  2.075398e-06   1.0643837e+08
   2389000   4.3596127e-10  99906.302      99909.854      99052.53       2.5923474e-06  5.1712589e-07  2.0752216e-06  1.0643103e+08
   2390000   4.3614376e-10  99912.578      99915.257      99350.888      2.5923431e-06  5.1699115e-07  2.0753519e-06  1.0643492e+08
   2391000   4.3632625e-10  99912.413      99914.214      99644.238      2.5923538e-06  5.1700529e-07  2.0753485e-06  1.0643532e+08
   2392000   4.3650873e-10  99884.399      99884.631      100140.99      2.5923577e-06  5.1759106e-07  2.0747666e-06  1.0642891e+08
   2393000   4.3669122e-10  99890.961      99888.966      100892.1       2.5923532e-06  5.1745031e-07  2.0749029e-06  1.0643052e+08
   2394000   4.3687371e-10  99907.063      99904.138      101219.46      2.59235e-06    5.1711266e-07  2.0752374e-06  1.0643425e+08
   2395000   4.370562e-10   99899.693      99897.39       101004.05      2.5923689e-06  5.1728467e-07  2.0750843e-06  1.0643319e+08
   2396000   4.3723868e-10  99900.119      99893.702      102380.1       2.5923556e-06  5.1726247e-07  2.0750931e-06  1.0643319e+08
   2397000   4.3742117e-10  99883.166      99876.462      102459.33      2.5923598e-06  5.1761879e-07  2.074741e-06   1.0642915e+08
   2398000   4.3760366e-10  99911.202      99904.908      102350.5       2.5923644e-06  5.1704104e-07  2.0753233e-06  1.0643976e+08
   2399000   4.3778614e-10  99906.793      99901.393      102047.03      2.5923641e-06  5.1713235e-07  2.0752318e-06  1.0643568e+08
   2400000   4.3796863e-10  99906.628      99901.438      101976.62      2.5923554e-06  5.1712702e-07  2.0752283e-06  1.0643618e+08
   2401000   4.3815112e-10  99916.377      99910.953      102064.75      2.5923481e-06  5.1691729e-07  2.0754308e-06  1.0643839e+08
   2402000   4.383336e-10   99904.656      99898.501      102297.28      2.5923656e-06  5.1717827e-07  2.0751874e-06  1.0643641e+08
   2403000   4.3851609e-10  99906.719      99900.913      102182.65      2.5923548e-06  5.1712456e-07  2.0752302e-06  1.0643577e+08
   2404000   4.3869858e-10  99911.06       99906.056      101918.87      2.592351e-06   5.1703066e-07  2.0753204e-06  1.0643374e+08
   2405000   4.3888106e-10  99923.075      99919.469      101462.99      2.5923667e-06  5.167968e-07   2.0755699e-06  1.0643939e+08
   2406000   4.3906355e-10  99908.638      99906.194      101060.21      2.592362e-06   5.170919e-07   2.0752701e-06  1.0643491e+08
   2407000   4.3924604e-10  99928.007      99924.912      101297.15      2.5923442e-06  5.1667176e-07  2.0756724e-06  1.0644249e+08
   2408000   4.3942853e-10  99897.15       99893.436      101473.36      2.5923617e-06  5.1733027e-07  2.0750315e-06  1.0643303e+08
   2409000   4.3961101e-10  99909.269      99905.242      101590.26      2.5923603e-06  5.1707706e-07  2.0752832e-06  1.064364e+08 
   2410000   4.397935e-10   99916.532      99911.896      101801.26      2.5923395e-06  5.1690545e-07  2.075434e-06   1.0643498e+08
   2411000   4.3997599e-10  99911.256      99909.13       100956.5       2.5923362e-06  5.1701172e-07  2.0753245e-06  1.0643234e+08
   2412000   4.4015847e-10  99905.432      99903.617      100846.53      2.5923743e-06  5.1717083e-07  2.0752035e-06  1.0643528e+08
   2413000   4.4034096e-10  99923.19       99922.572      100464.01      2.5923584e-06  5.1678607e-07  2.0755723e-06  1.0643853e+08
   2414000   4.4052345e-10  99932.724      99931.838      100563.15      2.5923551e-06  5.1658476e-07  2.0757704e-06  1.0644101e+08
   2415000   4.4070593e-10  99905.41       99903.785      100782.86      2.5923618e-06  5.1715881e-07  2.075203e-06   1.0643363e+08
   2416000   4.4088842e-10  99907.656      99904.202      101397.11      2.5923601e-06  5.171104e-07   2.0752497e-06  1.0643585e+08
   2417000   4.4107091e-10  99910.893      99906.729      101637.43      2.5923575e-06  5.1704059e-07  2.0753169e-06  1.0643459e+08
   2418000   4.4125339e-10  99903.861      99898.278      102105.11      2.5923423e-06  5.1717147e-07  2.0751708e-06  1.0643087e+08
   2419000   4.4143588e-10  99906.838      99902.095      101827.15      2.5923429e-06  5.1711026e-07  2.0752327e-06  1.064313e+08 
   2420000   4.4161837e-10  99922.276      99918.742      101438.15      2.5923441e-06  5.1679077e-07  2.0755534e-06  1.0643849e+08
   2421000   4.4180086e-10  99897.264      99896.526      100477.91      2.5923524e-06  5.173186e-07   2.0750338e-06  1.0642997e+08
   2422000   4.4198334e-10  99918.272      99916.497      100846.24      2.5923805e-06  5.1691027e-07  2.0754702e-06  1.0643975e+08
   2423000   4.4216583e-10  99888.57       99886.657      100862.23      2.5923704e-06  5.1751717e-07  2.0748532e-06  1.0643112e+08
   2424000   4.4234832e-10  99897.626      99896.201      100708.31      2.5923658e-06  5.1732448e-07  2.0750413e-06  1.0643334e+08
   2425000   4.425308e-10   99914.432      99913.021      100720.52      2.5923533e-06  5.1696283e-07  2.0753904e-06  1.0643622e+08
   2426000   4.4271329e-10  99921.483      99919.904      100783.66      2.5923634e-06  5.1682656e-07  2.0755369e-06  1.0643951e+08
   2427000   4.4289578e-10  99912.909      99910.585      101024.46      2.592354e-06   5.1699524e-07  2.0753588e-06  1.0643573e+08
   2428000   4.4307826e-10  99917.09       99912.157      101901.07      2.5923465e-06  5.1690084e-07  2.0754456e-06  1.0643519e+08
   2429000   4.4326075e-10  99908.941      99904.362      101774.3       2.5923461e-06  5.170697e-07   2.0752764e-06  1.0643353e+08
   2430000   4.4344324e-10  99893.23       99887.869      102020.36      2.5923558e-06  5.174058e-07   2.07495e-06    1.0643317e+08
   2431000   4.4362572e-10  99899.319      99895.188      101615.05      2.5923604e-06  5.1728388e-07  2.0750765e-06  1.0643309e+08
   2432000   4.4380821e-10  99922.481      99917.882      101795.06      2.592349e-06   5.1679141e-07  2.0755576e-06  1.0643801e+08
   2433000   4.439907e-10   99906.122      99901.702      101718.4       2.5923465e-06  5.1712865e-07  2.0752178e-06  1.0643374e+08
   2434000   4.4417319e-10  99898.831      99895.648      101297.72      2.5923497e-06  5.1728335e-07  2.0750664e-06  1.0643216e+08
   2435000   4.4435567e-10  99907.482      99905.903      100769.71      2.5923455e-06  5.1709949e-07  2.0752461e-06  1.0643406e+08
   2436000   4.4453816e-10  99900.877      99899.148      100813         2.5923567e-06  5.172478e-07   2.0751089e-06  1.0643356e+08
   2437000   4.4472065e-10  99909.818      99908.379      100725.24      2.5923809e-06  5.1708628e-07  2.0752946e-06  1.0643873e+08
   2438000   4.4490313e-10  99906.22       99906.789      100050.08      2.5923657e-06  5.171459e-07   2.0752198e-06  1.0643651e+08
   2439000   4.4508562e-10  99904.453      99903.378      100598.18      2.5923643e-06  5.1718118e-07  2.0751831e-06  1.0643337e+08
   2440000   4.4526811e-10  99907.212      99903.34       101536.52      2.5923496e-06  5.1710918e-07  2.0752405e-06  1.0643245e+08
   2441000   4.4545059e-10  99914.557      99909.8        101839.68      2.5923446e-06  5.1695157e-07  2.075393e-06   1.0643539e+08
   2442000   4.4563308e-10  99901.242      99898.061      101299.1       2.5923402e-06  5.172238e-07   2.0751165e-06  1.0643087e+08
   2443000   4.4581557e-10  99912.245      99909.197      101265.6       2.5923576e-06  5.170126e-07   2.075345e-06   1.0643575e+08
   2444000   4.4599805e-10  99910.391      99905.834      101768.76      2.5923672e-06  5.1706068e-07  2.0753065e-06  1.0643629e+08
   2445000   4.4618054e-10  99913.104      99909.023      101612.37      2.592371e-06   5.1700817e-07  2.0753628e-06  1.0643836e+08
   2446000   4.4636303e-10  99909.109      99905.999      101283.44      2.5923528e-06  5.1707299e-07  2.0752799e-06  1.0643747e+08
   2447000   4.4654552e-10  99913.386      99912.317      100605.25      2.5923837e-06  5.1701498e-07  2.0753687e-06  1.0643903e+08
   2448000   4.46728e-10    99905.824      99903.987      100854.41      2.5923689e-06  5.1715726e-07  2.0752116e-06  1.0643634e+08
   2449000   4.4691049e-10  99904.312      99902.826      100735.27      2.5923625e-06  5.1718226e-07  2.0751802e-06  1.0643632e+08
   2450000   4.4709298e-10  99901.116      99901.592      100076.07      2.5923626e-06  5.1724875e-07  2.0751138e-06  1.0643512e+08
   2451000   4.4727546e-10  99915.976      99916.953      99923.351      2.5923448e-06  5.1692231e-07  2.0754225e-06  1.0643616e+08
   2452000   4.4745795e-10  99895.913      99895.991      100203.9       2.5923413e-06  5.1733559e-07  2.0750058e-06  1.0642928e+08
   2453000   4.4764044e-10  99922.892      99925.474      99393.528      2.5923488e-06  5.1678269e-07  2.0755662e-06  1.0643881e+08
   2454000   4.4782292e-10  99921.068      99924.362      99153.607      2.5923447e-06  5.1681645e-07  2.0755283e-06  1.0643824e+08
   2455000   4.4800541e-10  99906.682      99909.884      99170.042      2.5923468e-06  5.1711737e-07  2.0752294e-06  1.0643375e+08
   2456000   4.481879e-10   99904.042      99907.1        99215.256      2.5923707e-06  5.171961e-07   2.0751746e-06  1.0643435e+08
   2457000   4.4837038e-10  99890.764      99890.797      100213.67      2.5923592e-06  5.1746037e-07  2.0748988e-06  1.0643236e+08
   2458000   4.4855287e-10  99905.748      99903.378      101032.66      2.592367e-06   5.1715693e-07  2.07521e-06    1.0643739e+08
   2459000   4.4873536e-10  99901.515      99896.609      101876.41      2.5923687e-06  5.1724658e-07  2.0751221e-06  1.0643549e+08
   2460000   4.4891785e-10  99899.684      99896.624      101256.97      2.5923796e-06  5.1729554e-07  2.0750841e-06  1.0643564e+08
   2461000   4.4910033e-10  99915.88       99912.458      101394.8       2.5923671e-06  5.1694661e-07  2.0754205e-06  1.0643994e+08
   2462000   4.4928282e-10  99905.461      99902.528      101220.57      2.5923635e-06  5.1715945e-07  2.0752041e-06  1.0643577e+08
   2463000   4.4946531e-10  99912.486      99911.362      100622.44      2.5923491e-06  5.1699911e-07  2.07535e-06    1.0643491e+08
   2464000   4.4964779e-10  99923.146      99922.185      100578.67      2.5923235e-06  5.1675207e-07  2.0755714e-06  1.0643705e+08
   2465000   4.4983028e-10  99911.938      99913.49       99727.172      2.592335e-06   5.1699636e-07  2.0753386e-06  1.0643261e+08
   2466000   4.5001277e-10  99897.902      99899.791      99600.163      2.5923455e-06  5.1729845e-07  2.0750471e-06  1.0642873e+08
   2467000   4.5019525e-10  99906.696      99908.395      99672.532      2.5923544e-06  5.1712469e-07  2.0752297e-06  1.0643446e+08
   2468000   4.5037774e-10  99895.391      99896.856      99739.716      2.5923538e-06  5.1735885e-07  2.0749949e-06  1.0643271e+08
   2469000   4.5056023e-10  99896.995      99899.207      99491.065      2.5923531e-06  5.1732491e-07  2.0750282e-06  1.064349e+08 
   2470000   4.5074271e-10  99899.187      99900.535      99782.423      2.5923658e-06  5.1729207e-07  2.0750738e-06  1.0643196e+08
   2471000   4.509252e-10   99922.02       99924.486      99431.551      2.5923641e-06  5.1681608e-07  2.075548e-06   1.0644151e+08
   2472000   4.5110769e-10  99900.316      99900.694      100108.1       2.5923799e-06  5.1728264e-07  2.0750972e-06  1.064356e+08 
   2473000   4.5129018e-10  99901.526      99901.507      100242.23      2.592371e-06   5.1724865e-07  2.0751224e-06  1.0643561e+08
   2474000   4.5147266e-10  99887.825      99888.734      99918.045      2.5923792e-06  5.1754142e-07  2.0748378e-06  1.0643006e+08
   2475000   4.5165515e-10  99907.416      99909.02       99705.286      2.5923757e-06  5.1713105e-07  2.0752447e-06  1.0643626e+08
   2476000   4.5183764e-10  99916.232      99918.066      99637.044      2.5923686e-06  5.169408e-07   2.0754278e-06  1.0643884e+08
   2477000   4.5202012e-10  99907.901      99910.782      99278.502      2.592373e-06   5.171182e-07   2.0752548e-06  1.0643871e+08
   2478000   4.5220261e-10  99903.665      99909.424      98311.742      2.5923603e-06  5.1719351e-07  2.0751668e-06  1.0643585e+08
   2479000   4.523851e-10   99919.808      99926.736      97936.884      2.5923604e-06  5.1685834e-07  2.0755021e-06  1.0643786e+08
   2480000   4.5256758e-10  99924.005      99930.374      98128.083      2.5923546e-06  5.1676535e-07  2.0755893e-06  1.0643921e+08
   2481000   4.5275007e-10  99902.907      99908.151      98483.358      2.5923605e-06  5.1720942e-07  2.075151e-06   1.064322e+08 
   2482000   4.5293256e-10  99894.033      99897.506      99066.623      2.5923611e-06  5.1739436e-07  2.0749667e-06  1.0643243e+08
   2483000   4.5311504e-10  99908.583      99911.88       99139.96       2.5923614e-06  5.1709244e-07  2.0752689e-06  1.0643521e+08
   2484000   4.5329753e-10  99903.454      99908.063      98696.137      2.5923712e-06  5.1720877e-07  2.0751624e-06  1.0643316e+08
   2485000   4.5348002e-10  99927.244      99933.201      98269.02       2.5923655e-06  5.1670894e-07  2.0756566e-06  1.064411e+08 
   2486000   4.5366251e-10  99918.967      99926.742      97652.773      2.5923519e-06  5.1686724e-07  2.0754846e-06  1.0643789e+08
   2487000   4.5384499e-10  99916.217      99924.694      97415.325      2.5923542e-06  5.1692667e-07  2.0754275e-06  1.0643554e+08
   2488000   4.5402748e-10  99913.522      99919.87       98124.596      2.59236e-06    5.1698844e-07  2.0753715e-06  1.0643693e+08
   2489000   4.5420997e-10  99899.819      99906.546      97984.294      2.5923545e-06  5.1726758e-07  2.0750869e-06  1.064327e+08 
   2490000   4.5439245e-10  99909.767      99916.248      98076.32       2.5923583e-06  5.170648e-07   2.0752935e-06  1.064358e+08 
   2491000   4.5457494e-10  99909.643      99915.554      98266.975      2.5923594e-06  5.1706848e-07  2.075291e-06   1.0643658e+08
   2492000   4.5475743e-10  99897.185      99901.872      98663.547      2.5923608e-06  5.1732863e-07  2.0750322e-06  1.0643121e+08
   2493000   4.5493991e-10  99898.355      99903.905      98376.545      2.592357e-06   5.173005e-07   2.0750565e-06  1.0643202e+08
   2494000   4.551224e-10   99901.792      99909.696      97592.602      2.5923579e-06  5.1723003e-07  2.0751279e-06  1.0643299e+08
   2495000   4.5530489e-10  99900.766      99908.853      97529.996      2.5923543e-06  5.1724773e-07  2.0751066e-06  1.0643064e+08
   2496000   4.5548737e-10  99915.661      99922.576      97937.126      2.5923404e-06  5.1692447e-07  2.075416e-06   1.0643518e+08
   2497000   4.5566986e-10  99890.225      99897.027      97949.488      2.5923611e-06  5.1747352e-07  2.0748876e-06  1.0643044e+08
   2498000   4.5585235e-10  99918.14       99923.117      98587.554      2.5923578e-06  5.1689032e-07  2.0754674e-06  1.0643948e+08
   2499000   4.5603484e-10  99907.173      99910.952      98977.453      2.5923546e-06  5.1711499e-07  2.0752396e-06  1.0643363e+08
   2500000   4.5621732e-10  99910.759      99911.019      100157.89      2.5923649e-06  5.1705075e-07  2.0753141e-06  1.064373e+08 
   2501000   4.5639981e-10  99902.932      99903.301      100113.65      2.5923907e-06  5.1723914e-07  2.0751515e-06  1.0643705e+08
   2502000   4.565823e-10   99927.24       99929.616      99466.754      2.5923665e-06  5.1671008e-07  2.0756565e-06  1.0644245e+08
   2503000   4.5676478e-10  99916.327      99918.408      99554.654      2.5923494e-06  5.1691957e-07  2.0754298e-06  1.0643757e+08
   2504000   4.5694727e-10  99906.762      99908.704      99591.368      2.5923505e-06  5.1711938e-07  2.0752311e-06  1.0643267e+08
   2505000   4.5712976e-10  99905.187      99905.193      100237.2       2.5923465e-06  5.1714809e-07  2.0751984e-06  1.0643207e+08
   2506000   4.5731224e-10  99930.18       99931.698      99756.796      2.5923586e-06  5.1664103e-07  2.0757175e-06  1.0644391e+08
   2507000   4.5749473e-10  99892.585      99895.943      99103.601      2.5923555e-06  5.1741884e-07  2.0749366e-06  1.0643194e+08
   2508000   4.5767722e-10  99892.8        99895.662      99269.758      2.5923525e-06  5.1741141e-07  2.0749411e-06  1.0643192e+08
   2509000   4.5785971e-10  99904.419      99907.693      99143.522      2.5923366e-06  5.1715419e-07  2.0751824e-06  1.0643448e+08
   2510000   4.5804219e-10  99893.383      99897.228      98941.583      2.5923451e-06  5.1739188e-07  2.0749532e-06  1.0642822e+08
   2511000   4.5822468e-10  99916.252      99918.75       99414.997      2.5923533e-06  5.1692509e-07  2.0754282e-06  1.0643695e+08
   2512000   4.5840717e-10  99915.426      99916.328      99947.89       2.592349e-06   5.1693792e-07  2.0754111e-06  1.0643768e+08
   2513000   4.5858965e-10  99908.987      99908.997      100239.78      2.5923505e-06  5.1707318e-07  2.0752773e-06  1.0643596e+08
   2514000   4.5877214e-10  99906.335      99905.867      100397.1       2.5923554e-06  5.1713316e-07  2.0752222e-06  1.0643299e+08
   2515000   4.5895463e-10  99920.658      99917.904      101175.71      2.5923506e-06  5.1683081e-07  2.0755197e-06  1.064381e+08 
   2516000   4.5913711e-10  99908.3        99904.018      101674.61      2.5923548e-06  5.1709176e-07  2.0752631e-06  1.0643735e+08
   2517000   4.593196e-10   99908.868      99904.344      101756.13      2.5923555e-06  5.1708065e-07  2.0752749e-06  1.0643504e+08
   2518000   4.5950209e-10  99913.148      99910.02       101293.64      2.5923552e-06  5.1699147e-07  2.0753638e-06  1.0643626e+08
   2519000   4.5968457e-10  99897.769      99894.906      101189.46      2.592346e-06   5.1730166e-07  2.0750443e-06  1.0643089e+08
   2520000   4.5986706e-10  99898.972      99896.292      101129.32      2.5923915e-06  5.173222e-07   2.0750693e-06  1.0643685e+08
   2521000   4.6004955e-10  99894.906      99891.55       101351.42      2.5923636e-06  5.1737873e-07  2.0749848e-06  1.0643438e+08
   2522000   4.6023204e-10  99889.031      99883.833      101961.39      2.5923807e-06  5.1751792e-07  2.0748628e-06  1.0643388e+08
   2523000   4.6041452e-10  99900.9        99895.381      102080.63      2.5923535e-06  5.1724421e-07  2.0751093e-06  1.0643583e+08
   2524000   4.6059701e-10  99900.534      99895.052      102068.03      2.5923694e-06  5.1726763e-07  2.0751017e-06  1.0643508e+08
   2525000   4.607795e-10   99903.528      99896.287      102659.16      2.5923738e-06  5.1720991e-07  2.0751639e-06  1.0643504e+08
   2526000   4.6096198e-10  99910.68       99901.728      103238.89      2.5923611e-06  5.1704862e-07  2.0753125e-06  1.0643584e+08
   2527000   4.6114447e-10  99908.121      99898.47       103469.99      2.5923501e-06  5.1709071e-07  2.0752593e-06  1.0643305e+08
   2528000   4.6132696e-10  99916.446      99909.597      102541.09      2.5923568e-06  5.1692453e-07  2.0754323e-06  1.0643861e+08
   2529000   4.6150944e-10  99905.499      99898.229      102671.13      2.592352e-06   5.1714714e-07  2.0752049e-06  1.0643374e+08
   2530000   4.6169193e-10  99904.192      99894.927      103336.8       2.5923322e-06  5.1715452e-07  2.0751777e-06  1.0642933e+08
   2531000   4.6187442e-10  99908.022      99898.484      103432.25      2.5923591e-06  5.1710181e-07  2.0752573e-06  1.0643477e+08
   2532000   4.620569e-10   99892.494      99882.378      103609.74      2.5923411e-06  5.1740641e-07  2.0749347e-06  1.0642937e+08
   2533000   4.6223939e-10  99908.043      99896.791      104005.61      2.5923521e-06  5.1709434e-07  2.0752577e-06  1.0643222e+08
   2534000   4.6242188e-10  99912.678      99899.581      104626.92      2.5923332e-06  5.1697925e-07  2.075354e-06   1.0643536e+08
   2535000   4.6260437e-10  99912.427      99897.053      105388.25      2.5923531e-06  5.1700431e-07  2.0753488e-06  1.06435e+08  
   2536000   4.6278685e-10  99918.238      99902.381      105555.64      2.5923347e-06  5.1686523e-07  2.0754695e-06  1.06436e+08  
   2537000   4.6296934e-10  99899.604      99884.272      105361.33      2.5923459e-06  5.1726345e-07  2.0750824e-06  1.0642805e+08
   2538000   4.6315183e-10  99894.149      99880.661      104739.35      2.5923455e-06  5.1737639e-07  2.0749691e-06  1.0642851e+08
   2539000   4.6333431e-10  99909.219      99896.51       104494.09      2.5923507e-06  5.170685e-07   2.0752822e-06  1.0643553e+08
   2540000   4.635168e-10   99908.861      99896.187      104481.92      2.5923609e-06  5.1708619e-07  2.0752747e-06  1.0643703e+08
   2541000   4.6369929e-10  99904.431      99888.381      105606.29      2.5923696e-06  5.1718689e-07  2.0751827e-06  1.0643529e+08
   2542000   4.6388177e-10  99905.876      99889.081      105856.83      2.5923517e-06  5.1713896e-07  2.0752127e-06  1.0643497e+08
   2543000   4.6406426e-10  99908.478      99892.132      105709.4       2.5923548e-06  5.1708807e-07  2.0752667e-06  1.0643398e+08
   2544000   4.6424675e-10  99924.253      99907.685      105799.54      2.5923632e-06  5.1676874e-07  2.0755944e-06  1.0644121e+08
   2545000   4.6442923e-10  99892.913      99875.48       106057.45      2.5923678e-06  5.1742439e-07  2.0749435e-06  1.0643273e+08
   2546000   4.6461172e-10  99908.196      99887.941      107016.55      2.5923661e-06  5.1710523e-07  2.0752609e-06  1.0643688e+08
   2547000   4.6479421e-10  99916.492      99892.695      108209.53      2.592351e-06   5.1691774e-07  2.0754332e-06  1.0643544e+08
   2548000   4.649767e-10   99914.752      99890.17       108470.35      2.5923398e-06  5.1694276e-07  2.0753971e-06  1.0643501e+08
   2549000   4.6515918e-10  99903.198      99879.001      108330.09      2.5923442e-06  5.171871e-07   2.0751571e-06  1.064313e+08 
   2550000   4.6534167e-10  99900.162      99876.488      108151.97      2.5923573e-06  5.1726331e-07  2.075094e-06   1.0643252e+08
   2551000   4.6552416e-10  99908.649      99885.616      107946.01      2.5923698e-06  5.1709947e-07  2.0752703e-06  1.0643584e+08
   2552000   4.6570664e-10  99904.698      99883.854      107209.84      2.5923407e-06  5.1715249e-07  2.0751882e-06  1.0643249e+08
   2553000   4.6588913e-10  99912.417      99891.997      107076.03      2.5923667e-06  5.1701816e-07  2.0753486e-06  1.0643638e+08
   2554000   4.6607162e-10  99911.64       99891.085      107120.4       2.5923488e-06  5.1701637e-07  2.0753324e-06  1.0643403e+08
   2555000   4.662541e-10   99918.95       99897.045      107579.23      2.592331e-06   5.1684673e-07  2.0754843e-06  1.0643305e+08
   2556000   4.6643659e-10  99920.659      99895.914      108530.56      2.5923385e-06  5.1681874e-07  2.0755198e-06  1.0643533e+08
   2557000   4.6661908e-10  99924.98       99899.563      108759.58      2.592347e-06   5.1673744e-07  2.0756095e-06  1.0643965e+08
   2558000   4.6680156e-10  99926.614      99900.382      109033.7       2.5923392e-06  5.1669573e-07  2.0756435e-06  1.0643964e+08
   2559000   4.6698405e-10  99902.91       99876.346      109121.16      2.5923574e-06  5.1720628e-07  2.0751511e-06  1.064333e+08 
   2560000   4.6716654e-10  99907.743      99882.408      108714.95      2.5923548e-06  5.171033e-07   2.0752515e-06  1.064343e+08 
   2561000   4.6734903e-10  99908.161      99882.91       108687.55      2.5923622e-06  5.1710203e-07  2.0752602e-06  1.0643474e+08
   2562000   4.6753151e-10  99905.12       99883.235      107558.42      2.592331e-06   5.1713397e-07  2.075197e-06   1.0643214e+08
   2563000   4.67714e-10    99886.476      99865.308      107300.02      2.5923485e-06  5.1753881e-07  2.0748097e-06  1.0642903e+08
   2564000   4.6789649e-10  99912.041      99890.816      107344.58      2.5923632e-06  5.1702246e-07  2.0753408e-06  1.0643858e+08
   2565000   4.6807897e-10  99904.438      99885.8        106472.16      2.5923432e-06  5.1716035e-07  2.0751828e-06  1.0642914e+08
   2566000   4.6826146e-10  99923.259      99904.733      106453.55      2.5923558e-06  5.1678203e-07  2.0755738e-06  1.0643792e+08
   2567000   4.6844395e-10  99911.939      99893.332      106469.31      2.5923489e-06  5.1701024e-07  2.0753386e-06  1.0643544e+08
   2568000   4.6862643e-10  99909.694      99892.074      106136.65      2.5923617e-06  5.1706967e-07  2.075292e-06   1.064347e+08 
   2569000   4.6880892e-10  99919.147      99900.502      106489.06      2.5923636e-06  5.1687527e-07  2.0754884e-06  1.0643839e+08
   2570000   4.6899141e-10  99917.825      99900.374      106088.4       2.5923432e-06  5.1688234e-07  2.0754609e-06  1.0643608e+08
   2571000   4.6917389e-10  99921.019      99905.705      105376.81      2.5923187e-06  5.1679148e-07  2.0755272e-06  1.0643345e+08
   2572000   4.6935638e-10  99910.066      99897.03       104604.3       2.5923349e-06  5.1703517e-07  2.0752997e-06  1.0643222e+08
   2573000   4.6953887e-10  99911.487      99900.396      103955.02      2.5923368e-06  5.1700756e-07  2.0753293e-06  1.0643508e+08
   2574000   4.6972136e-10  99907.094      99898.651      103064.95      2.5923637e-06  5.171257e-07   2.075238e-06   1.0643503e+08
   2575000   4.6990384e-10  99906.505      99899.185      102688.76      2.5923714e-06  5.1714563e-07  2.0752258e-06  1.064356e+08 
   2576000   4.7008633e-10  99906.021      99898.205      102854.16      2.5923643e-06  5.1714863e-07  2.0752157e-06  1.0643702e+08
   2577000   4.7026882e-10  99890.077      99882.64       102711.61      2.5923811e-06  5.1749656e-07  2.0748845e-06  1.0643424e+08
   2578000   4.704513e-10   99901.753      99894.178      102769.35      2.5923777e-06  5.1725062e-07  2.0751271e-06  1.0643852e+08
   2579000   4.7063379e-10  99904.864      99898.795      102268.62      2.592374e-06   5.1718232e-07  2.0751917e-06  1.0643678e+08
   2580000   4.7081628e-10  99916.89       99911.165      102165.58      2.5923621e-06  5.1692065e-07  2.0754415e-06  1.064376e+08 
   2581000   4.7099876e-10  99911.098      99904.485      102456.66      2.5923565e-06  5.1703537e-07  2.0753212e-06  1.0643664e+08
   2582000   4.7118125e-10  99905.557      99898.052      102749.52      2.5923509e-06  5.1714486e-07  2.0752061e-06  1.0643375e+08
   2583000   4.7136374e-10  99931.096      99923.402      102838.49      2.592344e-06   5.1660739e-07  2.0757366e-06  1.064406e+08 
   2584000   4.7154622e-10  99896.079      99888.585      102736.57      2.5923604e-06  5.1735118e-07  2.0750092e-06  1.0643257e+08
   2585000   4.7172871e-10  99893.287      99887.864      102040.96      2.5923673e-06  5.1741609e-07  2.0749512e-06  1.064327e+08 
   2586000   4.719112e-10   99913.793      99913.075      100488.13      2.5923722e-06  5.1699502e-07  2.0753772e-06  1.0643952e+08
   2587000   4.7209369e-10  99912.563      99911.629      100558.82      2.5923625e-06  5.1701093e-07  2.0753516e-06  1.0643656e+08
   2588000   4.7227617e-10  99925.275      99922.049      101338.35      2.5923704e-06  5.1675472e-07  2.0756157e-06  1.0644096e+08
   2589000   4.7245866e-10  99899.328      99898.023      100670.11      2.5923592e-06  5.1728252e-07  2.0750767e-06  1.0643265e+08
   2590000   4.7264115e-10  99889.118      99887.251      100847.82      2.5923827e-06  5.1751813e-07  2.0748646e-06  1.0643447e+08
   2591000   4.7282363e-10  99906.994      99907.4        100105.31      2.5923947e-06  5.1715876e-07  2.0752359e-06  1.0644178e+08
   2592000   4.7300612e-10  99905.056      99905.563      100069.81      2.5923757e-06  5.1718004e-07  2.0751957e-06  1.0643733e+08
   2593000   4.7318861e-10  99907.035      99906.264      100499.15      2.5923845e-06  5.1714772e-07  2.0752368e-06  1.064407e+08 
   2594000   4.7337109e-10  99901.281      99898.456      101180.18      2.5923652e-06  5.1724797e-07  2.0751173e-06  1.0643552e+08
   2595000   4.7355358e-10  99904.82       99900.301      101750.28      2.5923814e-06  5.1719063e-07  2.0751908e-06  1.0643657e+08
   2596000   4.7373607e-10  99895.46       99890.404      101920.61      2.5923669e-06  5.1737051e-07  2.0749963e-06  1.0643251e+08
   2597000   4.7391855e-10  99906.052      99900.612      102059.89      2.5923471e-06  5.1713072e-07  2.0752164e-06  1.0643405e+08
   2598000   4.7410104e-10  99906.31       99901.678      101789.4       2.5923538e-06  5.1713208e-07  2.0752217e-06  1.0643263e+08
   2599000   4.7428353e-10  99926.283      99922.091      101662.45      2.5923427e-06  5.1670614e-07  2.0756366e-06  1.0643816e+08
   2600000   4.7446602e-10  99914.905      99910.234      101811.11      2.5923535e-06  5.1695323e-07  2.0754003e-06  1.0643478e+08
   2601000   4.746485e-10   99899.293      99895.969      101345.25      2.5923636e-06  5.1728767e-07  2.075076e-06   1.0643211e+08
   2602000   4.7483099e-10  99916.472      99914.861      100789.51      2.5923574e-06  5.169246e-07   2.0754328e-06  1.0643566e+08
   2603000   4.7501348e-10  99900.834      99899.43       100704.47      2.5923608e-06  5.1725282e-07  2.075108e-06   1.0643414e+08
   2604000   4.7519596e-10  99908.121      99907.517      100444.11      2.5923656e-06  5.1710631e-07  2.0752593e-06  1.0643733e+08
   2605000   4.7537845e-10  99886.054      99885.098      100539.66      2.592346e-06   5.1754506e-07  2.074801e-06   1.0642685e+08
   2606000   4.7556094e-10  99901.697      99899.114      101099.53      2.5923565e-06  5.1723064e-07  2.0751259e-06  1.0643314e+08
   2607000   4.7574342e-10  99917.629      99914.603      101263.85      2.5923533e-06  5.1689649e-07  2.0754568e-06  1.0644057e+08
   2608000   4.7592591e-10  99906.12       99901.646      101736.35      2.592357e-06   5.1713928e-07  2.0752178e-06  1.0643619e+08
   2609000   4.761084e-10   99908.335      99902.384      102232.74      2.592337e-06   5.1707327e-07  2.0752638e-06  1.0643426e+08
   2610000   4.7629088e-10  99915.993      99910.655      102035.65      2.5923387e-06  5.1691584e-07  2.0754229e-06  1.0643433e+08
   2611000   4.7647337e-10  99926.812      99922.167      101814.44      2.5923462e-06  5.1669864e-07  2.0756476e-06  1.0643805e+08
   2612000   4.7665586e-10  99926.27       99923.802      101085.66      2.5923544e-06  5.1671809e-07  2.0756363e-06  1.0643909e+08
   2613000   4.7683835e-10  99919.386      99917.045      101036.61      2.5923603e-06  5.1686702e-07  2.0754933e-06  1.0643819e+08
   2614000   4.7702083e-10  99903.147      99898.934      101646.12      2.5923537e-06  5.1719773e-07  2.075156e-06   1.0643335e+08
   2615000   4.7720332e-10  99919.416      99915.377      101604.36      2.5923647e-06  5.1687077e-07  2.075494e-06   1.0643936e+08
   2616000   4.7738581e-10  99908.419      99903.695      101822.49      2.5923725e-06  5.1710694e-07  2.0752655e-06  1.0643486e+08
   2617000   4.7756829e-10  99906.771      99902.262      101749.04      2.5923474e-06  5.1711607e-07  2.0752313e-06  1.0643437e+08
   2618000   4.7775078e-10  99911.778      99909.201      101107.97      2.592349e-06   5.1701372e-07  2.0753353e-06  1.0643512e+08
   2619000   4.7793327e-10  99912.872      99910.893      100908.83      2.5923291e-06  5.1697112e-07  2.075358e-06   1.0643478e+08
   2620000   4.7811575e-10  99902.485      99900.447      100917.94      2.5923647e-06  5.1722247e-07  2.0751423e-06  1.0643243e+08
   2621000   4.7829824e-10  99896.161      99894.286      100857.34      2.5923467e-06  5.1733577e-07  2.0750109e-06  1.0642833e+08
   2622000   4.7848073e-10  99925.887      99924.425      100749.04      2.5923552e-06  5.1672679e-07  2.0756284e-06  1.0643922e+08
   2623000   4.7866321e-10  99911.232      99909.495      100826.59      2.5923534e-06  5.1702947e-07  2.075324e-06   1.0643499e+08
   2624000   4.788457e-10   99917.843      99917.484      100372.18      2.5923462e-06  5.1688496e-07  2.0754613e-06  1.0643823e+08
   2625000   4.7902819e-10  99890.055      99890.665      100020.1       2.5923432e-06  5.1745915e-07  2.0748841e-06  1.0642697e+08
   2626000   4.7921068e-10  99918.963      99922.714      98998.648      2.5923478e-06  5.1686323e-07  2.0754845e-06  1.0643546e+08
   2627000   4.7939316e-10  99908.673      99911.971      99139.732      2.5923593e-06  5.170885e-07   2.0752708e-06  1.0643534e+08
   2628000   4.7957565e-10  99895.163      99897.025      99606.533      2.5923614e-06  5.1737124e-07  2.0749902e-06  1.0643313e+08
   2629000   4.7975814e-10  99911.062      99913.528      99420.348      2.5923556e-06  5.1703515e-07  2.0753204e-06  1.0643487e+08
   2630000   4.7994062e-10  99894.523      99899.312      98626.939      2.5923438e-06  5.1736696e-07  2.0749769e-06  1.0642832e+08
   2631000   4.8012311e-10  99902.735      99909.022      98134.198      2.592339e-06   5.1719151e-07  2.0751475e-06  1.0642908e+08
   2632000   4.803056e-10   99920.792      99930.114      97137.139      2.5923323e-06  5.1680978e-07  2.0755225e-06  1.0643491e+08
   2633000   4.8048808e-10  99911.509      99921.039      97058.327      2.5923379e-06  5.1700818e-07  2.0753297e-06  1.0643341e+08
   2634000   4.8067057e-10  99903.236      99911.618      97434.165      2.5923461e-06  5.171882e-07   2.0751579e-06  1.0643135e+08
   2635000   4.8085306e-10  99922.9        99932.266      97124.453      2.5923435e-06  5.1677716e-07  2.0755663e-06  1.064377e+08 
   2636000   4.8103554e-10  99904.927      99913.704      97303.6        2.5923596e-06  5.1716661e-07  2.075193e-06   1.0643335e+08
   2637000   4.8121803e-10  99907.902      99918.293      96766.824      2.5923786e-06  5.1712382e-07  2.0752548e-06  1.0643789e+08
   2638000   4.8140052e-10  99924.223      99934.471      96831.165      2.5923694e-06  5.1677562e-07  2.0755938e-06  1.0644391e+08
   2639000   4.8158301e-10  99903.534      99912.537      97226.733      2.5923484e-06  5.1718434e-07  2.0751641e-06  1.0643221e+08
   2640000   4.8176549e-10  99917.119      99926.767      97024.65       2.592352e-06   5.1690571e-07  2.0754462e-06  1.0643764e+08
   2641000   4.8194798e-10  99901.609      99913.276      96333.613      2.5923492e-06  5.1722517e-07  2.0751241e-06  1.0643033e+08
   2642000   4.8213047e-10  99916.471      99929.017      96054.832      2.5923443e-06  5.1691154e-07  2.0754328e-06  1.0643474e+08
   2643000   4.8231295e-10  99911.27       99924.1        95954.39       2.5923418e-06  5.1701703e-07  2.0753247e-06  1.0643526e+08
   2644000   4.8249544e-10  99909.643      99922.678      95884.381      2.5923414e-06  5.1705048e-07  2.075291e-06   1.0643497e+08
   2645000   4.8267793e-10  99905.935      99919.592      95672.619      2.5923537e-06  5.1713978e-07  2.0752139e-06  1.064341e+08 
   2646000   4.8286041e-10  99923.937      99937.494      95724.022      2.5923512e-06  5.1676332e-07  2.0755879e-06  1.0643815e+08
   2647000   4.830429e-10   99904.949      99916.878      96249.393      2.592352e-06   5.1715852e-07  2.0751935e-06  1.0643205e+08
   2648000   4.8322539e-10  99906.351      99917.007      96676.558      2.5923528e-06  5.1713023e-07  2.0752226e-06  1.064343e+08 
   2649000   4.8340788e-10  99918.8        99931.412      96034.957      2.5923558e-06  5.1687467e-07  2.0754811e-06  1.0643766e+08
   2650000   4.8359036e-10  99919.484      99931.466      96246.219      2.5923448e-06  5.1684944e-07  2.0754954e-06  1.0643605e+08
   2651000   4.8377285e-10  99910.739      99923.841      95862.967      2.5923538e-06  5.1704013e-07  2.0753137e-06  1.0643404e+08
   2652000   4.8395534e-10  99902.74       99916.903      95500.106      2.5923674e-06  5.1721983e-07  2.0751476e-06  1.0643358e+08
   2653000   4.8413782e-10  99895.293      99909.956      95325.425      2.5923789e-06  5.1738603e-07  2.0749929e-06  1.0643334e+08
   2654000   4.8432031e-10  99914.047      99929.1        95213.766      2.5923629e-06  5.1698052e-07  2.0753824e-06  1.064397e+08 
   2655000   4.845028e-10   99902.501      99917.402      95253.042      2.5923781e-06  5.1723551e-07  2.0751426e-06  1.0643654e+08
   2656000   4.8468528e-10  99928.889      99943.341      95429.981      2.59237e-06    5.1667929e-07  2.0756907e-06  1.0644388e+08
   2657000   4.8486777e-10  99913.492      99929.13       95017.591      2.5923755e-06  5.1700457e-07  2.0753709e-06  1.0643778e+08
   2658000   4.8505026e-10  99913.453      99928.349      95265.88       2.5923483e-06  5.1697816e-07  2.0753701e-06  1.0643798e+08
   2659000   4.8523274e-10  99905.213      99918.249      95879.389      2.5923506e-06  5.1715171e-07  2.0751989e-06  1.0643361e+08
   2660000   4.8541523e-10  99898.826      99912.769      95569.753      2.5923597e-06  5.1729345e-07  2.0750663e-06  1.0643377e+08
   2661000   4.8559772e-10  99891.758      99906.275      95370.738      2.5923625e-06  5.1744305e-07  2.0749194e-06  1.0643293e+08
   2662000   4.8578021e-10  99905.737      99919.835      95524.779      2.592368e-06   5.1715817e-07  2.0752098e-06  1.0643581e+08
   2663000   4.8596269e-10  99900.075      99915.978      94915.524      2.5923661e-06  5.1727391e-07  2.0750922e-06  1.0643502e+08
   2664000   4.8614518e-10  99893.417      99908.544      95168.269      2.5923722e-06  5.1741826e-07  2.0749539e-06  1.0643317e+08
   2665000   4.8632767e-10  99904.302      99920.768      94731.387      2.5923521e-06  5.171721e-07   2.07518e-06    1.0643303e+08
   2666000   4.8651015e-10  99916.164      99933.478      94459.918      2.5923469e-06  5.169205e-07   2.0754264e-06  1.0643456e+08
   2667000   4.8669264e-10  99891.538      99906.564      95200.27       2.5923291e-06  5.1741418e-07  2.0749149e-06  1.0642698e+08
   2668000   4.8687513e-10  99902.515      99915.287      95965.117      2.5923304e-06  5.1718751e-07  2.0751429e-06  1.0643303e+08
   2669000   4.8705761e-10  99910.48       99922.43       96248.065      2.5923309e-06  5.1702259e-07  2.0753083e-06  1.0643513e+08
   2670000   4.872401e-10   99890.328      99904.596      95452.588      2.5923437e-06  5.1745396e-07  2.0748897e-06  1.0642938e+08
   2671000   4.8742259e-10  99905.024      99919.681      95337.061      2.5923338e-06  5.1713882e-07  2.075195e-06   1.0643314e+08
   2672000   4.8760507e-10  99901.298      99916.28       95224.98       2.5923497e-06  5.1723208e-07  2.0751176e-06  1.0643262e+08
   2673000   4.8778756e-10  99903.046      99918.663      95014.233      2.5923368e-06  5.1718289e-07  2.0751539e-06  1.0643465e+08
   2674000   4.8797005e-10  99907.563      99921.839      95467.427      2.5923435e-06  5.170957e-07   2.0752478e-06  1.0643457e+08
   2675000   4.8815254e-10  99899.034      99912.776      95637.017      2.5923318e-06  5.1726123e-07  2.0750706e-06  1.0642927e+08
   2676000   4.8833502e-10  99910.015      99925.735      94986.633      2.592336e-06   5.1703732e-07  2.0752987e-06  1.0643453e+08
   2677000   4.8851751e-10  99895.899      99912.008      94842.522      2.5923236e-06  5.1731819e-07  2.0750055e-06  1.0642739e+08
   2678000   4.887e-10      99920.398      99937.47       94544.911      2.5923222e-06  5.1680782e-07  2.0755143e-06  1.0643769e+08
   2679000   4.8888248e-10  99914.073      99931.921      94278.887      2.5923445e-06  5.1696152e-07  2.075383e-06   1.0643536e+08
   2680000   4.8906497e-10  99902.94       99919.967      94542.434      2.5923667e-06  5.1721498e-07  2.0751517e-06  1.0643563e+08
   2681000   4.8924746e-10  99924.391      99940.7        94804.433      2.5923765e-06  5.1677918e-07  2.0755973e-06  1.0644344e+08
   2682000   4.8942994e-10  99909.785      99926.604      94618.71       2.5923502e-06  5.1705632e-07  2.0752939e-06  1.0643654e+08
   2683000   4.8961243e-10  99914.486      99929.954      95075.465      2.5923353e-06  5.1694376e-07  2.0753916e-06  1.0643655e+08
   2684000   4.8979492e-10  99908.709      99923.112      95425.882      2.5923289e-06  5.1705739e-07  2.0752716e-06  1.064328e+08 
   2685000   4.899774e-10   99904.907      99919.192      95461.58       2.5923177e-06  5.1712514e-07  2.0751926e-06  1.064302e+08 
   2686000   4.9015989e-10  99904.402      99918.334      95579.234      2.5923268e-06  5.1714468e-07  2.0751821e-06  1.0643227e+08
   2687000   4.9034238e-10  99894.072      99908.571      95378.858      2.5923404e-06  5.1737285e-07  2.0749675e-06  1.0643164e+08
   2688000   4.9052487e-10  99885.437      99899.043      95668.986      2.5923536e-06  5.1756543e-07  2.0747881e-06  1.0642915e+08
   2689000   4.9070735e-10  99896.008      99910.765      95294.71       2.592328e-06   5.1732032e-07  2.0750077e-06  1.0642872e+08
   2690000   4.9088984e-10  99918.419      99932.483      95549.033      2.5923307e-06  5.1685744e-07  2.0754732e-06  1.0643415e+08
   2691000   4.9107233e-10  99918.221      99932.381      95516.639      2.5923529e-06  5.168838e-07   2.0754691e-06  1.0643873e+08
   2692000   4.9125481e-10  99918.625      99930.344      96333.315      2.5923499e-06  5.168724e-07   2.0754775e-06  1.0643921e+08
   2693000   4.914373e-10   99909.182      99922.258      95870.08       2.5923593e-06  5.1707793e-07  2.0752814e-06  1.0643506e+08
   2694000   4.9161979e-10  99909.169      99921.622      96078.672      2.5923791e-06  5.17098e-07    2.0752811e-06  1.0643986e+08
   2695000   4.9180227e-10  99896.213      99909.532      95775.857      2.5923624e-06  5.1735046e-07  2.075012e-06   1.0643466e+08
   2696000   4.9198476e-10  99908.716      99921.545      95952.165      2.5923354e-06  5.1706374e-07  2.0752717e-06  1.0643301e+08
   2697000   4.9216725e-10  99914.516      99928.635      95526.946      2.5923216e-06  5.1692947e-07  2.0753922e-06  1.0643337e+08
   2698000   4.9234973e-10  99902.661      99916.473      95617.281      2.5923457e-06  5.1719979e-07  2.0751459e-06  1.0643283e+08
   2699000   4.9253222e-10  99907.612      99919.978      96106.22       2.5923573e-06  5.1710854e-07  2.0752488e-06  1.0643644e+08
   2700000   4.9271471e-10  99911.429      99924.743      95792.802      2.592374e-06   5.1704593e-07  2.075328e-06   1.0643903e+08
   2701000   4.928972e-10   99898.442      99915.223      94620.434      2.5923809e-06  5.173226e-07   2.0750583e-06  1.0643639e+08
   2702000   4.9307968e-10  99894.475      99911.838      94421.598      2.5923847e-06  5.1740882e-07  2.0749759e-06  1.0643748e+08
   2703000   4.9326217e-10  99894.11       99909.035      95236.562      2.592393e-06   5.1742469e-07  2.0749683e-06  1.0643784e+08
   2704000   4.9344466e-10  99897.831      99912.99       95162.267      2.5923832e-06  5.1733757e-07  2.0750456e-06  1.0643654e+08
   2705000   4.9362714e-10  99894.366      99908.795      95402.717      2.5923638e-06  5.1739022e-07  2.0749736e-06  1.0643633e+08
   2706000   4.9380963e-10  99906.017      99918.668      96009.208      2.5923949e-06  5.1717922e-07  2.0752156e-06  1.0644247e+08
   2707000   4.9399212e-10  99877.64       99890.872      95786.385      2.5923901e-06  5.1776386e-07  2.0746262e-06  1.0643237e+08
   2708000   4.941746e-10   99907.02       99921.512      95394.357      2.5923738e-06  5.1713735e-07  2.0752365e-06  1.0643926e+08
   2709000   4.9435709e-10  99885.804      99898.981      95812.835      2.5923542e-06  5.1755843e-07  2.0747958e-06  1.0643045e+08
   2710000   4.9453958e-10  99907.996      99920.475      96068.49       2.5923692e-06  5.1711251e-07  2.0752567e-06  1.0643768e+08
   2711000   4.9472206e-10  99893.128      99908.203      95185.446      2.5923625e-06  5.174146e-07   2.0749479e-06  1.0643435e+08
   2712000   4.9490455e-10  99904.918      99920.365      95072.786      2.592353e-06   5.1716025e-07  2.0751928e-06  1.0643624e+08
   2713000   4.9508704e-10  99904.447      99916.505      96205.549      2.5923261e-06  5.1714312e-07  2.075183e-06   1.0643252e+08
   2714000   4.9526953e-10  99925.433      99939.178      95662.541      2.59233e-06    5.1671102e-07  2.0756189e-06  1.0643907e+08
   2715000   4.9545201e-10  99882.475      99895.49       95863.838      2.5923171e-06  5.1759046e-07  2.0747266e-06  1.0642366e+08
   2716000   4.956345e-10   99919.155      99930.992      96294.614      2.5923226e-06  5.1683405e-07  2.0754885e-06  1.0643508e+08
   2717000   4.9581699e-10  99917.016      99929.366      96120.727      2.5923353e-06  5.1689117e-07  2.0754441e-06  1.0643513e+08
   2718000   4.9599947e-10  99905.526      99917.277      96309.673      2.5923449e-06  5.1713941e-07  2.0752054e-06  1.0643539e+08
   2719000   4.9618196e-10  99906.358      99920.241      95597.492      2.592336e-06   5.1711329e-07  2.0752227e-06  1.0643299e+08
   2720000   4.9636445e-10  99906.534      99919.33       95960.868      2.592335e-06   5.1710868e-07  2.0752264e-06  1.0643487e+08
   2721000   4.9654693e-10  99910.033      99923.974      95581.692      2.5923522e-06  5.1705315e-07  2.0752991e-06  1.0643747e+08
   2722000   4.9672942e-10  99918.346      99932.941      95371.244      2.5923305e-06  5.1685875e-07  2.0754717e-06  1.0643573e+08
   2723000   4.9691191e-10  99921.666      99933.62       96257.98       2.5923498e-06  5.1680907e-07  2.0755407e-06  1.064384e+08 
   2724000   4.9709439e-10  99910.304      99920.767      96745.013      2.5923466e-06  5.1704191e-07  2.0753047e-06  1.0643852e+08
   2725000   4.9727688e-10  99911.848      99919.645      97638.443      2.5923669e-06  5.1703018e-07  2.0753368e-06  1.0644e+08   
   2726000   4.9745937e-10  99886.342      99893.271      97903.131      2.5923453e-06  5.1753835e-07  2.0748069e-06  1.0642822e+08
   2727000   4.9764186e-10  99897.371      99905.377      97553.808      2.5923275e-06  5.1729147e-07  2.075036e-06   1.0643038e+08
   2728000   4.9782434e-10  99904.436      99910.858      98090.589      2.5923357e-06  5.1715289e-07  2.0751828e-06  1.0643437e+08
   2729000   4.9800683e-10  99912.403      99919.864      97751.028      2.592324e-06   5.1697572e-07  2.0753483e-06  1.064344e+08 
   2730000   4.9818932e-10  99911.044      99917.955      97933.952      2.5923352e-06  5.1701514e-07  2.0753201e-06  1.0643671e+08
   2731000   4.983718e-10   99909.298      99915.079      98309.851      2.5923452e-06  5.1706146e-07  2.0752838e-06  1.0643599e+08
   2732000   4.9855429e-10  99899.443      99903.559      98856.969      2.5923414e-06  5.1726237e-07  2.0750791e-06  1.0643193e+08
   2733000   4.9873678e-10  99906.78       99910.256      99078.316      2.5923378e-06  5.1710637e-07  2.0752315e-06  1.0643654e+08
   2734000   4.9891926e-10  99901.163      99902.312      99850.766      2.5923716e-06  5.1725677e-07  2.0751148e-06  1.0643832e+08
   2735000   4.9910175e-10  99921.086      99920.279      100525.24      2.5923775e-06  5.1684887e-07  2.0755286e-06  1.0644282e+08
   2736000   4.9928424e-10  99901.504      99899.711      100835.13      2.5923681e-06  5.1724625e-07  2.0751219e-06  1.0643557e+08
   2737000   4.9946672e-10  99897.292      99895.878      100704.24      2.5923655e-06  5.1733107e-07  2.0750344e-06  1.0643415e+08
   2738000   4.9964921e-10  99912.168      99910.886      100675.02      2.5923529e-06  5.1700947e-07  2.0753434e-06  1.0643831e+08
   2739000   4.998317e-10   99911.407      99911.336      100269.57      2.5923464e-06  5.1701883e-07  2.0753276e-06  1.0643659e+08
   2740000   5.0001419e-10  99898.404      99897.278      100609.02      2.5923593e-06  5.1730179e-07  2.0750575e-06  1.064339e+08 
   2741000   5.0019667e-10  99909.14       99907.425      100816.92      2.592362e-06   5.1708147e-07  2.0752805e-06  1.064366e+08 
   2742000   5.0037916e-10  99910.336      99907.637      101146.89      2.59237e-06    5.1706471e-07  2.0753053e-06  1.064375e+08 
   2743000   5.0056165e-10  99890.332      99891.092      99970.141      2.5923735e-06  5.1748365e-07  2.0748898e-06  1.0643397e+08
   2744000   5.0074413e-10  99901.043      99902.893      99616.331      2.5923582e-06  5.1724593e-07  2.0751123e-06  1.0643561e+08
   2745000   5.0092662e-10  99910.337      99911.492      99858.25       2.5923368e-06  5.1703139e-07  2.0753054e-06  1.0643175e+08
   2746000   5.0110911e-10  99915.972      99914.687      100679.75      2.5923424e-06  5.1691997e-07  2.0754224e-06  1.0643565e+08
   2747000   5.0129159e-10  99924.82       99922.26       101115.2       2.5923731e-06  5.1676688e-07  2.0756062e-06  1.0644318e+08
   2748000   5.0147408e-10  99913.637      99909.937      101485.19      2.5923892e-06  5.1701523e-07  2.0753739e-06  1.0644165e+08
   2749000   5.0165657e-10  99903.378      99900.983      101038.27      2.5923535e-06  5.1719265e-07  2.0751608e-06  1.0643622e+08
   2750000   5.0183905e-10  99890.919      99889.535      100687.76      2.5923753e-06  5.1747328e-07  2.074902e-06   1.0643385e+08
   2751000   5.0202154e-10  99909.619      99910.4        99982.622      2.5923491e-06  5.170586e-07   2.0752905e-06  1.0643681e+08
   2752000   5.0220403e-10  99912.903      99914.155      99828.463      2.5923622e-06  5.1700353e-07  2.0753587e-06  1.0643856e+08
   2753000   5.0238652e-10  99902.563      99902.729      100181.26      2.5923639e-06  5.1722001e-07  2.0751439e-06  1.064362e+08 
   2754000   5.02569e-10    99908.317      99908.156      100296.21      2.5923569e-06  5.1709353e-07  2.0752634e-06  1.0643722e+08
   2755000   5.0275149e-10  99897.152      99898.055      99929.316      2.5923621e-06  5.1733062e-07  2.0750315e-06  1.0643448e+08
   2756000   5.0293398e-10  99890.434      99890.868      100079.43      2.5923653e-06  5.1747337e-07  2.074892e-06   1.0643183e+08
   2757000   5.0311646e-10  99923.924      99922.859      100614.12      2.592361e-06   5.1677342e-07  2.0755876e-06  1.0644129e+08
   2758000   5.0329895e-10  99900.19       99898.909      100662.6       2.5923538e-06  5.1725923e-07  2.0750946e-06  1.0643317e+08
   2759000   5.0348144e-10  99923.494      99921.408      100955.43      2.592358e-06   5.1677934e-07  2.0755787e-06  1.0643848e+08
   2760000   5.0366392e-10  99905.99       99901.817      101635.61      2.5923485e-06  5.1713346e-07  2.0752151e-06  1.0643329e+08
   2761000   5.0384641e-10  99916.424      99912.055      101711.94      2.5923516e-06  5.1691981e-07  2.0754318e-06  1.0643775e+08
   2762000   5.040289e-10   99911.322      99906.901      101724.06      2.5923323e-06  5.1700652e-07  2.0753258e-06  1.0643435e+08
   2763000   5.0421138e-10  99917.874      99911.713      102312.5       2.5923262e-06  5.1686426e-07  2.0754619e-06  1.0643592e+08
   2764000   5.0439387e-10  99916.248      99909.558      102487.67      2.5923383e-06  5.1691019e-07  2.0754281e-06  1.0643741e+08
   2765000   5.0457636e-10  99909.687      99901.16       103095.56      2.5923518e-06  5.1705993e-07  2.0752919e-06  1.064355e+08 
   2766000   5.0475885e-10  99914.369      99903.881      103756.2       2.5923489e-06  5.1695979e-07  2.0753891e-06  1.0643682e+08
   2767000   5.0494133e-10  99921.557      99912.869      103161.26      2.592352e-06   5.1681358e-07  2.0755384e-06  1.0644153e+08
   2768000   5.0512382e-10  99904.03       99894.252      103508.47      2.5923565e-06  5.1718216e-07  2.0751744e-06  1.0643708e+08
   2769000   5.0530631e-10  99900.651      99891.196      103397.13      2.5923427e-06  5.1723852e-07  2.0751042e-06  1.0643471e+08
   2770000   5.0548879e-10  99898.397      99888.984      103380.8       2.5923337e-06  5.1727631e-07  2.0750574e-06  1.0643306e+08
   2771000   5.0567128e-10  99909.418      99900.013      103389.06      2.5923674e-06  5.1708108e-07  2.0752863e-06  1.0643734e+08
   2772000   5.0585377e-10  99914.587      99907.117      102746.88      2.592374e-06   5.1698034e-07  2.0753936e-06  1.0643973e+08
   2773000   5.0603625e-10  99904.458      99894.971      103411.41      2.5923511e-06  5.1716784e-07  2.0751832e-06  1.0643457e+08
   2774000   5.0621874e-10  99914.098      99902.596      104094.98      2.5923417e-06  5.1695822e-07  2.0753835e-06  1.0643415e+08
   2775000   5.0640123e-10  99911.195      99899.226      104248.32      2.5923542e-06  5.1703102e-07  2.0753232e-06  1.0643506e+08
   2776000   5.0658372e-10  99913.405      99902.388      103932.36      2.5923446e-06  5.1697547e-07  2.0753691e-06  1.0643707e+08
   2777000   5.067662e-10   99896.279      99886.977      103341.56      2.592356e-06   5.1734261e-07  2.0750134e-06  1.0643295e+08
   2778000   5.0694869e-10  99903.294      99893.636      103467.58      2.5923515e-06  5.1719241e-07  2.0751591e-06  1.0643374e+08
   2779000   5.0713118e-10  99896.661      99886.399      103662.73      2.5923397e-06  5.1731842e-07  2.0750213e-06  1.0642983e+08
   2780000   5.0731366e-10  99900.146      99889.229      103885.57      2.5923384e-06  5.1724472e-07  2.0750937e-06  1.0643077e+08
   2781000   5.0749615e-10  99898.75       99887.359      104042.2       2.5923562e-06  5.1729158e-07  2.0750647e-06  1.0643389e+08
   2782000   5.0767864e-10  99893.949      99881.074      104534.03      2.5923327e-06  5.1736775e-07  2.074965e-06   1.064301e+08 
   2783000   5.0786112e-10  99914.98       99902.067      104568.02      2.5923506e-06  5.1694878e-07  2.0754018e-06  1.0643635e+08
   2784000   5.0804361e-10  99932.359      99919.669      104510.69      2.5923526e-06  5.1658982e-07  2.0757628e-06  1.0644353e+08
   2785000   5.082261e-10   99901.413      99885.78       105463.62      2.5923567e-06  5.1723668e-07  2.07512e-06    1.0643508e+08
   2786000   5.0840858e-10  99909.003      99893.354      105476.93      2.5923652e-06  5.1708759e-07  2.0752777e-06  1.0644016e+08
   2787000   5.0859107e-10  99911.803      99897.786      104933.89      2.5923668e-06  5.1703098e-07  2.0753358e-06  1.0643906e+08
   2788000   5.0877356e-10  99918.766      99905.35       104739.79      2.5923667e-06  5.1688626e-07  2.0754805e-06  1.0643928e+08
   2789000   5.0895605e-10  99916.947      99901.562      105396.62      2.5923425e-06  5.168998e-07   2.0754427e-06  1.0643782e+08
   2790000   5.0913853e-10  99900.74       99885.756      105246.27      2.5923275e-06  5.1722146e-07  2.075106e-06   1.0642976e+08
   2791000   5.0932102e-10  99901.32       99888.535      104511.36      2.5923253e-06  5.172072e-07   2.0751181e-06  1.064312e+08 
   2792000   5.0950351e-10  99898.746      99884.564      104975.82      2.5923361e-06  5.1727153e-07  2.0750646e-06  1.0643197e+08
   2793000   5.0968599e-10  99889.951      99874.449      105408.62      2.5923384e-06  5.1745653e-07  2.0748819e-06  1.0642746e+08
   2794000   5.0986848e-10  99909.877      99894.876      105261.26      2.5923356e-06  5.1703982e-07  2.0752958e-06  1.0643347e+08
   2795000   5.1005097e-10  99898.789      99881.063      106161.09      2.5923386e-06  5.1727311e-07  2.0750655e-06  1.0642893e+08
   2796000   5.1023345e-10  99911.05       99894.254      105862.51      2.5923259e-06  5.1700575e-07  2.0753202e-06  1.0643403e+08
   2797000   5.1041594e-10  99906.033      99889.368      105813.72      2.5923557e-06  5.1713973e-07  2.075216e-06   1.0643122e+08
   2798000   5.1059843e-10  99918.593      99904.598      104933.41      2.5923385e-06  5.1686168e-07  2.0754769e-06  1.0643647e+08
   2799000   5.1078091e-10  99919.315      99907.437      104226.02      2.5923363e-06  5.1684446e-07  2.0754918e-06  1.0643773e+08
   2800000   5.109634e-10   99904.17       99890.942      104662.32      2.5923471e-06  5.1716984e-07  2.0751773e-06  1.0643419e+08
   2801000   5.1114589e-10  99898.284      99884.234      104931.53      2.5923395e-06  5.1728446e-07  2.075055e-06   1.0643316e+08
   2802000   5.1132838e-10  99917.458      99903.646      104870.96      2.5923457e-06  5.1689241e-07  2.0754533e-06  1.0643959e+08
   2803000   5.1151086e-10  99910.412      99898.236      104316.64      2.5923462e-06  5.1703924e-07  2.0753069e-06  1.0643529e+08
   2804000   5.1169335e-10  99911.819      99901.955      103544.71      2.5923496e-06  5.1701349e-07  2.0753361e-06  1.0643807e+08
   2805000   5.1187584e-10  99886.152      99877.116      103242.21      2.5923707e-06  5.1756768e-07  2.074803e-06   1.064328e+08 
   2806000   5.1205832e-10  99901.595      99893.572      102918.87      2.5923826e-06  5.1725881e-07  2.0751238e-06  1.0644003e+08
   2807000   5.1224081e-10  99889.792      99881.443      103016.13      2.5923552e-06  5.1747657e-07  2.0748786e-06  1.0643151e+08
   2808000   5.124233e-10   99916.026      99907.561      103081.28      2.592354e-06   5.1693049e-07  2.0754235e-06  1.064375e+08 
   2809000   5.1260578e-10  99915.483      99905.927      103445.58      2.5923366e-06  5.1692432e-07  2.0754123e-06  1.0643319e+08
   2810000   5.1278827e-10  99908.982      99896.939      104270.91      2.5923317e-06  5.170545e-07   2.0752772e-06  1.0643155e+08
   2811000   5.1297076e-10  99907.899      99896.634      104009.54      2.5923549e-06  5.1710022e-07  2.0752547e-06  1.064358e+08 
   2812000   5.1315324e-10  99929.223      99918.772      103758.61      2.5923693e-06  5.1667164e-07  2.0756977e-06  1.0644455e+08
   2813000   5.1333573e-10  99904.151      99894.438      103486.54      2.5923565e-06  5.171796e-07   2.0751769e-06  1.0643484e+08
   2814000   5.1351822e-10  99904.124      99896.144      102907         2.5923526e-06  5.1717632e-07  2.0751763e-06  1.0643459e+08
   2815000   5.1370071e-10  99905.175      99897.925      102663.84      2.5923396e-06  5.171415e-07   2.0751981e-06  1.0643362e+08
   2816000   5.1388319e-10  99908.13       99900.649      102744.15      2.5923382e-06  5.1707868e-07  2.0752595e-06  1.0643419e+08
   2817000   5.1406568e-10  99918.786      99910.526      103015.4       2.5923472e-06  5.168663e-07   2.0754809e-06  1.0643897e+08
   2818000   5.1424817e-10  99895.794      99887.299      103070.98      2.592361e-06   5.1735771e-07  2.0750033e-06  1.0643323e+08
   2819000   5.1443065e-10  99901.651      99889.96       104145.72      2.5923568e-06  5.1723189e-07  2.0751249e-06  1.0643629e+08
   2820000   5.1461314e-10  99899.985      99885.612      105041.18      2.5923424e-06  5.1725201e-07  2.0750903e-06  1.064337e+08 
   2821000   5.1479563e-10  99908.933      99892.957      105586.31      2.5923539e-06  5.1707774e-07  2.0752762e-06  1.0643663e+08
   2822000   5.1497811e-10  99918.882      99902.364      105777.24      2.5923327e-06  5.1684985e-07  2.0754829e-06  1.0643708e+08
   2823000   5.151606e-10   99898.446      99882.935      105420.21      2.5923392e-06  5.1728087e-07  2.0750584e-06  1.0642974e+08
   2824000   5.1534309e-10  99908.641      99892.202      105740.78      2.5923361e-06  5.1706592e-07  2.0752701e-06  1.0643445e+08
   2825000   5.1552557e-10  99904.265      99888.56       105491.04      2.592348e-06   5.171688e-07   2.0751792e-06  1.0643302e+08
   2826000   5.1570806e-10  99927.445      99913.538      104912.74      2.5923292e-06  5.1666846e-07  2.0756607e-06  1.0644025e+08
   2827000   5.1589055e-10  99924.664      99910.693      104931.35      2.5923333e-06  5.1673033e-07  2.075603e-06   1.0643855e+08
   2828000   5.1607304e-10  99893.622      99880.362      104662.68      2.5923257e-06  5.1736748e-07  2.0749582e-06  1.0642896e+08
   2829000   5.1625552e-10  99908.997      99895.057      104905.41      2.5923424e-06  5.1706486e-07  2.0752775e-06  1.0643408e+08
   2830000   5.1643801e-10  99903.473      99888.585      105216.94      2.5923412e-06  5.1717844e-07  2.0751628e-06  1.0643262e+08
   2831000   5.166205e-10   99910.069      99893.176      105894.06      2.5923227e-06  5.1702294e-07  2.0752998e-06  1.0643336e+08
   2832000   5.1680298e-10  99907.683      99889.426      106347.56      2.5923284e-06  5.1707813e-07  2.0752502e-06  1.0643428e+08
   2833000   5.1698547e-10  99919.703      99900.695      106611.06      2.5923474e-06  5.1684746e-07  2.0754999e-06  1.0643923e+08
   2834000   5.1716796e-10  99923.874      99903.727      106996.38      2.5923671e-06  5.1678056e-07  2.0755866e-06  1.0644175e+08
   2835000   5.1735044e-10  99909.634      99889.99       106813.59      2.5923572e-06  5.1706643e-07  2.0752908e-06  1.0643745e+08
   2836000   5.1753293e-10  99898.552      99878.311      107002.16      2.5923684e-06  5.1730783e-07  2.0750606e-06  1.0643661e+08
   2837000   5.1771542e-10  99910.09       99891.693      106397.13      2.592341e-06   5.1704079e-07  2.0753002e-06  1.0643712e+08
   2838000   5.178979e-10   99909.663      99893.661      105595.84      2.5923492e-06  5.1705785e-07  2.0752914e-06  1.0643709e+08
   2839000   5.1808039e-10  99897.174      99880.742      105726.86      2.5923399e-06  5.17308e-07    2.0750319e-06  1.0643167e+08
   2840000   5.1826288e-10  99904.477      99889.974      105089.12      2.592348e-06   5.1716438e-07  2.0751837e-06  1.0643495e+08
   2841000   5.1844537e-10  99912.98       99899.494      104757.43      2.5923491e-06  5.1698886e-07  2.0753603e-06  1.0643724e+08
   2842000   5.1862785e-10  99910.426      99896.667      104846.2       2.5923598e-06  5.1705259e-07  2.0753072e-06  1.0643671e+08
   2843000   5.1881034e-10  99908.322      99894.56       104845.29      2.5923573e-06  5.1709376e-07  2.0752635e-06  1.0643667e+08
   2844000   5.1899283e-10  99906.899      99894.698      104321.68      2.5923532e-06  5.1711927e-07  2.075234e-06   1.0643398e+08
   2845000   5.1917531e-10  99926.702      99913.909      104539.33      2.5923445e-06  5.1669917e-07  2.0756453e-06  1.0643899e+08
   2846000   5.193578e-10   99905.043      99891.35       104818.74      2.5923496e-06  5.1715414e-07  2.0751954e-06  1.0643377e+08
   2847000   5.1954029e-10  99890.224      99877.403      104512.38      2.5923564e-06  5.174688e-07   2.0748876e-06  1.0643225e+08
   2848000   5.1972277e-10  99914.701      99901.833      104552.66      2.5923616e-06  5.1696553e-07  2.075396e-06   1.0644209e+08
   2849000   5.1990526e-10  99918.934      99907.103      104210.04      2.5923425e-06  5.1685855e-07  2.0754839e-06  1.0643837e+08
   2850000   5.2008775e-10  99906.234      99894.257      104246.11      2.5923309e-06  5.1711079e-07  2.0752201e-06  1.064318e+08 
   2851000   5.2027023e-10  99900.987      99890.906      103606.55      2.592329e-06   5.1721787e-07  2.0751111e-06  1.0642995e+08
   2852000   5.2045272e-10  99906.085      99894.809      104011.4       2.5923256e-06  5.1710854e-07  2.075217e-06   1.0643264e+08
   2853000   5.2063521e-10  99913.7        99904.447      103342.62      2.5923328e-06  5.1695761e-07  2.0753752e-06  1.0643564e+08
   2854000   5.208177e-10   99893.652      99886.614      102581.53      2.5923208e-06  5.1736204e-07  2.0749588e-06  1.0642904e+08
   2855000   5.2100018e-10  99918.937      99914.306      101801.9       2.5923261e-06  5.1684207e-07  2.075484e-06   1.0643844e+08
   2856000   5.2118267e-10  99901.718      99896.364      102026.48      2.5923491e-06  5.1722282e-07  2.0751263e-06  1.0643497e+08
   2857000   5.2136516e-10  99909.433      99902.861      102441.62      2.5923388e-06  5.1705221e-07  2.0752866e-06  1.064351e+08 
   2858000   5.2154764e-10  99910.472      99903.414      102605.38      2.5923395e-06  5.1703128e-07  2.0753082e-06  1.0643594e+08
   2859000   5.2173013e-10  99904.801      99895.479      103356.6       2.592335e-06   5.1714461e-07  2.0751904e-06  1.064333e+08 
   2860000   5.2191262e-10  99902.06       99890.761      104014.82      2.5923376e-06  5.1720418e-07  2.0751334e-06  1.0643148e+08
   2861000   5.220951e-10   99907.096      99894.008      104618.33      2.5923344e-06  5.1709633e-07  2.075238e-06   1.0643337e+08
   2862000   5.2227759e-10  99904.021      99891.382      104465.29      2.5923503e-06  5.1717612e-07  2.0751742e-06  1.0643254e+08
   2863000   5.2246008e-10  99915.803      99902.038      104853.45      2.5923426e-06  5.1692369e-07  2.0754189e-06  1.0643699e+08
   2864000   5.2264256e-10  99910.713      99897.629      104620.6       2.5923188e-06  5.1700558e-07  2.0753132e-06  1.0643186e+08
   2865000   5.2282505e-10  99911.031      99895.063      105585.79      2.592304e-06   5.1698419e-07  2.0753198e-06  1.0643042e+08
   2866000   5.2300754e-10  99908.92       99895.507      104728.9       2.5923144e-06  5.1703844e-07  2.0752759e-06  1.064305e+08 
   2867000   5.2319003e-10  99897.992      99886.632      104031.11      2.5923251e-06  5.1727618e-07  2.0750489e-06  1.0643047e+08
   2868000   5.2337251e-10  99890.542      99877.516      104581.11      2.5923439e-06  5.1744971e-07  2.0748942e-06  1.0643098e+08
   2869000   5.23555e-10    99900.829      99885.758      105275.13      2.5923288e-06  5.1722097e-07  2.0751079e-06  1.0643247e+08
   2870000   5.2373749e-10  99903.402      99890.138      104673.7       2.5923369e-06  5.1717556e-07  2.0751613e-06  1.0643256e+08
   2871000   5.2391997e-10  99911.992      99900.578      104063.23      2.5923461e-06  5.170064e-07   2.0753397e-06  1.0643626e+08
   2872000   5.2410246e-10  99909.239      99897.817      104063.31      2.5923171e-06  5.1703459e-07  2.0752826e-06  1.0643389e+08
   2873000   5.2428495e-10  99889.139      99876.819      104343.54      2.5923301e-06  5.1746504e-07  2.074865e-06   1.0642837e+08
   2874000   5.2446743e-10  99898.877      99886.52       104365.92      2.5923421e-06  5.1727474e-07  2.0750673e-06  1.0643317e+08
   2875000   5.2464992e-10  99912.029      99897.597      105072.61      2.5923585e-06  5.1701796e-07  2.0753405e-06  1.0643691e+08
   2876000   5.2483241e-10  99910.887      99894.809      105622.35      2.5923259e-06  5.1700914e-07  2.0753168e-06  1.0643286e+08
   2877000   5.2501489e-10  99891.687      99877.048      105121.79      2.5923364e-06  5.1741846e-07  2.074918e-06   1.0642713e+08
   2878000   5.2519738e-10  99907.046      99893.21       104868.4       2.5923497e-06  5.1711268e-07  2.075237e-06   1.0643451e+08
   2879000   5.2537987e-10  99905.28       99890.167      105293.95      2.5923547e-06  5.1715441e-07  2.0752003e-06  1.0643275e+08
   2880000   5.2556236e-10  99902.199      99887.402      105185.12      2.5923472e-06  5.1721085e-07  2.0751363e-06  1.0643409e+08
   2881000   5.2574484e-10  99911.958      99899.253      104495.2       2.5923554e-06  5.1701639e-07  2.075339e-06   1.0643664e+08
   2882000   5.2592733e-10  99914.897      99903.026      104219.34      2.5923222e-06  5.1692214e-07  2.0754001e-06  1.0643535e+08
   2883000   5.2610982e-10  99908.414      99896.121      104353.72      2.5923465e-06  5.170811e-07   2.0752654e-06  1.0643522e+08
   2884000   5.262923e-10   99914.811      99900.478      105042.65      2.5923377e-06  5.1693943e-07  2.0753983e-06  1.064359e+08 
   2885000   5.2647479e-10  99942.252      99930.195      104309.02      2.5923376e-06  5.1636933e-07  2.0759683e-06  1.0644405e+08
   2886000   5.2665728e-10  99914.991      99903.794      103993.93      2.5923333e-06  5.1693129e-07  2.075402e-06   1.0643475e+08
   2887000   5.2683976e-10  99898.651      99889.301      103359.65      2.592334e-06   5.1727135e-07  2.0750626e-06  1.0643015e+08
   2888000   5.2702225e-10  99924.451      99917.247      102668.22      2.592315e-06   5.1671648e-07  2.0755985e-06  1.0643699e+08
   2889000   5.2720474e-10  99902.464      99893.325      103293.16      2.59233e-06    5.1718821e-07  2.0751418e-06  1.0643156e+08
   2890000   5.2738722e-10  99907.512      99899.574      102896.47      2.5923541e-06  5.1710739e-07  2.0752467e-06  1.0643758e+08
   2891000   5.2756971e-10  99892.045      99883.366      103128.74      2.5923385e-06  5.1741304e-07  2.0749254e-06  1.064328e+08 
   2892000   5.277522e-10   99900.915      99890.328      103775.96      2.5923658e-06  5.1725618e-07  2.0751097e-06  1.0643557e+08
   2893000   5.2793469e-10  99901.75       99889.143      104452.19      2.5923525e-06  5.1722555e-07  2.075127e-06   1.0643394e+08
   2894000   5.2811717e-10  99885.156      99870.892      104989.83      2.5923425e-06  5.1756014e-07  2.0747823e-06  1.064283e+08 
   2895000   5.2829966e-10  99896.223      99883.489      104489.07      2.5923475e-06  5.1733529e-07  2.0750122e-06  1.0643182e+08
   2896000   5.2848215e-10  99880.211      99866.621      104759.2       2.5923408e-06  5.1766118e-07  2.0746796e-06  1.0642809e+08
   2897000   5.2866463e-10  99914.15       99899.794      105049.6       2.5923404e-06  5.1695581e-07  2.0753846e-06  1.0643617e+08
   2898000   5.2884712e-10  99916.235      99903.335      104564.53      2.592335e-06   5.1690718e-07  2.0754279e-06  1.0643672e+08
   2899000   5.2902961e-10  99907.617      99895.797      104194.8       2.5923442e-06  5.1709537e-07  2.0752489e-06  1.0643546e+08
   2900000   5.2921209e-10  99918.954      99908.116      103877.89      2.5923302e-06  5.1684582e-07  2.0754844e-06  1.0643823e+08
   2901000   5.2939458e-10  99906.948      99898.221      103159.7       2.5923433e-06  5.1710836e-07  2.075235e-06   1.0643239e+08
   2902000   5.2957707e-10  99933.066      99924.296      103200.18      2.5923368e-06  5.1655933e-07  2.0757775e-06  1.0644208e+08
   2903000   5.2975956e-10  99916.981      99907.27       103498.87      2.5923528e-06  5.1690944e-07  2.0754434e-06  1.0643722e+08
   2904000   5.2994204e-10  99898.229      99888.358      103533.62      2.592323e-06   5.1726911e-07  2.0750539e-06  1.0642844e+08
   2905000   5.3012453e-10  99910.758      99901.65       103291.12      2.59235e-06    5.1703586e-07  2.0753141e-06  1.0643497e+08
   2906000   5.3030702e-10  99915.888      99904.935      103913.19      2.5923309e-06  5.1691022e-07  2.0754207e-06  1.064364e+08 
   2907000   5.304895e-10   99916.015      99906.537      103419.79      2.5923432e-06  5.1691987e-07  2.0754233e-06  1.0643754e+08
   2908000   5.3067199e-10  99923.624      99916.439      102660.78      2.5923478e-06  5.1676642e-07  2.0755814e-06  1.0643887e+08
   2909000   5.3085448e-10  99903.341      99896.117      102653.28      2.5923383e-06  5.1717827e-07  2.07516e-06    1.0643269e+08
   2910000   5.3103696e-10  99916.769      99910.21       102444.46      2.5923399e-06  5.1690097e-07  2.075439e-06   1.0643723e+08
   2911000   5.3121945e-10  99908.363      99902.768      102113.63      2.5923249e-06  5.1706054e-07  2.0752644e-06  1.064319e+08 
   2912000   5.3140194e-10  99914.133      99909.832      101686.52      2.5923281e-06  5.1694393e-07  2.0753842e-06  1.0643569e+08
   2913000   5.3158442e-10  99914.224      99909.618      101788.88      2.5923377e-06  5.1695163e-07  2.0753861e-06  1.0643641e+08
   2914000   5.3176691e-10  99929.429      99924.256      101993.71      2.5923238e-06  5.166219e-07   2.0757019e-06  1.0643898e+08
   2915000   5.319494e-10   99911.112      99908.077      101260.49      2.5923137e-06  5.1699221e-07  2.0753215e-06  1.0643019e+08
   2916000   5.3213189e-10  99930.743      99928.6        100981.89      2.5923244e-06  5.1659521e-07  2.0757292e-06  1.0643961e+08
   2917000   5.3231437e-10  99913.237      99913.196      100260.97      2.5923255e-06  5.1695986e-07  2.0753656e-06  1.0643316e+08
   2918000   5.3249686e-10  99904.713      99904.897      100177.28      2.5923371e-06  5.1714852e-07  2.0751885e-06  1.0643138e+08
   2919000   5.3267935e-10  99900.411      99900.536      100192.93      2.5923344e-06  5.1723518e-07  2.0750992e-06  1.0643192e+08
   2920000   5.3286183e-10  99893.504      99892.961      100409.46      2.5923593e-06  5.1740359e-07  2.0749557e-06  1.0643362e+08
   2921000   5.3304432e-10  99910.753      99908.921      100857.78      2.5923659e-06  5.1705186e-07  2.075314e-06   1.0643943e+08
   2922000   5.3322681e-10  99911.917      99912.225      100143.14      2.59236e-06    5.1702186e-07  2.0753382e-06  1.0643838e+08
   2923000   5.3340929e-10  99918.814      99917.801      100591.86      2.5923533e-06  5.1687188e-07  2.0754815e-06  1.0644e+08   
   2924000   5.3359178e-10  99923.284      99921.925      100712.17      2.5923568e-06  5.1678251e-07  2.0755743e-06  1.0644122e+08
   2925000   5.3377427e-10  99923.692      99923.852      100204.58      2.5923458e-06  5.1676302e-07  2.0755828e-06  1.0644025e+08
   2926000   5.3395675e-10  99902.361      99902.555      100171.76      2.5923509e-06  5.1721117e-07  2.0751397e-06  1.0643288e+08
   2927000   5.3413924e-10  99903.962      99903.107      100523.95      2.5923429e-06  5.1716998e-07  2.0751729e-06  1.0643429e+08
   2928000   5.3432173e-10  99906.387      99907.476      99876.262      2.5923172e-06  5.1709387e-07  2.0752233e-06  1.0643038e+08
   2929000   5.3450422e-10  99922.392      99923.422      99912.052      2.5923311e-06  5.1677533e-07  2.0755558e-06  1.0643805e+08
   2930000   5.346867e-10   99907.365      99907.839      100083.15      2.5923307e-06  5.1708706e-07  2.0752436e-06  1.06433e+08  
   2931000   5.3486919e-10  99912.381      99913.261      99952.069      2.5923264e-06  5.1697855e-07  2.0753478e-06  1.0643328e+08
   2932000   5.3505168e-10  99919.055      99917.265      100851.74      2.5923235e-06  5.1683706e-07  2.0754864e-06  1.0643442e+08
   2933000   5.3523416e-10  99900.751      99899.339      100707.05      2.5923433e-06  5.1723702e-07  2.0751062e-06  1.0643274e+08
   2934000   5.3541665e-10  99906.373      99904.238      100954.61      2.592335e-06   5.1711201e-07  2.075223e-06   1.0643274e+08
   2935000   5.3559914e-10  99910.431      99908.853      100772.19      2.5923477e-06  5.1704039e-07  2.0753073e-06  1.0643597e+08
   2936000   5.3578162e-10  99922.984      99921.747      100670.81      2.5923292e-06  5.1676113e-07  2.0755681e-06  1.0643752e+08
   2937000   5.3596411e-10  99893.568      99891.705      100850.9       2.5923194e-06  5.1736237e-07  2.074957e-06   1.0642603e+08
   2938000   5.361466e-10   99926.871      99927.041      100204.14      2.5923331e-06  5.1668426e-07  2.0756488e-06  1.0643895e+08
   2939000   5.3632908e-10  99917.904      99916.27       100798.56      2.5923276e-06  5.1686504e-07  2.0754625e-06  1.0643583e+08
   2940000   5.3651157e-10  99911.323      99910.219      100614.82      2.5923331e-06  5.170073e-07   2.0753258e-06  1.0643523e+08
   2941000   5.3669406e-10  99903.218      99901.885      100682.97      2.5923443e-06  5.1718678e-07  2.0751575e-06  1.0643039e+08
   2942000   5.3687655e-10  99909.8        99911.433      99697.811      2.5923237e-06  5.1702954e-07  2.0752942e-06  1.0643349e+08
   2943000   5.3705903e-10  99913.612      99916.115      99410.643      2.5923281e-06  5.1695471e-07  2.0753734e-06  1.0643387e+08
   2944000   5.3724152e-10  99911.767      99914.217      99426.369      2.5923338e-06  5.1699873e-07  2.0753351e-06  1.064326e+08 
   2945000   5.3742401e-10  99932.022      99935.175      99211.536      2.5923449e-06  5.165891e-07   2.0757558e-06  1.0644324e+08
   2946000   5.3760649e-10  99906.64       99910.462      98962.74       2.5923395e-06  5.1711092e-07  2.0752286e-06  1.0643356e+08
   2947000   5.3778898e-10  99916.026      99920.094      98889.738      2.5923201e-06  5.1689659e-07  2.0754235e-06  1.0643606e+08
   2948000   5.3797147e-10  99906.664      99909.172      99402.279      2.5923474e-06  5.1711833e-07  2.0752291e-06  1.0643301e+08
   2949000   5.3815395e-10  99920.019      99922.581      99397.16       2.5923506e-06  5.1684415e-07  2.0755065e-06  1.06439e+08  
   2950000   5.3833644e-10  99915.984      99920.791      98642.564      2.5923346e-06  5.169119e-07   2.0754227e-06  1.0643506e+08
   2951000   5.3851893e-10  99889.787      99896.254      98060.8        2.592331e-06   5.1745249e-07  2.0748785e-06  1.0642746e+08
   2952000   5.3870141e-10  99905.765      99912.956      97834.963      2.5923536e-06  5.1714323e-07  2.0752104e-06  1.0643459e+08
   2953000   5.388839e-10   99909.838      99917.475      97689.668      2.5923478e-06  5.1705278e-07  2.075295e-06   1.0643591e+08
   2954000   5.3906639e-10  99916.591      99924.357      97653.387      2.5923593e-06  5.16924e-07    2.0754353e-06  1.0643895e+08
   2955000   5.3924888e-10  99923.052      99931.832      97320.782      2.5923573e-06  5.1678785e-07  2.0755695e-06  1.0644335e+08
   2956000   5.3943136e-10  99907.174      99915.561      97436.107      2.5923401e-06  5.1710045e-07  2.0752397e-06  1.0643366e+08
   2957000   5.3961385e-10  99911.918      99920.422      97401.685      2.5923331e-06  5.1699486e-07  2.0753382e-06  1.0643472e+08
   2958000   5.3979634e-10  99905.865      99914.749      97268.746      2.5923323e-06  5.1711984e-07  2.0752125e-06  1.064325e+08 
   2959000   5.3997882e-10  99904.36       99914.761      96759.794      2.5923238e-06  5.1714263e-07  2.0751812e-06  1.0643121e+08
   2960000   5.4016131e-10  99906.534      99915.146      97360.489      2.5923335e-06  5.1710716e-07  2.0752264e-06  1.064315e+08 
   2961000   5.403438e-10   99891.156      99897.39       98140.242      2.5923294e-06  5.1742241e-07  2.0749069e-06  1.0642769e+08
   2962000   5.4052628e-10  99909.423      99912.876      99088.883      2.5923449e-06  5.1705853e-07  2.0752864e-06  1.0643576e+08
   2963000   5.4070877e-10  99923          99922.671      100367.27      2.5923384e-06  5.1677003e-07  2.0755684e-06  1.0643956e+08
   2964000   5.4089126e-10  99900.085      99898.176      100872.6       2.5923615e-06  5.1726911e-07  2.0750924e-06  1.0643343e+08
   2965000   5.4107374e-10  99901.137      99900.021      100608.52      2.5923198e-06  5.1720552e-07  2.0751143e-06  1.064309e+08 
   2966000   5.4125623e-10  99911.57       99910.66       100550.02      2.5923275e-06  5.1699654e-07  2.075331e-06   1.0643427e+08
   2967000   5.4143872e-10  99907.49       99907.324      100297.36      2.5923243e-06  5.1707808e-07  2.0752462e-06  1.0643135e+08
   2968000   5.4162121e-10  99934.92       99933.795      100645.25      2.5923362e-06  5.1652022e-07  2.075816e-06   1.064416e+08 
   2969000   5.4180369e-10  99924.291      99922.499      100857.87      2.5923575e-06  5.1676226e-07  2.0755952e-06  1.0644255e+08
   2970000   5.4198618e-10  99910.306      99908.45       100865.39      2.5923432e-06  5.1703843e-07  2.0753047e-06  1.0643745e+08
   2971000   5.4216867e-10  99913.057      99909.283      101509.24      2.5923465e-06  5.1698461e-07  2.0753619e-06  1.0643749e+08
   2972000   5.4235115e-10  99918.821      99913.913      101894.21      2.5923203e-06  5.1683873e-07  2.0754816e-06  1.0643519e+08
   2973000   5.4253364e-10  99912.81       99905.195      102793.76      2.5923257e-06  5.1696894e-07  2.0753567e-06  1.0643251e+08
   2974000   5.4271613e-10  99912.46       99905.151      102691.03      2.5923255e-06  5.1697604e-07  2.0753495e-06  1.0643406e+08
   2975000   5.4289861e-10  99907.089      99901.612      102072.88      2.5923469e-06  5.1710905e-07  2.0752379e-06  1.0643374e+08
   2976000   5.430811e-10   99903.03       99899.573      101393.47      2.5923362e-06  5.1718258e-07  2.0751536e-06  1.0643286e+08
   2977000   5.4326359e-10  99898.778      99893.064      102144.08      2.5923373e-06  5.1727202e-07  2.0750653e-06  1.0643115e+08
   2978000   5.4344607e-10  99924.985      99918.195      102529.99      2.5923427e-06  5.1673307e-07  2.0756096e-06  1.0644116e+08
   2979000   5.4362856e-10  99899.211      99892.165      102589.94      2.5923442e-06  5.1726994e-07  2.0750743e-06  1.0643333e+08
   2980000   5.4381105e-10  99898.348      99890.69       102793.67      2.5923408e-06  5.1728442e-07  2.0750563e-06  1.0643257e+08
   2981000   5.4399354e-10  99895.973      99886.907      103262.1       2.5923428e-06  5.1733575e-07  2.075007e-06   1.0643179e+08
   2982000   5.4417602e-10  99911.518      99902.791      103164.32      2.5923516e-06  5.1702172e-07  2.0753299e-06  1.064357e+08 
   2983000   5.4435851e-10  99914.211      99904.389      103533.3       2.5923417e-06  5.1695582e-07  2.0753858e-06  1.0643627e+08
   2984000   5.44541e-10    99925.112      99914.173      103917.81      2.5923284e-06  5.1671617e-07  2.0756123e-06  1.0643635e+08
   2985000   5.4472348e-10  99921.073      99909.232      104215.58      2.5923253e-06  5.1679693e-07  2.0755284e-06  1.0643765e+08
   2986000   5.4490597e-10  99901.422      99886.612      105188.88      2.5923288e-06  5.1720863e-07  2.0751202e-06  1.0643233e+08
   2987000   5.4508846e-10  99891.371      99877.572      104840.34      2.5923355e-06  5.1742411e-07  2.0749114e-06  1.0642933e+08
   2988000   5.4527094e-10  99913.086      99900.898      104323.56      2.5923388e-06  5.1697635e-07  2.0753625e-06  1.0643517e+08
   2989000   5.4545343e-10  99912.518      99900.311      104329.26      2.5923427e-06  5.1699202e-07  2.0753507e-06  1.0643521e+08
   2990000   5.4563592e-10  99898.991      99885.524      104736.99      2.5923622e-06  5.1729256e-07  2.0750697e-06  1.0643376e+08
   2991000   5.458184e-10   99887.986      99875.242      104483.95      2.5923667e-06  5.1752557e-07  2.0748411e-06  1.0643262e+08
   2992000   5.4600089e-10  99898.636      99885.147      104743.96      2.592374e-06   5.173117e-07   2.0750623e-06  1.0643551e+08
   2993000   5.4618338e-10  99910.013      99896.978      104603.6       2.5923593e-06  5.1706068e-07  2.0752986e-06  1.0643674e+08
   2994000   5.4636587e-10  99897.939      99886.298      104125.24      2.5923489e-06  5.1730107e-07  2.0750478e-06  1.0643376e+08
   2995000   5.4654835e-10  99915.505      99904.015      104092.4       2.5923433e-06  5.1693062e-07  2.0754127e-06  1.0643774e+08
   2996000   5.4673084e-10  99900.304      99887.703      104448.87      2.5923505e-06  5.1725356e-07  2.075097e-06   1.0643353e+08
   2997000   5.4691333e-10  99920.645      99909.285      104054.17      2.5923486e-06  5.1682909e-07  2.0755195e-06  1.0644076e+08
   2998000   5.4709581e-10  99904.047      99896.188      102866.36      2.5923407e-06  5.1716598e-07  2.0751747e-06  1.0643271e+08
   2999000   5.472783e-10   99911.454      99902.703      103172.24      2.5923473e-06  5.1701874e-07  2.0753286e-06  1.0643529e+08
   3000000   5.4746079e-10  99900.374      99890.173      103646.35      2.5923459e-06  5.1724752e-07  2.0750984e-06  1.0643311e+08
   3001000   5.4764327e-10  99900.444      99889.246      103979.78      2.5923688e-06  5.1726893e-07  2.0750999e-06  1.0643679e+08
   3002000   5.4782576e-10  99901.898      99893.711      102974.11      2.5923718e-06  5.1724169e-07  2.0751301e-06  1.0643543e+08
   3003000   5.4800825e-10  99908.149      99899.428      103159.12      2.5923737e-06  5.1711375e-07  2.0752599e-06  1.0643887e+08
   3004000   5.4819073e-10  99911.522      99902.19       103366.73      2.592363e-06   5.1703304e-07  2.07533e-06    1.0643805e+08
   3005000   5.4837322e-10  99918.844      99908.702      103644.85      2.592339e-06   5.1685696e-07  2.0754821e-06  1.0643764e+08
   3006000   5.4855571e-10  99916.547      99906.103      103743.63      2.5923323e-06  5.1689797e-07  2.0754344e-06  1.064357e+08 
   3007000   5.487382e-10   99916.284      99904.878      104064.97      2.5923249e-06  5.1689605e-07  2.0754289e-06  1.0643639e+08
   3008000   5.4892068e-10  99903.911      99893.692      103655.74      2.5923326e-06  5.1716068e-07  2.0751719e-06  1.0643114e+08
   3009000   5.4910317e-10  99917.109      99907.275      103539.93      2.5923308e-06  5.1688473e-07  2.075446e-06   1.064358e+08 
   3010000   5.4928566e-10  99920.922      99909.308      104139.32      2.592323e-06   5.1679774e-07  2.0755252e-06  1.0643516e+08
   3011000   5.4946814e-10  99931.175      99920.556      103816.91      2.5923353e-06  5.1659708e-07  2.0757382e-06  1.0644037e+08
   3012000   5.4965063e-10  99903.633      99893.482      103632.88      2.5923165e-06  5.1715042e-07  2.0751661e-06  1.0642886e+08
   3013000   5.4983312e-10  99909.578      99901.158      103059.66      2.5923319e-06  5.1704229e-07  2.0752896e-06  1.0643313e+08
   3014000   5.500156e-10   99904.495      99897.262      102657.7       2.5923366e-06  5.1715257e-07  2.075184e-06   1.064316e+08 
   3015000   5.5019809e-10  99916.207      99908.802      102726.85      2.5923238e-06  5.1689651e-07  2.0754273e-06  1.0643309e+08
   3016000   5.5038058e-10  99911.418      99906.118      102018.03      2.5923353e-06  5.1700749e-07  2.0753278e-06  1.0643367e+08
   3017000   5.5056306e-10  99895.513      99891.189      101675.69      2.5923293e-06  5.1733186e-07  2.0749974e-06  1.0642997e+08
   3018000   5.5074555e-10  99897.66       99895.157      101069.03      2.5923344e-06  5.1729239e-07  2.075042e-06   1.0643255e+08
   3019000   5.5092804e-10  99900.76       99897.388      101362.73      2.5923432e-06  5.1723675e-07  2.0751064e-06  1.0643238e+08
   3020000   5.5111053e-10  99903.002      99899.607      101372.59      2.5923567e-06  5.1720366e-07  2.075153e-06   1.0643489e+08
   3021000   5.5129301e-10  99900.958      99896.423      101751.61      2.5923496e-06  5.1723909e-07  2.0751105e-06  1.0643146e+08
   3022000   5.514755e-10   99904.016      99899.883      101620.52      2.5923408e-06  5.1716668e-07  2.0751741e-06  1.0643141e+08
   3023000   5.5165799e-10  99910.226      99906.373      101532.95      2.5923528e-06  5.170497e-07   2.0753031e-06  1.0643559e+08
   3024000   5.5184047e-10  99911.411      99908.575      101194.2       2.5923575e-06  5.1702981e-07  2.0753277e-06  1.0643713e+08
   3025000   5.5202296e-10  99910.635      99907.202      101393.05      2.5923446e-06  5.1703301e-07  2.0753116e-06  1.0643548e+08
   3026000   5.5220545e-10  99906.375      99902.18       101643.69      2.5923499e-06  5.1712687e-07  2.0752231e-06  1.0643508e+08
   3027000   5.5238793e-10  99917.239      99911.363      102216.69      2.592347e-06   5.1689825e-07  2.0754487e-06  1.0643744e+08
   3028000   5.5257042e-10  99910.447      99906.374      101606.79      2.5923508e-06  5.170431e-07   2.0753077e-06  1.0643492e+08
   3029000   5.5275291e-10  99904.417      99900.373      101590.81      2.592363e-06   5.1718062e-07  2.0751824e-06  1.0643558e+08
   3030000   5.529354e-10   99902.302      99899.548      101157.53      2.5923791e-06  5.1724065e-07  2.0751385e-06  1.0643691e+08
   3031000   5.5311788e-10  99911.321      99907.711      101452.87      2.5923558e-06  5.1703e-07     2.0753258e-06  1.0643828e+08
   3032000   5.5330037e-10  99910.428      99909.172      100664.41      2.5923406e-06  5.170334e-07   2.0753072e-06  1.0643494e+08
   3033000   5.5348286e-10  99926.209      99924.243      100918.13      2.5923131e-06  5.16678e-07    2.0756351e-06  1.0643705e+08
   3034000   5.5366534e-10  99904.679      99903.822      100525.55      2.592336e-06   5.1714818e-07  2.0751878e-06  1.0643021e+08
   3035000   5.5384783e-10  99906.394      99905.491      100542.44      2.5923505e-06  5.1712702e-07  2.0752235e-06  1.064332e+08 
   3036000   5.5403032e-10  99909.505      99907.694      100849.5       2.5923693e-06  5.1708125e-07  2.0752881e-06  1.0643741e+08
   3037000   5.542128e-10   99903.066      99901.262      100840.44      2.592356e-06   5.1720169e-07  2.0751543e-06  1.0643541e+08
   3038000   5.5439529e-10  99907.005      99905.97       100587.41      2.5923395e-06  5.1710334e-07  2.0752362e-06  1.0643321e+08
   3039000   5.5457778e-10  99922.878      99920.461      101065.44      2.5923224e-06  5.1675656e-07  2.0755659e-06  1.064364e+08 
   3040000   5.5476026e-10  99890.327      99889.04       100655.04      2.5923321e-06  5.1744235e-07  2.0748897e-06  1.0642808e+08
   3041000   5.5494275e-10  99896.624      99896.577      100246.45      2.5923446e-06  5.1732405e-07  2.0750205e-06  1.0643238e+08
   3042000   5.5512524e-10  99897.008      99897.758      99980.458      2.5923542e-06  5.1732566e-07  2.0750285e-06  1.0643252e+08
   3043000   5.5530773e-10  99908.025      99907.224      100509.82      2.5923368e-06  5.170795e-07   2.0752573e-06  1.0643477e+08
   3044000   5.5549021e-10  99927.399      99928.496      99894.748      2.592346e-06   5.1668627e-07  2.0756598e-06  1.0644057e+08
   3045000   5.556727e-10   99926.75       99929.61       99304.631      2.592337e-06   5.1669075e-07  2.0756463e-06  1.064406e+08 
   3046000   5.5585519e-10  99888.617      99892.249      99007.99       2.5923123e-06  5.1745809e-07  2.0748542e-06  1.0642505e+08
   3047000   5.5603767e-10  99923.606      99926.117      99417.978      2.5923279e-06  5.1674687e-07  2.075581e-06   1.0643606e+08
   3048000   5.5622016e-10  99919.609      99921.452      99637.509      2.5923299e-06  5.1683191e-07  2.075498e-06   1.0643599e+08
   3049000   5.5640265e-10  99910.217      99912.371      99524.217      2.5923418e-06  5.1703892e-07  2.0753029e-06  1.0643655e+08
   3050000   5.5658513e-10  99920.577      99921.432      99968.8        2.5923347e-06  5.1681664e-07  2.0755181e-06  1.0643881e+08
   3051000   5.5676762e-10  99900.204      99899.236      100558.08      2.592336e-06   5.1724112e-07  2.0750949e-06  1.0643019e+08
   3052000   5.5695011e-10  99920.403      99917.396      101260.36      2.5923372e-06  5.1682273e-07  2.0755145e-06  1.0643957e+08
   3053000   5.5713259e-10  99923.822      99920.721      101295.13      2.5923581e-06  5.1677259e-07  2.0755855e-06  1.0644095e+08
   3054000   5.5731508e-10  99917          99915.236      100841.22      2.5923321e-06  5.1688832e-07  2.0754438e-06  1.0643545e+08
   3055000   5.5749757e-10  99913.348      99912.232      100620.71      2.5923128e-06  5.1694492e-07  2.0753679e-06  1.0643147e+08
   3056000   5.5768006e-10  99908.577      99906.645      100888.89      2.5923451e-06  5.1707631e-07  2.0752688e-06  1.0643486e+08
   3057000   5.5786254e-10  99913.971      99912.264      100818.91      2.5923488e-06  5.1696793e-07  2.0753809e-06  1.0643961e+08
   3058000   5.5804503e-10  99902.865      99901.383      100732.79      2.5923402e-06  5.1719003e-07  2.0751502e-06  1.0643319e+08
   3059000   5.5822752e-10  99923.092      99921.576      100764.4       2.5923499e-06  5.1677964e-07  2.0755703e-06  1.0644023e+08
   3060000   5.5841e-10     99904.56       99904.016      100420.48      2.5923431e-06  5.1715778e-07  2.0751854e-06  1.0643431e+08
   3061000   5.5859249e-10  99901.293      99898.501      101169.01      2.5923596e-06  5.1724207e-07  2.0751175e-06  1.0643485e+08
   3062000   5.5877498e-10  99894.976      99892.91       100920.04      2.5923593e-06  5.17373e-07    2.0749863e-06  1.0643419e+08
   3063000   5.5895746e-10  99895.949      99893.893      100917.84      2.5923398e-06  5.1733331e-07  2.0750065e-06  1.064335e+08 
   3064000   5.5913995e-10  99889.654      99887.991      100780.04      2.5923414e-06  5.1746565e-07  2.0748758e-06  1.0642938e+08
   3065000   5.5932244e-10  99897.304      99895.276      100909.43      2.5923418e-06  5.1730716e-07  2.0750346e-06  1.0643142e+08
   3066000   5.5950492e-10  99920.962      99918.214      101174.18      2.592324e-06   5.1679791e-07  2.0755261e-06  1.064372e+08 
   3067000   5.5968741e-10  99913.968      99910.54       101394.29      2.5923343e-06  5.1695352e-07  2.0753808e-06  1.06431e+08  
   3068000   5.598699e-10   99904.898      99901.518      101369.4       2.5923421e-06  5.1714969e-07  2.0751924e-06  1.0643207e+08
   3069000   5.6005239e-10  99894.619      99892.935      100791.9       2.5923399e-06  5.1736101e-07  2.0749789e-06  1.0642824e+08
   3070000   5.6023487e-10  99938.716      99935.523      101340.84      2.5923519e-06  5.1645709e-07  2.0758948e-06  1.0644445e+08
   3071000   5.6041736e-10  99926.855      99924.632      101004.53      2.5923488e-06  5.1670038e-07  2.0756485e-06  1.0644077e+08
   3072000   5.6059985e-10  99908.543      99907.7        100524.61      2.5923398e-06  5.1707167e-07  2.0752681e-06  1.0643599e+08
   3073000   5.6078233e-10  99908.945      99909.104      100190.12      2.5923395e-06  5.1706308e-07  2.0752765e-06  1.0643588e+08
   3074000   5.6096482e-10  99913.53       99914.426      99947.978      2.5923556e-06  5.1698395e-07  2.0753717e-06  1.0643771e+08
   3075000   5.6114731e-10  99903.351      99904.331      99909.513      2.5923584e-06  5.1719814e-07  2.0751602e-06  1.0643559e+08
   3076000   5.6132979e-10  99908.568      99909.882      99803.287      2.5923432e-06  5.1707454e-07  2.0752686e-06  1.0643561e+08
   3077000   5.6151228e-10  99912.776      99915.228      99426.811      2.5923311e-06  5.1697505e-07  2.075356e-06   1.0643504e+08
   3078000   5.6169477e-10  99918.803      99922.052      99166.378      2.5923607e-06  5.1687944e-07  2.0754812e-06  1.0643728e+08
   3079000   5.6187725e-10  99914.353      99916.366      99575.249      2.5923622e-06  5.1697343e-07  2.0753888e-06  1.0643685e+08
   3080000   5.6205974e-10  99907.902      99910.753      99288.473      2.5923477e-06  5.1709292e-07  2.0752548e-06  1.0643471e+08
   3081000   5.6224223e-10  99914.128      99914.651      100073.26      2.5923468e-06  5.1696266e-07  2.0753841e-06  1.0643594e+08
   3082000   5.6242472e-10  99923.222      99922.171      100608.82      2.5923438e-06  5.1677076e-07  2.075573e-06   1.0643642e+08
   3083000   5.626072e-10   99914.252      99913.312      100563.06      2.5923289e-06  5.1694216e-07  2.0753867e-06  1.0643269e+08
   3084000   5.6278969e-10  99922.558      99922.458      100290.27      2.5923319e-06  5.1677266e-07  2.0755592e-06  1.0643677e+08
   3085000   5.6297218e-10  99919.788      99920.969      99859.218      2.5923625e-06  5.1686081e-07  2.0755017e-06  1.0644052e+08
   3086000   5.6315466e-10  99913.444      99914.805      99792.261      2.5923668e-06  5.1699693e-07  2.0753699e-06  1.0644062e+08
   3087000   5.6333715e-10  99898.253      99896.753      100733.99      2.5923675e-06  5.1731309e-07  2.0750544e-06  1.0643416e+08
   3088000   5.6351964e-10  99902.789      99901.176      100776.4       2.5923656e-06  5.1721702e-07  2.0751486e-06  1.0643438e+08
   3089000   5.6370212e-10  99922.346      99920.823      100765.8       2.5923546e-06  5.1679977e-07  2.0755548e-06  1.0644084e+08
   3090000   5.6388461e-10  99901.44       99901.983      100054         2.5923467e-06  5.1722609e-07  2.0751206e-06  1.0643297e+08
   3091000   5.640671e-10   99919.396      99919.303      100284.72      2.5923532e-06  5.168597e-07   2.0754935e-06  1.0644045e+08
   3092000   5.6424958e-10  99909.18       99907.87       100681.26      2.5923627e-06  5.1708132e-07  2.0752813e-06  1.0643906e+08
   3093000   5.6443207e-10  99886.524      99883.779      101138.42      2.5923598e-06  5.1754903e-07  2.0748107e-06  1.0643026e+08
   3094000   5.6461456e-10  99908.798      99903.643      101966.92      2.5923299e-06  5.1705646e-07  2.0752734e-06  1.0643456e+08
   3095000   5.6479705e-10  99911.364      99906.24       101959.14      2.5923666e-06  5.1703993e-07  2.0753267e-06  1.0643828e+08
   3096000   5.6497953e-10  99903.372      99897.107      102332.73      2.592357e-06   5.1719632e-07  2.0751607e-06  1.0643367e+08
   3097000   5.6516202e-10  99905.693      99897.06       103126.99      2.5923364e-06  5.1712748e-07  2.0752089e-06  1.0643233e+08
   3098000   5.6534451e-10  99916.177      99908.422      102843.74      2.5923452e-06  5.1691857e-07  2.0754267e-06  1.0643672e+08
   3099000   5.6552699e-10  99892.565      99884.193      103026.92      2.5923384e-06  5.1740221e-07  2.0749362e-06  1.0643012e+08
   3100000   5.6570948e-10  99914.131      99905.57       103111.36      2.592356e-06   5.1697179e-07  2.0753842e-06  1.0643957e+08
   3101000   5.6589197e-10  99882.995      99872.295      103795.38      2.59235e-06    5.1761254e-07  2.0747374e-06  1.064284e+08 
   3102000   5.6607445e-10  99901.665      99890.965      103814.47      2.5923483e-06  5.1722304e-07  2.0751252e-06  1.0643422e+08
   3103000   5.6625694e-10  99908.612      99895.216      104723.06      2.5923472e-06  5.1707771e-07  2.0752695e-06  1.064352e+08 
   3104000   5.6643943e-10  99920.386      99905.783      105138.62      2.5923487e-06  5.1683459e-07  2.0755141e-06  1.0643669e+08
   3105000   5.6662191e-10  99925.426      99909.081      105725.92      2.5923403e-06  5.1672153e-07  2.0756188e-06  1.0643718e+08
   3106000   5.668044e-10   99906.315      99891.124      105320.81      2.5923355e-06  5.1711367e-07  2.0752218e-06  1.0643235e+08
   3107000   5.6698689e-10  99902.264      99884.804      106075.81      2.5923373e-06  5.1719968e-07  2.0751377e-06  1.0643404e+08
   3108000   5.6716938e-10  99904.876      99889.498      105382.12      2.5923615e-06  5.1716952e-07  2.0751919e-06  1.0643716e+08
   3109000   5.6735186e-10  99896.099      99880.819      105340.42      2.5923589e-06  5.1734932e-07  2.0750096e-06  1.0643361e+08
   3110000   5.6753435e-10  99905.032      99888.749      105685.19      2.5923426e-06  5.1714737e-07  2.0751952e-06  1.0643588e+08
   3111000   5.6771684e-10  99911.809      99895.994      105535.02      2.5923449e-06  5.1700896e-07  2.0753359e-06  1.064342e+08 
   3112000   5.6789932e-10  99907.991      99893.949      104938.11      2.5923424e-06  5.1708573e-07  2.0752566e-06  1.0643365e+08
   3113000   5.6808181e-10  99902.725      99888.975      104835.74      2.592356e-06   5.172087e-07   2.0751473e-06  1.0643453e+08
   3114000   5.682643e-10   99903.354      99891.5        104202.01      2.5923505e-06  5.1719015e-07  2.0751603e-06  1.0643512e+08
   3115000   5.6844678e-10  99895.259      99883.784      104067.05      2.5923457e-06  5.1735354e-07  2.0749922e-06  1.0643042e+08
   3116000   5.6862927e-10  99922.525      99910.306      104343.07      2.5923524e-06  5.1679388e-07  2.0755585e-06  1.0643965e+08
   3117000   5.6881176e-10  99903.95       99890.724      104661.64      2.592369e-06   5.1719625e-07  2.0751727e-06  1.0643563e+08
   3118000   5.6899424e-10  99916.075      99903.284      104528.22      2.5923515e-06  5.1692691e-07  2.0754246e-06  1.0643732e+08
   3119000   5.6917673e-10  99889.125      99878.796      103677.68      2.5923535e-06  5.1748872e-07  2.0748648e-06  1.0642773e+08
   3120000   5.6935922e-10  99903.9        99893.893      103584.85      2.5923377e-06  5.1716606e-07  2.0751717e-06  1.0643136e+08
   3121000   5.6954171e-10  99911.169      99898.814      104377.15      2.592355e-06   5.1703237e-07  2.0753226e-06  1.064382e+08 
   3122000   5.6972419e-10  99893.97       99882.052      104213.98      2.5923573e-06  5.1739189e-07  2.0749654e-06  1.0643207e+08
   3123000   5.6990668e-10  99889.501      99877.83       104126.76      2.5923723e-06  5.1749978e-07  2.0748726e-06  1.0643338e+08
   3124000   5.7008917e-10  99915.61       99903.282      104372.86      2.5923673e-06  5.1695246e-07  2.0754149e-06  1.0643963e+08
   3125000   5.7027165e-10  99900.409      99887.796      104453.16      2.5923553e-06  5.1725615e-07  2.0750992e-06  1.0643303e+08
   3126000   5.7045414e-10  99915.561      99903.669      104226.64      2.5923554e-06  5.1694153e-07  2.0754139e-06  1.0643681e+08
   3127000   5.7063663e-10  99917.164      99904.328      104544.54      2.5923468e-06  5.1689962e-07  2.0754472e-06  1.0643728e+08
   3128000   5.7081911e-10  99898.487      99884.497      104911.75      2.5923386e-06  5.1727938e-07  2.0750592e-06  1.0642907e+08
   3129000   5.710016e-10   99924.583      99912.118      104427.57      2.592345e-06   5.1674374e-07  2.0756013e-06  1.0643726e+08
   3130000   5.7118409e-10  99909.678      99895.97       104828.57      2.5923615e-06  5.1706986e-07  2.0752917e-06  1.0643432e+08
   3131000   5.7136657e-10  99902.968      99889.528      104732.09      2.5923551e-06  5.1720278e-07  2.0751523e-06  1.0643326e+08
   3132000   5.7154906e-10  99898.809      99881.983      105860.41      2.5923552e-06  5.1728928e-07  2.0750659e-06  1.0643311e+08
   3133000   5.7173155e-10  99904.924      99888.217      105826.48      2.592356e-06   5.1716306e-07  2.0751929e-06  1.0643551e+08
   3134000   5.7191404e-10  99908.23       99888.415      106869.25      2.592351e-06   5.1708937e-07  2.0752616e-06  1.0643579e+08
   3135000   5.7209652e-10  99921.508      99900.931      107137.45      2.5923512e-06  5.1681382e-07  2.0755374e-06  1.0643981e+08
   3136000   5.7227901e-10  99908.823      99886.519      107702.22      2.592372e-06   5.1709812e-07  2.0752739e-06  1.0643606e+08
   3137000   5.724615e-10   99898.409      99876.537      107547.26      2.5923628e-06  5.1730522e-07  2.0750576e-06  1.0643305e+08
   3138000   5.7264398e-10  99898.988      99877.197      107521.08      2.592357e-06   5.1728733e-07  2.0750696e-06  1.0643191e+08
   3139000   5.7282647e-10  99916.219      99894.75       107430.4       2.5923634e-06  5.1693581e-07  2.0754275e-06  1.0643945e+08
   3140000   5.7300896e-10  99900.657      99879.858      107190.9       2.5923772e-06  5.1727293e-07  2.0751043e-06  1.0643496e+08
   3141000   5.7319144e-10  99911.981      99892.498      106762.4       2.5923513e-06  5.1701178e-07  2.0753395e-06  1.0643738e+08
   3142000   5.7337393e-10  99909.347      99888.41       107245.56      2.5923339e-06  5.1704914e-07  2.0752848e-06  1.0643439e+08
   3143000   5.7355642e-10  99927.407      99906.604      107219.08      2.592362e-06   5.1670203e-07  2.0756599e-06  1.0644178e+08
   3144000   5.737389e-10   99915.906      99896.045      106892.68      2.5923563e-06  5.1693521e-07  2.0754211e-06  1.064351e+08 
   3145000   5.7392139e-10  99901.419      99879.244      107651.7       2.5923373e-06  5.1721714e-07  2.0751201e-06  1.0642857e+08
   3146000   5.7410388e-10  99907.005      99885.88       107306.32      2.5923729e-06  5.1713674e-07  2.0752362e-06  1.0643464e+08
   3147000   5.7428637e-10  99929.897      99910.416      106779.53      2.5923665e-06  5.1665483e-07  2.0757117e-06  1.0644246e+08
   3148000   5.7446885e-10  99906.013      99886.662      106711.98      2.5923541e-06  5.171386e-07   2.0752155e-06  1.0643494e+08
   3149000   5.7465134e-10  99899.647      99882.167      106079.9       2.5923818e-06  5.1729853e-07  2.0750833e-06  1.0643599e+08
   3150000   5.7483383e-10  99898.516      99882.411      105618.85      2.5923814e-06  5.1732158e-07  2.0750598e-06  1.0643543e+08
   3151000   5.7501631e-10  99910.086      99895.637      105076.81      2.5923702e-06  5.1707005e-07  2.0753002e-06  1.0643895e+08
   3152000   5.751988e-10   99904.301      99892.607      104149.31      2.5923508e-06  5.1717081e-07  2.07518e-06    1.0643448e+08
   3153000   5.7538129e-10  99908.687      99898.056      103798.22      2.5923455e-06  5.1707438e-07  2.0752711e-06  1.0643439e+08
   3154000   5.7556377e-10  99901.487      99889.344      104296.57      2.5923501e-06  5.172286e-07   2.0751215e-06  1.0643302e+08
   3155000   5.7574626e-10  99899.061      99886.208      104531.59      2.592376e-06   5.173049e-07   2.0750711e-06  1.0643642e+08
   3156000   5.7592875e-10  99901.374      99887.353      104924.57      2.5923957e-06  5.1727651e-07  2.0751192e-06  1.0643682e+08
   3157000   5.7611124e-10  99915.817      99902.055      104852.82      2.5923824e-06  5.1696323e-07  2.0754192e-06  1.0643984e+08
   3158000   5.7629372e-10  99911.468      99898.91       104445.83      2.5923598e-06  5.1703095e-07  2.0753289e-06  1.064375e+08 
   3159000   5.7647621e-10  99903.4        99892.225      103974.96      2.5923594e-06  5.1719816e-07  2.0751613e-06  1.0643481e+08
   3160000   5.766587e-10   99906.721      99893.551      104645.53      2.5923587e-06  5.1712841e-07  2.0752303e-06  1.0643627e+08
   3161000   5.7684118e-10  99891.192      99875.66       105419.76      2.5923397e-06  5.1743203e-07  2.0749077e-06  1.0643033e+08
   3162000   5.7702367e-10  99900.915      99886.035      105211.38      2.5923612e-06  5.1725157e-07  2.0751096e-06  1.0643523e+08
   3163000   5.7720616e-10  99877.314      99860.996      105669.04      2.5923717e-06  5.1775232e-07  2.0746194e-06  1.0643177e+08
   3164000   5.7738864e-10  99905.651      99890.739      105226.88      2.5923792e-06  5.1717118e-07  2.075208e-06   1.0643797e+08
   3165000   5.7757113e-10  99906.579      99894.18       104387.42      2.5923571e-06  5.1712978e-07  2.0752273e-06  1.0643384e+08
   3166000   5.7775362e-10  99906.026      99895.338      103814.66      2.592351e-06   5.1713521e-07  2.0752158e-06  1.06432e+08  
   3167000   5.779361e-10   99900.06       99888.701      104033.4       2.5923618e-06  5.1726991e-07  2.0750919e-06  1.0643344e+08
   3168000   5.7811859e-10  99905.127      99894.822      103685.86      2.5923786e-06  5.1718143e-07  2.0751972e-06  1.0643642e+08
   3169000   5.7830108e-10  99922.338      99913.618      103172.9       2.5923659e-06  5.1681121e-07  2.0755547e-06  1.0644091e+08
   3170000   5.7848357e-10  99926.907      99917.862      103285.97      2.5923805e-06  5.1673093e-07  2.0756495e-06  1.0644194e+08
   3171000   5.7866605e-10  99907.602      99896.211      104051.31      2.5923558e-06  5.1710726e-07  2.0752486e-06  1.0643322e+08
   3172000   5.7884854e-10  99923.088      99910.809      104364.17      2.5923412e-06  5.1677095e-07  2.0755702e-06  1.0643611e+08
   3173000   5.7903103e-10  99918.667      99908.808      103550.11      2.5923539e-06  5.1687554e-07  2.0754784e-06  1.0643675e+08
   3174000   5.7921351e-10  99915.987      99907.646      103039.84      2.592355e-06   5.1693227e-07  2.0754227e-06  1.0643459e+08
   3175000   5.79396e-10    99921.188      99915.423      102183.46      2.5923479e-06  5.1681712e-07  2.0755308e-06  1.064371e+08 
   3176000   5.7957849e-10  99914.08       99908.593      102083.52      2.592362e-06   5.169789e-07   2.0753831e-06  1.0643965e+08
   3177000   5.7976097e-10  99903.498      99895.911      102774.88      2.5923729e-06  5.1720956e-07  2.0751633e-06  1.0643723e+08
   3178000   5.7994346e-10  99907.969      99900.423      102765.95      2.5923456e-06  5.1708946e-07  2.0752562e-06  1.0643657e+08
   3179000   5.8012595e-10  99910.396      99902.213      102981.17      2.5923567e-06  5.1705008e-07  2.0753066e-06  1.064384e+08 
   3180000   5.8030843e-10  99908.433      99898.221      103658.19      2.5923467e-06  5.1708087e-07  2.0752658e-06  1.064337e+08 
   3181000   5.8049092e-10  99922.485      99910.253      104347.62      2.5923453e-06  5.1678762e-07  2.0755577e-06  1.0643851e+08
   3182000   5.8067341e-10  99924.124      99911.015      104642.52      2.5923345e-06  5.1674278e-07  2.0755917e-06  1.0643903e+08
   3183000   5.808559e-10   99899.852      99887.514      104360.44      2.5923733e-06  5.172857e-07   2.0750876e-06  1.0643308e+08
   3184000   5.8103838e-10  99907.243      99896.443      103853.1       2.5923428e-06  5.1710176e-07  2.0752411e-06  1.0643272e+08
   3185000   5.8122087e-10  99908.896      99896.541      104375.29      2.5923536e-06  5.1707815e-07  2.0752754e-06  1.06435e+08  
   3186000   5.8140336e-10  99914.371      99901.074      104695.56      2.5923505e-06  5.1696132e-07  2.0753892e-06  1.0643684e+08
   3187000   5.8158584e-10  99891.621      99878.904      104478.96      2.5923433e-06  5.1742671e-07  2.0749166e-06  1.0643015e+08
   3188000   5.8176833e-10  99916.442      99906.85       103458.75      2.5923546e-06  5.1692237e-07  2.0754322e-06  1.0643765e+08
   3189000   5.8195082e-10  99930.171      99918.602      104133.66      2.5923512e-06  5.1663384e-07  2.0757174e-06  1.064404e+08 
   3190000   5.821333e-10   99923.723      99912.398      104045.66      2.5923135e-06  5.1673005e-07  2.0755834e-06  1.0643387e+08
   3191000   5.8231579e-10  99915.288      99905.141      103643.17      2.5923261e-06  5.1691788e-07  2.0754082e-06  1.0643325e+08
   3192000   5.8249828e-10  99903.773      99893.344      103725.62      2.5923439e-06  5.1717489e-07  2.075169e-06   1.0643395e+08
   3193000   5.8268076e-10  99902.226      99891.666      103768.31      2.5923517e-06  5.172148e-07   2.0751369e-06  1.0643447e+08
   3194000   5.8286325e-10  99894.276      99883.038      103986.9       2.5923606e-06  5.1738882e-07  2.0749717e-06  1.0643005e+08
   3195000   5.8304574e-10  99895.639      99882.861      104503.17      2.5923579e-06  5.1735789e-07  2.0750001e-06  1.064323e+08 
   3196000   5.8322823e-10  99911.879      99898.8        104620.25      2.5923433e-06  5.1700592e-07  2.0753374e-06  1.0643363e+08
   3197000   5.8341071e-10  99925.768      99911.232      105121.28      2.5923337e-06  5.1670777e-07  2.0756259e-06  1.0643552e+08
   3198000   5.835932e-10   99921.159      99908.366      104533.99      2.592355e-06   5.1682486e-07  2.0755302e-06  1.0643631e+08
   3199000   5.8377569e-10  99930.324      99919.701      103817.5       2.592339e-06   5.1661842e-07  2.0757205e-06  1.0643986e+08
   3200000   5.8395817e-10  99922.671      99911.289      104063.74      2.5923769e-06  5.1681533e-07  2.0755616e-06  1.0644282e+08
   3201000   5.8414066e-10  99903.756      99893.803      103566.71      2.5923628e-06  5.1719418e-07  2.0751687e-06  1.0643494e+08
   3202000   5.8432315e-10  99893.144      99884.404      103150.22      2.592357e-06   5.1740872e-07  2.0749482e-06  1.064291e+08 
   3203000   5.8450563e-10  99914.964      99905.879      103287.48      2.5923626e-06  5.1696118e-07  2.0754015e-06  1.0643688e+08
   3204000   5.8468812e-10  99901.915      99892.011      103548.17      2.5923651e-06  5.172347e-07   2.0751304e-06  1.064348e+08 
   3205000   5.8487061e-10  99899.698      99889.746      103562.14      2.5923723e-06  5.1728796e-07  2.0750844e-06  1.064362e+08 
   3206000   5.8505309e-10  99917.141      99906.256      103891.83      2.5923623e-06  5.1691559e-07  2.0754467e-06  1.0644206e+08
   3207000   5.8523558e-10  99899.911      99890.935      103236.01      2.5923781e-06  5.1728933e-07  2.0750888e-06  1.0643595e+08
   3208000   5.8541807e-10  99913.856      99903.925      103569.34      2.5923538e-06  5.1697531e-07  2.0753785e-06  1.0643826e+08
   3209000   5.8560056e-10  99919.124      99910.527      103128.51      2.5923403e-06  5.1685246e-07  2.0754879e-06  1.0643737e+08
   3210000   5.8578304e-10  99892.942      99883.766      103295.9       2.5923557e-06  5.1741162e-07  2.0749441e-06  1.0643116e+08
   3211000   5.8596553e-10  99909.665      99900.916      103169.82      2.5923402e-06  5.1704876e-07  2.0752914e-06  1.0643508e+08
   3212000   5.8614802e-10  99909.248      99902.788      102403.9       2.592361e-06   5.1707829e-07  2.0752827e-06  1.0643365e+08
   3213000   5.863305e-10   99908.32       99901.44       102543.39      2.5923448e-06  5.170813e-07   2.0752635e-06  1.064325e+08 
   3214000   5.8651299e-10  99925.035      99916.694      103048.77      2.5923495e-06  5.1673884e-07  2.0756107e-06  1.0643723e+08
   3215000   5.8669548e-10  99905.296      99895.682      103454.75      2.5923578e-06  5.1715711e-07  2.0752006e-06  1.0643446e+08
   3216000   5.8687796e-10  99917.318      99907.747      103452.5       2.5923465e-06  5.1689612e-07  2.0754504e-06  1.064376e+08 
   3217000   5.8706045e-10  99897.336      99887.234      103609.78      2.5923633e-06  5.1732803e-07  2.0750353e-06  1.0643232e+08
   3218000   5.8724294e-10  99908.873      99898.769      103622.23      2.5923684e-06  5.1709342e-07  2.075275e-06   1.0643675e+08
   3219000   5.8742542e-10  99921.75       99910.484      104024.07      2.5923658e-06  5.1682335e-07  2.0755424e-06  1.0644117e+08
   3220000   5.8760791e-10  99894.054      99882.902      103957.84      2.5923524e-06  5.1738527e-07  2.0749671e-06  1.0643351e+08
   3221000   5.877904e-10   99904.123      99894.463      103468.86      2.5923521e-06  5.1717585e-07  2.0751763e-06  1.0643441e+08
   3222000   5.8797289e-10  99887.259      99878.244      103236.16      2.5923649e-06  5.1753894e-07  2.074826e-06   1.0642973e+08
   3223000   5.8815537e-10  99908.984      99901.22       102839.67      2.5923364e-06  5.1705918e-07  2.0752773e-06  1.0643614e+08
   3224000   5.8833786e-10  99911.86       99904.177      102815.65      2.5923393e-06  5.1700234e-07  2.075337e-06   1.0643596e+08
   3225000   5.8852035e-10  99912.609      99905.616      102585.37      2.5923574e-06  5.1700482e-07  2.0753526e-06  1.0643727e+08
   3226000   5.8870283e-10  99897.018      99888.538      103067.13      2.5923459e-06  5.1731722e-07  2.0750287e-06  1.0643182e+08
   3227000   5.8888532e-10  99892.13       99884.943      102629.69      2.5923374e-06  5.174102e-07   2.0749272e-06  1.0642866e+08
   3228000   5.8906781e-10  99888.616      99882.482      102274.28      2.5923419e-06  5.1748773e-07  2.0748542e-06  1.0642701e+08
   3229000   5.8925029e-10  99913.173      99907.469      102155         2.5923549e-06  5.1699067e-07  2.0753643e-06  1.0643768e+08
   3230000   5.8943278e-10  99913.73       99908.098      102131.27      2.5923498e-06  5.1697394e-07  2.0753758e-06  1.0643909e+08
   3231000   5.8961527e-10  99914.872      99909.171      102155.47      2.5923353e-06  5.169357e-07   2.0753996e-06  1.0643621e+08
   3232000   5.8979775e-10  99906.725      99900.829      102212.74      2.5923713e-06  5.1714098e-07  2.0752303e-06  1.0643513e+08
   3233000   5.8998024e-10  99915.763      99911.346      101727.04      2.5923568e-06  5.1693869e-07  2.0754181e-06  1.0643736e+08
   3234000   5.9016273e-10  99895.22       99890.28       101881.52      2.5923491e-06  5.173577e-07   2.0749914e-06  1.0643095e+08
   3235000   5.9034522e-10  99907.19       99900.842      102364.43      2.5923613e-06  5.1712129e-07  2.07524e-06    1.0643608e+08
   3236000   5.905277e-10   99903.322      99896.145      102637.78      2.5923291e-06  5.1716943e-07  2.0751597e-06  1.0642943e+08
   3237000   5.9071019e-10  99901.013      99891.476      103424.67      2.592348e-06   5.1723633e-07  2.0751117e-06  1.0643214e+08
   3238000   5.9089268e-10  99891.889      99882.485      103370.88      2.5923618e-06  5.1743968e-07  2.0749222e-06  1.0643156e+08
   3239000   5.9107516e-10  99893.641      99885.68       102890.06      2.5923705e-06  5.1741194e-07  2.0749586e-06  1.0643419e+08
   3240000   5.9125765e-10  99906.941      99900.21       102492.25      2.5923558e-06  5.1712101e-07  2.0752348e-06  1.064341e+08 
   3241000   5.9144014e-10  99923.025      99915.995      102608.4       2.5923521e-06  5.1678316e-07  2.0755689e-06  1.0643861e+08
   3242000   5.9162262e-10  99911.14       99901.314      103531.57      2.5923309e-06  5.1700887e-07  2.075322e-06   1.0643409e+08
   3243000   5.9180511e-10  99901.708      99892.249      103399.22      2.5923465e-06  5.1722041e-07  2.0751261e-06  1.0643359e+08
   3244000   5.919876e-10   99927.252      99916.873      103732.75      2.5923637e-06  5.1670701e-07  2.0756567e-06  1.0644013e+08
   3245000   5.9217008e-10  99920.471      99910.923      103447.92      2.5923415e-06  5.1682563e-07  2.0755159e-06  1.0643671e+08
   3246000   5.9235257e-10  99903.518      99894.102      103386.97      2.5923443e-06  5.1718061e-07  2.0751637e-06  1.0643128e+08
   3247000   5.9253506e-10  99908.576      99899.015      103440.43      2.5923469e-06  5.1707809e-07  2.0752688e-06  1.064345e+08 
   3248000   5.9271755e-10  99900.607      99891.797      103181.17      2.5923669e-06  5.1726362e-07  2.0751032e-06  1.064338e+08 
   3249000   5.9290003e-10  99904.486      99896.715      102837.5       2.5923895e-06  5.1720565e-07  2.0751838e-06  1.0643867e+08
   3250000   5.9308252e-10  99908.965      99901.233      102829.02      2.5923785e-06  5.171016e-07   2.0752769e-06  1.0643883e+08
   3251000   5.9326501e-10  99907.355      99902.281      101938.28      2.5923494e-06  5.1710596e-07  2.0752434e-06  1.0643389e+08
   3252000   5.9344749e-10  99896.643      99891.75       101867.4       2.5923585e-06  5.1733754e-07  2.0750209e-06  1.0643352e+08
   3253000   5.9362998e-10  99897.897      99891.991      102207.37      2.5923523e-06  5.1730531e-07  2.075047e-06   1.0643374e+08
   3254000   5.9381247e-10  99903.599      99894.577      103255.02      2.5923692e-06  5.1720375e-07  2.0751654e-06  1.0643544e+08
   3255000   5.9399495e-10  99916.006      99906.257      103510.64      2.5923572e-06  5.1693407e-07  2.0754231e-06  1.0643894e+08
   3256000   5.9417744e-10  99898.936      99889.426      103413.66      2.5923791e-06  5.1731059e-07  2.0750686e-06  1.0643567e+08
