Job ID:        432843
Host:          daisg116
Start time:    Mon Aug 31 01:59:45 PM CEST 2026
Working dir:   /dais/fs/scratch/kshao/wd/White-Dwarf-Codes/unforced/daisslurm/daisproduction
MPI tasks:     1
CPUs/task:     12
Visible GPU:   0
LAMMPS:        /u/kshao/software/lammps-gpu-cuda12-install/bin/lmp
Input:         unforcedprod_v1.0e+06_c2.in
Currently Loaded Modulefiles:
 1) gcc/14   2) cuda/12.8   3) openmpi/5.0  
name, uuid, driver_version, memory.total [MiB]
NVIDIA H200, GPU-b1eebd16-4458-7135-6d20-ce9125e65e19, 580.173.02, 143771 MiB
Preflight checks passed; launching LAMMPS.
LAMMPS (22 Jul 2025 - Update 4)
  using 1 OpenMP thread(s) per MPI task
Created orthogonal box = (0 0 0) to (2.5694819e-05 2.5694819e-05 2.5694819e-05)
  1 by 1 by 1 MPI processor grid
Created 100000 atoms
  using lattice units in orthogonal box = (0 0 0) to (2.5694819e-05 2.5694819e-05 2.5694819e-05)
  create_atoms CPU = 117.695 seconds
Created 300 atoms
  using lattice units in orthogonal box = (0 0 0) to (2.5694819e-05 2.5694819e-05 2.5694819e-05)
  create_atoms CPU = 0.666 seconds
300 atoms in group Si
100000 atoms in group H

CITE-CITE-CITE-CITE-CITE-CITE-CITE-CITE-CITE-CITE-CITE-CITE-CITE

Your simulation uses code contributions which should be cited:
- GPU package (short-range, long-range and three-body potentials): doi:10.1016/j.cpc.2010.12.021, doi:10.1016/j.cpc.2011.10.012, doi:10.1016/j.cpc.2013.08.002, doi:10.1016/j.commatsci.2014.10.068, doi:10.1016/j.cpc.2016.10.020, doi:10.3233/APC200086
The log file lists these citations in BibTeX format.

CITE-CITE-CITE-CITE-CITE-CITE-CITE-CITE-CITE-CITE-CITE-CITE-CITE


--------------------------------------------------------------------------
- Using acceleration for yukawa:
-  with 1 proc(s) per device.
-  with 1 thread(s) per proc.
-  Horizontal vector operations: ENABLED
-  Shared memory system: No
--------------------------------------------------------------------------
Device 0: NVIDIA H200, 132 CUs, 1.4e+02/1.4e+02 GB, 2 GHZ (Mixed Precision)
--------------------------------------------------------------------------

Initializing Device and compiling on process 0...Done.
Initializing Device 0 on core 0...Done.

Generated 0 of 1 mixed pair_coeff terms from geometric mixing rule
Neighbor list info ...
  update: every = 1 steps, delay = 0 steps, check = yes
  max neighbors/atom: 10000, page size: 100000
  master list distance cutoff = 4.6290089e-06
  ghost atom cutoff = 4.6290089e-06
  binsize = 2.3145045e-06, bins = 12 12 12
  1 neighbor lists, perpetual/occasional/extra = 1 0 0
  (1) pair yukawa/gpu, perpetual
      attributes: full, newton on
      pair build: full/bin/atomonly
      stencil: full/bin/3d
      bin: standard
Setting up Verlet run ...
  Unit style    : cgs
  Current step  : 0
  Time step     : 1.54991304451046e-16
Per MPI rank memory allocation (min/avg/max) = 1085 | 1085 | 1085 Mbytes
   Step          Time           Temp         c_tempH        c_tempSi        TotEng         PotEng         KinEng         Press           v_k0           v_dt        v_collfreq       v_ccs     
         0   0              100000         100011         96653.987      2.5985855e-06  5.214177e-07   2.0771678e-06  1.0662735e+08  1080144.8      1.549913e-16   6.9419281e+10  1.680297e-15 
      1000   1.549913e-13   100106.96      100119.06      96393.455      2.5979134e-06  5.1852395e-07  2.0793895e-06  1.0664493e+08  1080144.8      1.549913e-16   6.9419281e+10  1.680297e-15 
      2000   3.0998261e-13  99976.967      99987.844      96673.507      2.5942232e-06  5.1753381e-07  2.0766894e-06  1.0650432e+08  1080144.8      1.549913e-16   6.9419281e+10  1.680297e-15 
Loop time of 20.3624 on 1 procs for 2000 steps with 100300 atoms

99.5% CPU use with 1 MPI tasks x 1 OpenMP threads

MPI task timing breakdown:
Section |  min time  |  avg time  |  max time  |%varavg| %total
---------------------------------------------------------------
Pair    | 3.3592     | 3.3592     | 3.3592     |   0.0 | 16.50
Neigh   | 13.381     | 13.381     | 13.381     |   0.0 | 65.71
Comm    | 1.1126     | 1.1126     | 1.1126     |   0.0 |  5.46
Output  | 0.0082786  | 0.0082786  | 0.0082786  |   0.0 |  0.04
Modify  | 1.7999     | 1.7999     | 1.7999     |   0.0 |  8.84
Other   |            | 0.7018     |            |       |  3.45

Nlocal:         100300 ave      100300 max      100300 min
Histogram: 1 0 0 0 0 0 0 0 0 0
Nghost:         151728 ave      151728 max      151728 min
Histogram: 1 0 0 0 0 0 0 0 0 0
Neighs:              0 ave           0 max           0 min
Histogram: 1 0 0 0 0 0 0 0 0 0
FullNghs:   2.4636e+08 ave  2.4636e+08 max  2.4636e+08 min
Histogram: 1 0 0 0 0 0 0 0 0 0

Total # of neighbors = 2.463602e+08
Ave neighs/atom = 2456.2333
Neighbor list builds = 4
Dangerous builds = 0


---------------------------------------------------------------------
      Device Time Info (average): 
---------------------------------------------------------------------
Data Transfer:   0.2772 s.
Neighbor copy:   0.7783 s.
Neighbor unpack: 0.0000 s.
Force calc:      2.0891 s.
Device Overhead: 0.0716 s.
CPU Cast/Pack:   0.8692 s.
CPU Driver_Time: 0.0269 s.
CPU Idle_Time:   1.8061 s.
Average split:   1.0000.
Max Mem / Proc:  1239.66 MB.
Prefetch mode:   None.
Vector width:    32.
Lanes / atom:    4.
Pair block:      256.
Neigh block:     128.
Neigh mode:      Host.
---------------------------------------------------------------------


--------------------------------------------------------------------------
- Using acceleration for yukawa:
-  with 1 proc(s) per device.
-  with 1 thread(s) per proc.
-  Horizontal vector operations: ENABLED
-  Shared memory system: No
--------------------------------------------------------------------------
Device 0: NVIDIA H200, 132 CUs, 1.4e+02/1.4e+02 GB, 2 GHZ (Mixed Precision)
--------------------------------------------------------------------------

Initializing Device and compiling on process 0...Done.
Initializing Device 0 on core 0...Done.

Generated 0 of 1 mixed pair_coeff terms from geometric mixing rule
Setting up Verlet run ...
  Unit style    : cgs
  Current step  : 2000
  Time step     : 1.54991304451046e-16
Per MPI rank memory allocation (min/avg/max) = 1090 | 1090 | 1090 Mbytes
   Step          Time           Temp         c_tempH        c_tempSi        TotEng         PotEng         KinEng         Press     
      2000   3.0998261e-13  100345.28      99987.844      220224.13      2.6018737e-06  5.1753381e-07  2.0843399e-06  1.0680497e+08
      3000   4.6497391e-13  100373.83      100020.25      218964.66      2.6018636e-06  5.1693069e-07  2.084933e-06   1.0681067e+08
      4000   6.1996522e-13  100363.66      100012.95      217990.09      2.6018646e-06  5.1714297e-07  2.0847216e-06  1.0680895e+08
      5000   7.7495652e-13  100366.94      100016.63      217862.81      2.6018574e-06  5.1706757e-07  2.0847898e-06  1.0680968e+08
      6000   9.2994783e-13  100362.47      100013.09      217544.74      2.6018624e-06  5.1716546e-07  2.0846969e-06  1.0680743e+08
      7000   1.0849391e-12  100357.86      100008.75      217450.2       2.6018539e-06  5.1725267e-07  2.0846012e-06  1.0680458e+08
      8000   1.2399304e-12  100377.97      100030.86      216803.98      2.6018446e-06  5.1682575e-07  2.0850189e-06  1.0681178e+08
      9000   1.3949217e-12  100366.35      100023.63      215320.18      2.6018301e-06  5.1705271e-07  2.0847774e-06  1.0680562e+08
     10000   1.549913e-12   100380.04      100038.96      214788.22      2.6018512e-06  5.1678946e-07  2.0850618e-06  1.0681082e+08
     11000   1.7049043e-12  100357.34      100020.28      213421.37      2.6018649e-06  5.1727449e-07  2.0845905e-06  1.0680633e+08
     12000   1.8598957e-12  100354.51      100017.98      213242.4       2.6018798e-06  5.1734822e-07  2.0845316e-06  1.0680877e+08
     13000   2.014887e-12   100351.44      100016.94      212556.96      2.6018619e-06  5.1739418e-07  2.0844677e-06  1.0680554e+08
     14000   2.1698783e-12  100359.6       100029.63      211050.1       2.6018622e-06  5.1722493e-07  2.0846373e-06  1.0680666e+08
     15000   2.3248696e-12  100374.13      100045.26      210697.19      2.6018507e-06  5.1691165e-07  2.0849391e-06  1.0681061e+08
     16000   2.4798609e-12  100380.36      100054.58      209670.14      2.6018465e-06  5.16778e-07    2.0850685e-06  1.0681074e+08
     17000   2.6348522e-12  100390.19      100068.77      208223.84      2.6018359e-06  5.1656306e-07  2.0852728e-06  1.0681172e+08
     18000   2.7898435e-12  100380.06      100061.66      207201.61      2.601842e-06   5.1677975e-07  2.0850623e-06  1.0681019e+08
     19000   2.9448348e-12  100377.77      100060.25      206906.23      2.6018524e-06  5.168377e-07   2.0850147e-06  1.0681259e+08
     20000   3.0998261e-12  100359.2       100042.42      206640.63      2.6018852e-06  5.1725617e-07  2.084629e-06   1.0681023e+08
     21000   3.2548174e-12  100365.23      100048.94      206485.29      2.6018797e-06  5.171253e-07   2.0847544e-06  1.0681154e+08
     22000   3.4098087e-12  100355.09      100041.81      205467.56      2.6018622e-06  5.173185e-07   2.0845437e-06  1.068064e+08 
     23000   3.5648e-12     100370.64      100059.79      204671.35      2.6018575e-06  5.1699075e-07  2.0848667e-06  1.0681101e+08
     24000   3.7197913e-12  100356.46      100048.01      203851.26      2.6018586e-06  5.1728645e-07  2.0845721e-06  1.0680386e+08
     25000   3.8747826e-12  100344         100035.27      203934.33      2.6018457e-06  5.1753237e-07  2.0843134e-06  1.0679945e+08
     26000   4.0297739e-12  100348.95      100040.06      203991.29      2.6018374e-06  5.1742124e-07  2.0844162e-06  1.0680225e+08
     27000   4.1847652e-12  100347.31      100039.14      203747.37      2.6018395e-06  5.1745748e-07  2.084382e-06   1.0680212e+08
     28000   4.3397565e-12  100359.76      100050.88      203998.89      2.6018652e-06  5.172245e-07   2.0846407e-06  1.0680751e+08
     29000   4.4947478e-12  100383.42      100074.47      204045.71      2.6018579e-06  5.1672586e-07  2.085132e-06   1.0681414e+08
     30000   4.6497391e-12  100375.83      100064.52      204826.23      2.6018618e-06  5.1688744e-07  2.0849744e-06  1.0681143e+08
     31000   4.8047304e-12  100359.46      100048.77      204602.74      2.6018777e-06  5.1724334e-07  2.0846343e-06  1.0680831e+08
     32000   4.9597217e-12  100363.93      100055.27      203930.7       2.6018561e-06  5.1712876e-07  2.0847273e-06  1.0680698e+08
     33000   5.114713e-12   100398.05      100092.5       202923.59      2.6018591e-06  5.1642315e-07  2.085436e-06   1.0681651e+08
     34000   5.2697044e-12  100361.84      100058.46      202161.05      2.6018526e-06  5.1716868e-07  2.0846839e-06  1.0680576e+08
     35000   5.4246957e-12  100346.5       100045.64      201305         2.6018596e-06  5.1749432e-07  2.0843653e-06  1.0680241e+08
     36000   5.579687e-12   100361.92      100062.5       200838.25      2.6018817e-06  5.171962e-07   2.0846855e-06  1.0681113e+08
     37000   5.7346783e-12  100365.53      100065.42      201069.81      2.6018676e-06  5.171072e-07   2.0847604e-06  1.0681173e+08
     38000   5.8896696e-12  100346.18      100047.52      200567.42      2.6018615e-06  5.1750294e-07  2.0843586e-06  1.0680269e+08
     39000   6.0446609e-12  100360.31      100062.72      200224.44      2.6018516e-06  5.1719939e-07  2.0846522e-06  1.0680737e+08
     40000   6.1996522e-12  100336.83      100038.84      200336.66      2.6018559e-06  5.1769149e-07  2.0841644e-06  1.0680051e+08
     41000   6.3546435e-12  100358.94      100063.15      199622.83      2.60187e-06    5.172463e-07   2.0846237e-06  1.0680873e+08
     42000   6.5096348e-12  100361.25      100067.97      198783.59      2.601889e-06   5.1721748e-07  2.0846715e-06  1.0681022e+08
     43000   6.6646261e-12  100359.08      100068.15      197995.64      2.6018705e-06  5.1724399e-07  2.0846265e-06  1.0680833e+08
     44000   6.8196174e-12  100379.82      100088.52      198139.42      2.6018576e-06  5.1680036e-07  2.0850572e-06  1.0681221e+08
     45000   6.9746087e-12  100378.39      100087.5       197999.6       2.6018658e-06  5.1683823e-07  2.0850276e-06  1.0681383e+08
     46000   7.1296e-12     100345.7       100052.14      198862.88      2.6018656e-06  5.1751699e-07  2.0843487e-06  1.0680331e+08
     47000   7.2845913e-12  100357.69      100059.19      200525.59      2.6018561e-06  5.172584e-07   2.0845977e-06  1.0680816e+08
     48000   7.4395826e-12  100370.83      100072.95      200331.32      2.6018651e-06  5.1699447e-07  2.0848706e-06  1.0681216e+08
     49000   7.5945739e-12  100368.92      100071.56      200151.94      2.6018748e-06  5.1704401e-07  2.0848308e-06  1.068125e+08 
     50000   7.7495652e-12  100387.82      100090.55      200142.87      2.6018598e-06  5.1663635e-07  2.0852235e-06  1.0681635e+08
     51000   7.9045565e-12  100377.4       100078.71      200609.88      2.6018408e-06  5.1683366e-07  2.0850071e-06  1.0681087e+08
     52000   8.0595478e-12  100367.19      100071.08      199734.79      2.6018587e-06  5.1706384e-07  2.0847949e-06  1.0680825e+08
     53000   8.2145391e-12  100374.74      100080.2       199217.09      2.6018535e-06  5.1690172e-07  2.0849517e-06  1.0681131e+08
     54000   8.3695304e-12  100368.87      100074.08      199294.32      2.6018654e-06  5.1703562e-07  2.0848298e-06  1.068099e+08 
     55000   8.5245217e-12  100385.69      100091.36      199158.68      2.6018291e-06  5.1664979e-07  2.0851793e-06  1.0681412e+08
     56000   8.679513e-12   100374.76      100081.72      198715.41      2.6018551e-06  5.1690297e-07  2.0849522e-06  1.0681255e+08
     57000   8.8345044e-12  100351.58      100062.61      197329.13      2.601849e-06   5.1737836e-07  2.0844706e-06  1.0680359e+08
     58000   8.9894957e-12  100369.87      100084.04      196298.17      2.6018592e-06  5.1700863e-07  2.0848506e-06  1.0681058e+08
     59000   9.144487e-12   100377.57      100092.87      195929.28      2.6018541e-06  5.1684358e-07  2.0850105e-06  1.0681321e+08
     60000   9.2994783e-12  100361.45      100077.43      195685.63      2.6018497e-06  5.1717392e-07  2.0846758e-06  1.0680644e+08
     61000   9.4544696e-12  100370.25      100086.17      195714.74      2.6018508e-06  5.1699221e-07  2.0848586e-06  1.0680909e+08
     62000   9.6094609e-12  100357.89      100074.87      195348.14      2.6018412e-06  5.1723942e-07  2.0846018e-06  1.0680347e+08
     63000   9.7644522e-12  100362.83      100079.34      195511.41      2.6018494e-06  5.1714504e-07  2.0847044e-06  1.0680556e+08
     64000   9.9194435e-12  100371.11      100086.89      195764.31      2.6018674e-06  5.1699101e-07  2.0848764e-06  1.0681068e+08
     65000   1.0074435e-11  100373.6       100090.22      195486.14      2.6018706e-06  5.1694244e-07  2.0849282e-06  1.0681155e+08
     66000   1.0229426e-11  100361.69      100080.94      194595.38      2.6018551e-06  5.1717428e-07  2.0846808e-06  1.0680661e+08
     67000   1.0384417e-11  100351.63      100074.24      193460.24      2.6018577e-06  5.1738597e-07  2.0844718e-06  1.0680475e+08
     68000   1.0539409e-11  100368.39      100093.2       192739.08      2.6018576e-06  5.1703772e-07  2.0848198e-06  1.068106e+08 
     69000   1.06944e-11    100346.4       100073.64      191903.3       2.6018641e-06  5.175011e-07   2.084363e-06   1.0680475e+08
     70000   1.0849391e-11  100342.42      100072.47      190959.51      2.6018616e-06  5.1758124e-07  2.0842804e-06  1.0680387e+08
     71000   1.1004383e-11  100385.59      100116.73      190639.16      2.6018971e-06  5.1672001e-07  2.0851771e-06  1.0681961e+08
     72000   1.1159374e-11  100353.26      100084.2       190671.48      2.601865e-06   5.1735951e-07  2.0845055e-06  1.0680484e+08
     73000   1.1314365e-11  100364.05      100096.82      190072.94      2.6018507e-06  5.1712087e-07  2.0847298e-06  1.068087e+08 
     74000   1.1469357e-11  100376.09      100108.87      190082.02      2.6018431e-06  5.1686325e-07  2.0849799e-06  1.0681119e+08
     75000   1.1624348e-11  100367.12      100098.71      190471.7       2.601839e-06   5.1704544e-07  2.0847936e-06  1.0680734e+08
     76000   1.1779339e-11  100377.19      100109.71      190172.18      2.6018582e-06  5.1685542e-07  2.0850028e-06  1.0681284e+08
     77000   1.193433e-11   100366.75      100099.3       190149.95      2.6018674e-06  5.170816e-07   2.0847858e-06  1.068103e+08 
     78000   1.2089322e-11  100352.66      100084.83      190261.26      2.6018673e-06  5.1737418e-07  2.0844931e-06  1.0680499e+08
     79000   1.2244313e-11  100367.28      100101.53      189580.61      2.6018452e-06  5.1704839e-07  2.0847968e-06  1.068086e+08 
     80000   1.2399304e-11  100348.85      100084.12      189220.11      2.6018529e-06  5.1743894e-07  2.0844139e-06  1.0680202e+08
     81000   1.2554296e-11  100363.65      100100.02      188866.95      2.6018562e-06  5.1713485e-07  2.0847214e-06  1.0680939e+08
     82000   1.2709287e-11  100367.41      100106.69      187899.81      2.6018476e-06  5.1704796e-07  2.0847996e-06  1.0681054e+08
     83000   1.2864278e-11  100375.33      100118.31      186670.22      2.6018499e-06  5.1688582e-07  2.0849641e-06  1.068112e+08 
     84000   1.301927e-11   100358.47      100099.13      187429.78      2.6018529e-06  5.1723905e-07  2.0846139e-06  1.0680416e+08
     85000   1.3174261e-11  100369.44      100110.18      187414.67      2.6018602e-06  5.1701851e-07  2.0848417e-06  1.0680876e+08
     86000   1.3329252e-11  100375.92      100114.77      188053.93      2.6018705e-06  5.1689411e-07  2.0849764e-06  1.0681188e+08
     87000   1.3484243e-11  100374.15      100116.08      187020.6       2.6018597e-06  5.1692012e-07  2.0849396e-06  1.0681308e+08
     88000   1.3639235e-11  100381.73      100124.52      186738.48      2.6018683e-06  5.1677136e-07  2.0850969e-06  1.0681601e+08
     89000   1.3794226e-11  100352.61      100097.05      186155.69      2.6018627e-06  5.173707e-07   2.084492e-06   1.0680393e+08
     90000   1.3949217e-11  100366.14      100110.02      186360.78      2.6018806e-06  5.1710742e-07  2.0847732e-06  1.0681091e+08
     91000   1.4104209e-11  100376.03      100122.79      185406.53      2.6018888e-06  5.1691022e-07  2.0849785e-06  1.0681519e+08
     92000   1.42592e-11    100368.78      100117.07      184888.62      2.6018859e-06  5.1705789e-07  2.084828e-06   1.0681472e+08
     93000   1.4414191e-11  100340.9       100093.73      183343.87      2.6019046e-06  5.1765563e-07  2.084249e-06   1.0680752e+08
     94000   1.4569183e-11  100337.95      100091.9       182963.01      2.6018789e-06  5.1769141e-07  2.0841875e-06  1.0680217e+08
     95000   1.4724174e-11  100379.47      100136.06      182123.54      2.6018616e-06  5.1681145e-07  2.0850501e-06  1.0681471e+08
     96000   1.4879165e-11  100376.85      100134.46      181779.28      2.6018555e-06  5.1685975e-07  2.0849957e-06  1.0681238e+08
     97000   1.5034157e-11  100352.82      100112.5       181061.27      2.601844e-06   5.1734762e-07  2.0844964e-06  1.0680348e+08
     98000   1.5189148e-11  100344.71      100106.17      180459.01      2.6018365e-06  5.1750843e-07  2.0843281e-06  1.0679852e+08
     99000   1.5344139e-11  100376.53      100139.85      179871.34      2.6018617e-06  5.168726e-07   2.0849891e-06  1.0681018e+08
    100000   1.549913e-11   100363.86      100129.39      179117.25      2.6018724e-06  5.1714647e-07  2.0847259e-06  1.0680819e+08
    101000   1.5654122e-11  100354.82      100123.56      178033.89      2.601855e-06   5.1731697e-07  2.084538e-06   1.0680465e+08
    102000   1.5809113e-11  100373.19      100145.61      176823.55      2.6018469e-06  5.1692724e-07  2.0849196e-06  1.0681007e+08
    103000   1.5964104e-11  100389         100162.44      176498.36      2.601846e-06   5.1659801e-07  2.085248e-06   1.068147e+08 
    104000   1.6119096e-11  100361.98      100135.57      176420.48      2.6018574e-06  5.1717069e-07  2.0846867e-06  1.068075e+08 
    105000   1.6274087e-11  100355.7       100129.23      176432.5       2.6018657e-06  5.1730947e-07  2.0845562e-06  1.0680591e+08
    106000   1.6429078e-11  100357.85      100131.57      176374.59      2.6018323e-06  5.1723129e-07  2.0846011e-06  1.0680435e+08
    107000   1.658407e-11   100361.92      100137.48      175761.71      2.6018315e-06  5.171459e-07   2.0846856e-06  1.0680562e+08
    108000   1.6739061e-11  100368.4       100143.36      175967.72      2.6018605e-06  5.1704042e-07  2.0848201e-06  1.0680819e+08
    109000   1.6894052e-11  100380.23      100154.8       176109.47      2.6018739e-06  5.1680812e-07  2.0850658e-06  1.0681265e+08
    110000   1.7049043e-11  100361.01      100133.53      176777.9       2.6018667e-06  5.1720008e-07  2.0846666e-06  1.0680824e+08
    111000   1.7204035e-11  100366.73      100139.08      176836.82      2.6018614e-06  5.17076e-07    2.0847854e-06  1.0680882e+08
    112000   1.7359026e-11  100363.83      100136.71      176658.54      2.6018499e-06  5.1712484e-07  2.0847251e-06  1.0680593e+08
    113000   1.7514017e-11  100365.56      100137.77      176882.86      2.6018375e-06  5.1707639e-07  2.0847611e-06  1.0680653e+08
    114000   1.7669009e-11  100370.94      100146.18      175875.7       2.6018413e-06  5.1696851e-07  2.0848728e-06  1.0680845e+08
    115000   1.7824e-11     100359.7       100138.26      174753.55      2.6018515e-06  5.1721206e-07  2.0846394e-06  1.0680563e+08
    116000   1.7978991e-11  100363.09      100142.73      174394.94      2.6018545e-06  5.171448e-07   2.0847097e-06  1.0680834e+08
    117000   1.8133983e-11  100351.35      100133.16      173658.33      2.6018576e-06  5.173917e-07   2.0844659e-06  1.0680475e+08
    118000   1.8288974e-11  100365.34      100149.09      173023.3       2.6018739e-06  5.171175e-07   2.0847564e-06  1.0681025e+08
    119000   1.8443965e-11  100377.06      100162.53      172461.18      2.6018725e-06  5.168726e-07   2.0849999e-06  1.0681454e+08
    120000   1.8598957e-11  100361.23      100148.47      171852.05      2.6018598e-06  5.1718869e-07  2.0846711e-06  1.0680797e+08
    121000   1.8753948e-11  100367.04      100156.32      171177.26      2.6018608e-06  5.1706894e-07  2.0847919e-06  1.0680927e+08
    122000   1.8908939e-11  100381.31      100172.99      170389.74      2.6018647e-06  5.167764e-07   2.0850883e-06  1.0681485e+08
    123000   1.906393e-11   100359         100152.52      169750.58      2.6018648e-06  5.1723997e-07  2.0846248e-06  1.0680788e+08
    124000   1.9218922e-11  100369.13      100165.91      168670.59      2.6018466e-06  5.1701135e-07  2.0848353e-06  1.0681014e+08
    125000   1.9373913e-11  100377.26      100178.72      167114.64      2.6018625e-06  5.1685824e-07  2.0850042e-06  1.0681204e+08
    126000   1.9528904e-11  100372.32      100175.69      166468.47      2.601841e-06   5.1693949e-07  2.0849015e-06  1.0680821e+08
    127000   1.9683896e-11  100370.04      100176.59      165404.43      2.6018366e-06  5.1698247e-07  2.0848541e-06  1.0680734e+08
    128000   1.9838887e-11  100352.91      100160.16      165152.88      2.6018434e-06  5.1734494e-07  2.0844984e-06  1.0680211e+08
    129000   1.9993878e-11  100352.01      100158.37      165448.8       2.6018601e-06  5.173805e-07   2.0844796e-06  1.0680561e+08
    130000   2.014887e-11   100346.58      100154.01      165082.98      2.6018703e-06  5.1750349e-07  2.0843668e-06  1.0680485e+08
    131000   2.0303861e-11  100362.26      100169.4       165196.69      2.6018653e-06  5.1717284e-07  2.0846925e-06  1.0681054e+08
    132000   2.0458852e-11  100344.14      100148.62      166069.74      2.6018843e-06  5.1756817e-07  2.0843161e-06  1.0680436e+08
    133000   2.0613843e-11  100368.48      100173         166080.16      2.6018606e-06  5.170389e-07   2.0848217e-06  1.0681205e+08
    134000   2.0768835e-11  100345.38      100150.74      165775.65      2.6018692e-06  5.175273e-07   2.0843419e-06  1.0680381e+08
    135000   2.0923826e-11  100363.57      100171.22      165029.89      2.6018573e-06  5.1713752e-07  2.0847198e-06  1.068101e+08 
    136000   2.1078817e-11  100345.49      100152.56      165206.86      2.601871e-06   5.1752674e-07  2.0843442e-06  1.068029e+08 
    137000   2.1233809e-11  100356.45      100161.98      165729.52      2.6018683e-06  5.1729644e-07  2.0845718e-06  1.0680704e+08
    138000   2.13888e-11    100360.38      100166.87      165415.66      2.6018583e-06  5.1720478e-07  2.0846535e-06  1.0680715e+08
    139000   2.1543791e-11  100374.56      100182.78      164850.43      2.6018678e-06  5.169198e-07   2.084948e-06   1.0681256e+08
    140000   2.1698783e-11  100366.32      100176.46      164199.63      2.6018571e-06  5.1708015e-07  2.0847769e-06  1.0680779e+08
    141000   2.1853774e-11  100363.95      100173.96      164243.05      2.6018553e-06  5.1712751e-07  2.0847277e-06  1.068071e+08 
    142000   2.2008765e-11  100365.94      100179.11      163184.48      2.6018432e-06  5.170742e-07   2.0847689e-06  1.068063e+08 
    143000   2.2163757e-11  100372.43      100185.94      163078.9       2.6018588e-06  5.1695511e-07  2.0849037e-06  1.0680965e+08
    144000   2.2318748e-11  100379.95      100194         162907.05      2.6018518e-06  5.1679166e-07  2.0850601e-06  1.068117e+08 
    145000   2.2473739e-11  100364.89      100177.83      163262.09      2.6018584e-06  5.1711114e-07  2.0847472e-06  1.0680907e+08
    146000   2.262873e-11   100369.97      100183.69      163006.49      2.6018675e-06  5.1701476e-07  2.0848527e-06  1.0681148e+08
    147000   2.2783722e-11  100361.89      100178.24      162118.95      2.601878e-06   5.1719313e-07  2.0846849e-06  1.06809e+08  
    148000   2.2938713e-11  100366.26      100182.87      162034.6       2.6018576e-06  5.1708204e-07  2.0847756e-06  1.0680884e+08
    149000   2.3093704e-11  100367.21      100183.32      162203.79      2.6018512e-06  5.1705588e-07  2.0847953e-06  1.0680935e+08
    150000   2.3248696e-11  100354.76      100172.32      161706.22      2.6018591e-06  5.1732223e-07  2.0845369e-06  1.0680592e+08
    151000   2.3403687e-11  100354.95      100173.44      161395.8       2.6018592e-06  5.173185e-07   2.0845407e-06  1.0680506e+08
    152000   2.3558678e-11  100361.01      100180.41      161094.97      2.6018558e-06  5.171893e-07   2.0846665e-06  1.068072e+08 
    153000   2.371367e-11   100366.98      100189.06      160208.11      2.6018623e-06  5.170717e-07   2.0847906e-06  1.0681047e+08
    154000   2.3868661e-11  100354.53      100177.26      159976.44      2.6018648e-06  5.1733289e-07  2.084532e-06   1.0680751e+08
    155000   2.4023652e-11  100358.99      100185.15      158832.77      2.6018735e-06  5.1724893e-07  2.0846246e-06  1.0680888e+08
    156000   2.4178643e-11  100370.57      100196.7       158857.25      2.6018799e-06  5.1701473e-07  2.0848652e-06  1.0681498e+08
    157000   2.4333635e-11  100347.35      100175.23      158247.23      2.6018689e-06  5.1748609e-07  2.0843828e-06  1.0680595e+08
    158000   2.4488626e-11  100345.45      100175.72      157446.39      2.6018863e-06  5.175429e-07   2.0843434e-06  1.0680642e+08
    159000   2.4643617e-11  100338.03      100171.2       156469.63      2.601854e-06   5.1766481e-07  2.0841892e-06  1.0679953e+08
    160000   2.4798609e-11  100357.15      100193.57      155399.1       2.601837e-06   5.1725066e-07  2.0845864e-06  1.0680278e+08
    161000   2.49536e-11    100365.87      100201.72      155599.77      2.6018653e-06  5.1709781e-07  2.0847675e-06  1.0681038e+08
    162000   2.5108591e-11  100357.43      100194.3       155251.89      2.6018952e-06  5.1730297e-07  2.0845923e-06  1.0681194e+08
    163000   2.5263583e-11  100354.3       100194.95      153981.22      2.6019021e-06  5.1737497e-07  2.0845271e-06  1.068124e+08 
    164000   2.5418574e-11  100342.97      100183.13      154136.98      2.6018786e-06  5.1758666e-07  2.084292e-06   1.0680628e+08
    165000   2.5573565e-11  100350.25      100191.06      153927.8       2.6018677e-06  5.1742453e-07  2.0844431e-06  1.0680418e+08
    166000   2.5728557e-11  100379.73      100222.66      153244.72      2.6018753e-06  5.1681988e-07  2.0850554e-06  1.0681583e+08
    167000   2.5883548e-11  100358.49      100201.27      153275.29      2.6018852e-06  5.1727105e-07  2.0846142e-06  1.0681079e+08
    168000   2.6038539e-11  100363.53      100209.02      152375.04      2.6018744e-06  5.1715547e-07  2.084719e-06   1.0681178e+08
    169000   2.619353e-11   100351.74      100197.6       152241.5       2.6018564e-06  5.1738222e-07  2.0844741e-06  1.0680388e+08
    170000   2.6348522e-11  100375.63      100220.96      152439.06      2.6018527e-06  5.1688253e-07  2.0849702e-06  1.0681078e+08
    171000   2.6503513e-11  100377.06      100221.24      152826.6       2.6018608e-06  5.1686085e-07  2.085e-06      1.0681314e+08
    172000   2.6658504e-11  100354.77      100198.77      152862.4       2.6018675e-06  5.1733052e-07  2.084537e-06   1.0680691e+08
    173000   2.6813496e-11  100367.65      100213.24      152343.62      2.6018617e-06  5.1705725e-07  2.0848045e-06  1.0680987e+08
    174000   2.6968487e-11  100368.19      100216.68      151375.07      2.6018474e-06  5.1703169e-07  2.0848157e-06  1.0681094e+08
    175000   2.7123478e-11  100356.17      100205.9       150947.52      2.6018694e-06  5.1730333e-07  2.0845661e-06  1.0680761e+08
    176000   2.727847e-11   100372.76      100224.43      150316.65      2.6018652e-06  5.1695461e-07  2.0849106e-06  1.0681064e+08
    177000   2.7433461e-11  100370.26      100223.08      149932.47      2.6018611e-06  5.1700222e-07  2.0848588e-06  1.0681137e+08
    178000   2.7588452e-11  100371.51      100227.38      148913.64      2.6018515e-06  5.1696667e-07  2.0848848e-06  1.0680916e+08
    179000   2.7743443e-11  100359.22      100218.21      147855.16      2.6018596e-06  5.1723013e-07  2.0846295e-06  1.0680469e+08
    180000   2.7898435e-11  100368.55      100227.09      148014.83      2.6018676e-06  5.1704435e-07  2.0848233e-06  1.0681241e+08
    181000   2.8053426e-11  100349.04      100208.4       147718.45      2.6018665e-06  5.174486e-07   2.0844179e-06  1.0680541e+08
    182000   2.8208417e-11  100363.53      100223.25      147613.91      2.601856e-06   5.1713708e-07  2.0847189e-06  1.068087e+08 
    183000   2.8363409e-11  100356.03      100217.71      146952.56      2.6018606e-06  5.1729746e-07  2.0845631e-06  1.0680604e+08
    184000   2.85184e-11    100351.72      100215.3       146313.84      2.6018413e-06  5.1736761e-07  2.0844737e-06  1.0680469e+08
    185000   2.8673391e-11  100341.53      100203.03      146999.71      2.6018586e-06  5.1759657e-07  2.084262e-06   1.0680171e+08
    186000   2.8828383e-11  100363.53      100226.97      146371.41      2.6018784e-06  5.1715947e-07  2.0847189e-06  1.068081e+08 
    187000   2.8983374e-11  100366.12      100230.64      146013.43      2.6018638e-06  5.1709103e-07  2.0847728e-06  1.0681006e+08
    188000   2.9138365e-11  100341.79      100208.27      145334.49      2.6018579e-06  5.1759046e-07  2.0842674e-06  1.0680123e+08
    189000   2.9293357e-11  100381.34      100248.87      145023.48      2.6018805e-06  5.1679151e-07  2.085089e-06   1.0681717e+08
    190000   2.9448348e-11  100356         100225.58      144308.84      2.601881e-06   5.1731843e-07  2.0845626e-06  1.0680744e+08
    191000   2.9603339e-11  100360.45      100233.46      143168.81      2.6018702e-06  5.1721519e-07  2.084655e-06   1.0681036e+08
    192000   2.975833e-11   100361.76      100237.33      142312.09      2.6018811e-06  5.1719881e-07  2.0846822e-06  1.0681071e+08
    193000   2.9913322e-11  100360.34      100239.72      141037.1       2.601857e-06   5.1720423e-07  2.0846527e-06  1.0680613e+08
    194000   3.0068313e-11  100364.37      100243.18      141232.31      2.6018625e-06  5.1712618e-07  2.0847364e-06  1.0680936e+08
    195000   3.0223304e-11  100342.84      100224.28      140329.44      2.6018611e-06  5.1757204e-07  2.0842891e-06  1.0680179e+08
    196000   3.0378296e-11  100358.04      100241.47      139680.08      2.6018568e-06  5.1725194e-07  2.0846049e-06  1.0680447e+08
    197000   3.0533287e-11  100378.79      100263.21      139370.37      2.601842e-06   5.1680607e-07  2.0850359e-06  1.0680932e+08
    198000   3.0688278e-11  100365.22      100248.22      139831.65      2.6018541e-06  5.1709998e-07  2.0847541e-06  1.0680515e+08
    199000   3.084327e-11   100363.27      100247.73      139339.78      2.6018558e-06  5.1714234e-07  2.0847135e-06  1.0680698e+08
    200000   3.0998261e-11  100384.99      100268.95      139528.85      2.6018559e-06  5.1669125e-07  2.0851646e-06  1.0681511e+08
    201000   3.1153252e-11  100356.27      100243.04      138561.43      2.6018548e-06  5.1728667e-07  2.0845682e-06  1.0680443e+08
    202000   3.1308243e-11  100355.04      100245.77      137234.9       2.6018514e-06  5.1730876e-07  2.0845426e-06  1.0680318e+08
    203000   3.1463235e-11  100373.73      100266.28      136644.28      2.6018451e-06  5.1691436e-07  2.0849307e-06  1.0680995e+08
    204000   3.1618226e-11  100385.61      100277.38      136918.63      2.6018587e-06  5.166812e-07   2.0851775e-06  1.0681666e+08
    205000   3.1773217e-11  100359.87      100251.83      136829.11      2.6018732e-06  5.1723036e-07  2.0846429e-06  1.0680944e+08
    206000   3.1928209e-11  100372.17      100266.82      135944.08      2.6018603e-06  5.1696176e-07  2.0848985e-06  1.0681076e+08
    207000   3.20832e-11    100369.13      100264.39      135736.62      2.6018537e-06  5.1701843e-07  2.0848353e-06  1.0680801e+08
    208000   3.2238191e-11  100370.04      100265.25      135755.08      2.6018345e-06  5.1698026e-07  2.0848543e-06  1.0680678e+08
    209000   3.2393183e-11  100363.49      100259.38      135520.23      2.601832e-06   5.1711385e-07  2.0847181e-06  1.0680514e+08
    210000   3.2548174e-11  100364.51      100257.29      136557.95      2.601838e-06   5.1709875e-07  2.0847392e-06  1.0680587e+08
    211000   3.2703165e-11  100369.7       100263.21      136319.63      2.6018328e-06  5.1698574e-07  2.0848471e-06  1.068067e+08 
    212000   3.2858157e-11  100359.74      100253.22      136320.25      2.6018505e-06  5.1721024e-07  2.0846403e-06  1.0680462e+08
    213000   3.3013148e-11  100349.67      100241.53      136853.64      2.6018556e-06  5.1742444e-07  2.0844311e-06  1.0680114e+08
    214000   3.3168139e-11  100374.9       100264.99      137470.11      2.6018473e-06  5.1689218e-07  2.0849551e-06  1.0681078e+08
    215000   3.332313e-11   100369.88      100262.23      136708.27      2.6018725e-06  5.1702155e-07  2.0848509e-06  1.0681147e+08
    216000   3.3478122e-11  100370.05      100261.78      136916.61      2.6018656e-06  5.1701122e-07  2.0848544e-06  1.0680985e+08
    217000   3.3633113e-11  100371.13      100263.91      136566.37      2.6018515e-06  5.1697479e-07  2.0848768e-06  1.0681031e+08
    218000   3.3788104e-11  100353.5       100248.09      135939.82      2.6018424e-06  5.1733184e-07  2.0845105e-06  1.0680211e+08
    219000   3.3943096e-11  100383.25      100279.76      135331.9       2.6018437e-06  5.1671514e-07  2.0851285e-06  1.0681109e+08
    220000   3.4098087e-11  100383.73      100281.36      134958.25      2.6018684e-06  5.1672982e-07  2.0851386e-06  1.0681423e+08
    221000   3.4253078e-11  100368.96      100270.44      133653.72      2.6018639e-06  5.1703225e-07  2.0848316e-06  1.0681114e+08
    222000   3.440807e-11   100376.23      100278.82      133289.46      2.6018489e-06  5.1686609e-07  2.0849828e-06  1.0681118e+08
    223000   3.4563061e-11  100380.57      100282.51      133513.64      2.60185e-06    5.1677705e-07  2.085073e-06   1.0681104e+08
    224000   3.4718052e-11  100374.72      100277.76      133138.58      2.6018632e-06  5.1691176e-07  2.0849514e-06  1.0681156e+08
    225000   3.4873044e-11  100364.69      100270.14      132321.25      2.6018519e-06  5.1710884e-07  2.084743e-06   1.068098e+08 
    226000   3.5028035e-11  100368.24      100275.4       131754.92      2.6018595e-06  5.1704266e-07  2.0848168e-06  1.0680925e+08
    227000   3.5183026e-11  100376.29      100286.51      130739.03      2.6018607e-06  5.1687666e-07  2.0849841e-06  1.0681065e+08
    228000   3.5338017e-11  100381.76      100293.6       130205.09      2.6018476e-06  5.1674987e-07  2.0850977e-06  1.0681247e+08
    229000   3.5493009e-11  100370.89      100284.89      129471.37      2.6018558e-06  5.1698391e-07  2.0848719e-06  1.0680907e+08
    230000   3.5648e-11     100356.17      100272.47      128684.97      2.6018493e-06  5.1728324e-07  2.0845661e-06  1.0680366e+08
    231000   3.5802991e-11  100369.14      100285.91      128538.28      2.6018783e-06  5.1704292e-07  2.0848354e-06  1.0681045e+08
    232000   3.5957983e-11  100372.24      100288.9       128582.19      2.6018556e-06  5.169557e-07   2.0848999e-06  1.0680831e+08
    233000   3.6112974e-11  100359.83      100278.07      128041.5       2.6018408e-06  5.1719871e-07  2.0846421e-06  1.0680386e+08
    234000   3.6267965e-11  100375.99      100296.08      127435.04      2.6018553e-06  5.1687758e-07  2.0849777e-06  1.0681094e+08
    235000   3.6422957e-11  100361.81      100283.58      126860.27      2.6018578e-06  5.1717451e-07  2.0846833e-06  1.0680694e+08
    236000   3.6577948e-11  100361.04      100282.19      127066.13      2.6018741e-06  5.1720692e-07  2.0846672e-06  1.0680939e+08
    237000   3.6732939e-11  100359.65      100281.31      126893.47      2.6018662e-06  5.1722796e-07  2.0846383e-06  1.068083e+08 
    238000   3.688793e-11   100375.8       100296.69      127167.09      2.6018693e-06  5.1689555e-07  2.0849738e-06  1.0681265e+08
    239000   3.7042922e-11  100378.09      100300.84      126548.74      2.6018588e-06  5.1683753e-07  2.0850213e-06  1.068134e+08 
    240000   3.7197913e-11  100364.91      100288.95      126102.57      2.6018561e-06  5.1710853e-07  2.0847475e-06  1.0680872e+08
    241000   3.7352904e-11  100371.56      100295.47      126155.62      2.6018466e-06  5.1696082e-07  2.0848858e-06  1.0681017e+08
    242000   3.7507896e-11  100351.76      100276.21      125955.38      2.6018437e-06  5.1736918e-07  2.0844745e-06  1.0680225e+08
    243000   3.7662887e-11  100363.49      100289.95      125294.61      2.6018594e-06  5.1714137e-07  2.084718e-06   1.0680931e+08
    244000   3.7817878e-11  100364.5       100293.27      124521.26      2.6018573e-06  5.1711832e-07  2.084739e-06   1.068098e+08 
    245000   3.797287e-11   100353.6       100285.15      123580.96      2.6018693e-06  5.1735664e-07  2.0845127e-06  1.0680787e+08
    246000   3.8127861e-11  100350.61      100279.31      124533.81      2.6018863e-06  5.1743571e-07  2.0844506e-06  1.0680666e+08
    247000   3.8282852e-11  100360.87      100290.82      124123.93      2.6018657e-06  5.1720211e-07  2.0846636e-06  1.0680957e+08
    248000   3.8437844e-11  100354.76      100285.99      123692.72      2.6018474e-06  5.1731056e-07  2.0845369e-06  1.0680488e+08
    249000   3.8592835e-11  100375.1       100306.44      123673.48      2.601849e-06   5.1688973e-07  2.0849592e-06  1.0681058e+08
    250000   3.8747826e-11  100386.53      100315.22      124572.56      2.6018666e-06  5.1666984e-07  2.0851967e-06  1.0681631e+08
    251000   3.8902817e-11  100366.88      100294.92      124768.94      2.6018746e-06  5.1708606e-07  2.0847885e-06  1.0681218e+08
    252000   3.9057809e-11  100369.5       100297.75      124701.83      2.6018795e-06  5.1703652e-07  2.084843e-06   1.0681481e+08
    253000   3.92128e-11    100355.21      100284.44      124361.57      2.6018509e-06  5.1730471e-07  2.0845462e-06  1.0680649e+08
    254000   3.9367791e-11  100365.97      100295.23      124357.84      2.6018458e-06  5.1707619e-07  2.0847696e-06  1.068083e+08 
    255000   3.9522783e-11  100357.49      100289.21      123527.34      2.6018504e-06  5.1725701e-07  2.0845934e-06  1.0680606e+08
    256000   3.9677774e-11  100360.42      100290.71      124009.06      2.6018547e-06  5.1720034e-07  2.0846543e-06  1.0681025e+08
    257000   3.9832765e-11  100330.21      100261.48      123654.08      2.6018659e-06  5.1783898e-07  2.0840269e-06  1.067982e+08 
    258000   3.9987757e-11  100378.89      100309.05      124074.99      2.6018619e-06  5.168238e-07   2.0850381e-06  1.0681363e+08
    259000   4.0142748e-11  100361.55      100289.2       124894.32      2.6018543e-06  5.1717646e-07  2.0846778e-06  1.0680621e+08
    260000   4.0297739e-11  100358.69      100282.38      126215.4       2.6018556e-06  5.172372e-07   2.0846184e-06  1.0680548e+08
    261000   4.045273e-11   100359.76      100282.86      126414.95      2.6018355e-06  5.1719487e-07  2.0846406e-06  1.0680599e+08
    262000   4.0607722e-11  100362.75      100283.72      127126.99      2.6018489e-06  5.1714622e-07  2.0847026e-06  1.068081e+08 
    263000   4.0762713e-11  100369.37      100290.01      127245.14      2.6018565e-06  5.1701639e-07  2.0848401e-06  1.0680969e+08
    264000   4.0917704e-11  100359.04      100278.67      127574.57      2.6018633e-06  5.1723755e-07  2.0846258e-06  1.068049e+08 
    265000   4.1072696e-11  100361.94      100279.32      128329.69      2.6018638e-06  5.1717794e-07  2.0846859e-06  1.0680913e+08
    266000   4.1227687e-11  100366.11      100284.75      127912.55      2.6018721e-06  5.1709958e-07  2.0847725e-06  1.0681139e+08
    267000   4.1382678e-11  100372.03      100289.86      128190.5       2.6018552e-06  5.1695971e-07  2.0848955e-06  1.0680955e+08
    268000   4.153767e-11   100378.91      100295.14      128730.6       2.601852e-06   5.1681359e-07  2.0850384e-06  1.0681188e+08
    269000   4.1692661e-11  100371.06      100287.69      128589.57      2.6018469e-06  5.1697153e-07  2.0848754e-06  1.0680981e+08
    270000   4.1847652e-11  100379.71      100299.06      127687.27      2.6018439e-06  5.1678896e-07  2.085055e-06   1.0681253e+08
    271000   4.2002644e-11  100367.73      100288.83      127090.78      2.6018637e-06  5.1705753e-07  2.0848062e-06  1.068106e+08 
    272000   4.2157635e-11  100337.02      100259.43      126622.04      2.6018418e-06  5.1767361e-07  2.0841682e-06  1.0679816e+08
    273000   4.2312626e-11  100359.18      100282.57      126316.59      2.6018419e-06  5.172133e-07   2.0846286e-06  1.0680485e+08
    274000   4.2467617e-11  100372.49      100295.51      126451.91      2.6018413e-06  5.1693633e-07  2.084905e-06   1.0680787e+08
    275000   4.2622609e-11  100370.85      100291.93      127099.27      2.6018532e-06  5.1698224e-07  2.084871e-06   1.068085e+08 
    276000   4.27776e-11    100359.5       100281.2       126883.62      2.6018459e-06  5.1721057e-07  2.0846353e-06  1.0680615e+08
    277000   4.2932591e-11  100372.69      100293.14      127311.94      2.6018603e-06  5.1695106e-07  2.0849092e-06  1.0681335e+08
    278000   4.3087583e-11  100362.46      100280.83      127999.24      2.6018668e-06  5.1716994e-07  2.0846968e-06  1.0680829e+08
    279000   4.3242574e-11  100365.7       100285.06      127671.17      2.6018686e-06  5.1710456e-07  2.0847641e-06  1.068103e+08 
    280000   4.3397565e-11  100363.33      100282.5       127733.15      2.6018748e-06  5.1716003e-07  2.0847148e-06  1.0681015e+08
    281000   4.3552557e-11  100372.45      100291.08      127921.74      2.6018777e-06  5.169734e-07   2.0849043e-06  1.0681396e+08
    282000   4.3707548e-11  100358.63      100278.24      127579.62      2.6018805e-06  5.1726346e-07  2.0846171e-06  1.0681015e+08
    283000   4.3862539e-11  100347.97      100268.9       127126.26      2.6018705e-06  5.1747476e-07  2.0843957e-06  1.068045e+08 
    284000   4.401753e-11   100366.22      100288.32      126755.48      2.6018606e-06  5.1708571e-07  2.0847749e-06  1.068094e+08 
    285000   4.4172522e-11  100375.2       100295.36      127411.99      2.601856e-06   5.1689477e-07  2.0849613e-06  1.0681268e+08
    286000   4.4327513e-11  100363.55      100282.97      127651.16      2.6018638e-06  5.1714438e-07  2.0847195e-06  1.0680977e+08
    287000   4.4482504e-11  100380.83      100302.88      126788.65      2.6018496e-06  5.1677127e-07  2.0850783e-06  1.0681225e+08
    288000   4.4637496e-11  100355.29      100279.34      126091.25      2.6018434e-06  5.1729571e-07  2.0845477e-06  1.068012e+08 
    289000   4.4792487e-11  100370.06      100295.39      125676.23      2.6018468e-06  5.169923e-07   2.0848545e-06  1.0680775e+08
    290000   4.4947478e-11  100360.92      100287.22      125345.21      2.601848e-06   5.1718336e-07  2.0846647e-06  1.0680517e+08
    291000   4.510247e-11   100370.54      100298.83      124689.35      2.6018519e-06  5.1698738e-07  2.0848646e-06  1.0680979e+08
    292000   4.5257461e-11  100379.32      100308.06      124545.33      2.6018495e-06  5.1680265e-07  2.0850468e-06  1.0681151e+08
    293000   4.5412452e-11  100366.4       100296         124249.6       2.6018608e-06  5.1708212e-07  2.0847786e-06  1.0680696e+08
    294000   4.5567444e-11  100363.35      100290.45      125081.04      2.6018601e-06  5.1714482e-07  2.0847152e-06  1.0680828e+08
    295000   4.5722435e-11  100368.88      100297.52      124568.79      2.6018506e-06  5.1702052e-07  2.0848301e-06  1.0681003e+08
    296000   4.5877426e-11  100355.55      100284.08      124592.33      2.6018547e-06  5.173016e-07   2.0845531e-06  1.0680583e+08
    297000   4.6032417e-11  100359.44      100286.28      125163.32      2.6018629e-06  5.1722897e-07  2.0846339e-06  1.0680817e+08
    298000   4.6187409e-11  100339.71      100266.39      125197.43      2.6018678e-06  5.1764355e-07  2.0842242e-06  1.0680198e+08
    299000   4.63424e-11    100373.09      100299.92      125179.67      2.6018688e-06  5.1695132e-07  2.0849175e-06  1.0681265e+08
    300000   4.6497391e-11  100382.86      100308.99      125425.9       2.6018308e-06  5.167103e-07   2.0851205e-06  1.0681128e+08
    301000   4.6652383e-11  100376.27      100301.65      125669.6       2.6018389e-06  5.1685529e-07  2.0849836e-06  1.068087e+08 
    302000   4.6807374e-11  100378.89      100304.4       125627.68      2.6018436e-06  5.1680549e-07  2.0850381e-06  1.0681208e+08
    303000   4.6962365e-11  100348.54      100275.73      125033.57      2.6018381e-06  5.1743059e-07  2.0844075e-06  1.068009e+08 
    304000   4.7117357e-11  100364.68      100291.8       125075.26      2.6018327e-06  5.1708986e-07  2.0847428e-06  1.0680752e+08
    305000   4.7272348e-11  100360.22      100287.97      124859         2.6018609e-06  5.172107e-07   2.0846502e-06  1.0680812e+08
    306000   4.7427339e-11  100371.66      100298.71      125105.11      2.601879e-06   5.1699114e-07  2.0848879e-06  1.0681324e+08
    307000   4.758233e-11   100365.84      100293.47      124906.43      2.6018718e-06  5.1710482e-07  2.0847669e-06  1.0681087e+08
    308000   4.7737322e-11  100348.31      100278.24      124116.36      2.6018773e-06  5.174745e-07   2.0844027e-06  1.0680682e+08
    309000   4.7892313e-11  100366.95      100297.02      124091.08      2.6018703e-06  5.1708023e-07  2.0847901e-06  1.0681279e+08
    310000   4.8047304e-11  100360.55      100292.56      123432.45      2.6018847e-06  5.172277e-07   2.0846569e-06  1.0681241e+08
    311000   4.8202296e-11  100358.5       100291.8       123001.98      2.6018719e-06  5.172575e-07   2.0846144e-06  1.0680862e+08
    312000   4.8357287e-11  100370         100303.23      123038.28      2.6018641e-06  5.1701076e-07  2.0848534e-06  1.0681007e+08
    313000   4.8512278e-11  100371.14      100304.2       123094.59      2.6018664e-06  5.1698935e-07  2.0848771e-06  1.06811e+08  
    314000   4.866727e-11   100366.92      100299.4       123286.88      2.6018695e-06  5.1708002e-07  2.0847895e-06  1.0680955e+08
    315000   4.8822261e-11  100343.91      100275.83      123448.48      2.6018752e-06  5.1756384e-07  2.0843113e-06  1.0680305e+08
    316000   4.8977252e-11  100344.03      100275.08      123739.7       2.6018615e-06  5.1754754e-07  2.084314e-06   1.0680275e+08
    317000   4.9132244e-11  100355.25      100285.51      124014.32      2.6018684e-06  5.1732147e-07  2.0845469e-06  1.0680734e+08
    318000   4.9287235e-11  100371.56      100301.54      124126.42      2.601864e-06   5.1697821e-07  2.0848858e-06  1.068117e+08 
    319000   4.9442226e-11  100361.34      100290.78      124293.81      2.6018586e-06  5.1718525e-07  2.0846734e-06  1.0680691e+08
    320000   4.9597217e-11  100353.12      100282.62      124266.32      2.6018457e-06  5.1734307e-07  2.0845026e-06  1.0680492e+08
    321000   4.9752209e-11  100357.86      100287.16      124338.67      2.6018752e-06  5.1727407e-07  2.0846011e-06  1.0680849e+08
    322000   4.99072e-11    100370.43      100299.15      124546.89      2.6018494e-06  5.1698703e-07  2.0848624e-06  1.0681115e+08
    323000   5.0062191e-11  100365.85      100295.09      124368.91      2.6018297e-06  5.1706244e-07  2.0847672e-06  1.0680641e+08
    324000   5.0217183e-11  100362.44      100290.65      124707.03      2.6018374e-06  5.1714113e-07  2.0846963e-06  1.0680582e+08
    325000   5.0372174e-11  100365.85      100294.12      124689.6       2.6018656e-06  5.1709857e-07  2.084767e-06   1.0681054e+08
    326000   5.0527165e-11  100348.54      100277.31      124507.8       2.6018566e-06  5.1744896e-07  2.0844076e-06  1.0680147e+08
    327000   5.0682157e-11  100366.96      100297.41      123962.11      2.6018638e-06  5.1707362e-07  2.0847901e-06  1.0680874e+08
    328000   5.0837148e-11  100365.7       100296.07      123989.48      2.6018614e-06  5.1709737e-07  2.084764e-06   1.068094e+08 
    329000   5.0992139e-11  100377.6       100307.97      124001.21      2.6018737e-06  5.1686253e-07  2.0850112e-06  1.0681498e+08
    330000   5.114713e-11   100365.32      100295.78      123957.62      2.601876e-06   5.1711986e-07  2.0847561e-06  1.0680978e+08
    331000   5.1302122e-11  100376.93      100309.44      123284.38      2.6018601e-06  5.1686279e-07  2.0849973e-06  1.0681266e+08
    332000   5.1457113e-11  100372.51      100304.92      123314.9       2.6018689e-06  5.1696329e-07  2.0849056e-06  1.0681269e+08
    333000   5.1612104e-11  100364.01      100296.87      123153.33      2.6018661e-06  5.1713719e-07  2.0847289e-06  1.0680982e+08
    334000   5.1767096e-11  100343.99      100277.48      122926.08      2.6018616e-06  5.1754847e-07  2.0843131e-06  1.0680318e+08
    335000   5.1922087e-11  100362.25      100297.45      122369.65      2.6018519e-06  5.1715959e-07  2.0846923e-06  1.0680701e+08
    336000   5.2077078e-11  100366.45      100301.24      122512.05      2.6018331e-06  5.1705345e-07  2.0847796e-06  1.0680638e+08
    337000   5.223207e-11   100368.59      100303.31      122538.69      2.6018567e-06  5.1703266e-07  2.0848241e-06  1.0680858e+08
    338000   5.2387061e-11  100386.84      100321.61      122536.03      2.6018733e-06  5.1667025e-07  2.0852031e-06  1.068158e+08 
    339000   5.2542052e-11  100377.93      100312.31      122660.37      2.6018686e-06  5.1685052e-07  2.0850181e-06  1.0681161e+08
    340000   5.2697044e-11  100374.99      100310.24      122365.98      2.6018634e-06  5.1690646e-07  2.084957e-06   1.0681057e+08
    341000   5.2852035e-11  100355.54      100291.88      121979.33      2.601842e-06   5.1728905e-07  2.0845529e-06  1.0680301e+08
    342000   5.3007026e-11  100357.49      100293.95      121942.83      2.6018591e-06  5.1726564e-07  2.0845935e-06  1.0680787e+08
    343000   5.3162017e-11  100363.58      100301.02      121623.48      2.6018602e-06  5.1714015e-07  2.08472e-06    1.0681253e+08
    344000   5.3317009e-11  100347.13      100285.27      121372.54      2.6018679e-06  5.1748949e-07  2.0843784e-06  1.0680577e+08
    345000   5.3472e-11     100352.77      100291.39      121217.38      2.6018789e-06  5.1738342e-07  2.0844955e-06  1.0680639e+08
    346000   5.3626991e-11  100350.92      100290.49      120897.26      2.6018744e-06  5.1741733e-07  2.0844571e-06  1.0680362e+08
    347000   5.3781983e-11  100370.96      100309.63      121219.32      2.6018789e-06  5.1700565e-07  2.0848733e-06  1.0681384e+08
    348000   5.3936974e-11  100355.72      100294.01      121332.34      2.6018704e-06  5.1731361e-07  2.0845568e-06  1.0680762e+08
    349000   5.4091965e-11  100358.47      100296.83      121308.47      2.6018466e-06  5.1723287e-07  2.0846138e-06  1.0680436e+08
    350000   5.4246957e-11  100366.54      100304.13      121576.77      2.6018575e-06  5.1707599e-07  2.0847816e-06  1.0680763e+08
    351000   5.4401948e-11  100372.42      100308.86      121964.84      2.6018509e-06  5.1694729e-07  2.0849036e-06  1.0680875e+08
    352000   5.4556939e-11  100359.14      100296.11      121775.73      2.6018489e-06  5.1722108e-07  2.0846278e-06  1.0680506e+08
    353000   5.471193e-11   100367.22      100305.27      121423.57      2.6018424e-06  5.1704671e-07  2.0847957e-06  1.0680719e+08
    354000   5.4866922e-11  100362.84      100301.01      121377.13      2.6018526e-06  5.1714811e-07  2.0847045e-06  1.0680639e+08
    355000   5.5021913e-11  100351.82      100291.47      120870.47      2.6018315e-06  5.1735572e-07  2.0844758e-06  1.0680165e+08
    356000   5.5176904e-11  100353.91      100291.62      121522.29      2.601838e-06   5.1731886e-07  2.0845191e-06  1.0680157e+08
    357000   5.5331896e-11  100378.1       100316.29      121385.22      2.601835e-06   5.1681347e-07  2.0850215e-06  1.0680688e+08
    358000   5.5486887e-11  100372.25      100311.72      120951.09      2.6018242e-06  5.1692412e-07  2.0849001e-06  1.0680313e+08
    359000   5.5641878e-11  100354.77      100295.21      120610.95      2.6018317e-06  5.1729468e-07  2.084537e-06   1.067986e+08 
    360000   5.579687e-11   100368.16      100307.86      120872.49      2.6018384e-06  5.1702326e-07  2.0848151e-06  1.0680424e+08
    361000   5.5951861e-11  100354.19      100295.2       120419.95      2.6018479e-06  5.17323e-07    2.0845249e-06  1.0680246e+08
    362000   5.6106852e-11  100357.83      100300.15      119986.68      2.6018483e-06  5.1724774e-07  2.0846006e-06  1.0680457e+08
    363000   5.6261844e-11  100373.89      100318.2       119333.75      2.6018215e-06  5.1688743e-07  2.0849341e-06  1.0680544e+08
    364000   5.6416835e-11  100382.06      100325.2       119733.69      2.601837e-06   5.1673314e-07  2.0851039e-06  1.0680957e+08
    365000   5.6571826e-11  100359.68      100302.48      119822.59      2.6018384e-06  5.1719953e-07  2.0846389e-06  1.068037e+08 
    366000   5.6726817e-11  100349.05      100292         119764.43      2.6018375e-06  5.1741939e-07  2.0844181e-06  1.0680225e+08
    367000   5.6881809e-11  100353.21      100295.8       119890.41      2.6018696e-06  5.1736503e-07  2.0845046e-06  1.0680742e+08
    368000   5.70368e-11    100368.83      100311.58      119850.12      2.6018637e-06  5.170347e-07   2.084829e-06   1.0681241e+08
    369000   5.7191791e-11  100382.13      100326.7       119256.44      2.601865e-06   5.1675976e-07  2.0851052e-06  1.0681555e+08
    370000   5.7346783e-11  100354.67      100299.51      119139.63      2.6018673e-06  5.1733235e-07  2.084535e-06   1.0680636e+08
    371000   5.7501774e-11  100363.34      100309.48      118712.54      2.6018569e-06  5.1714181e-07  2.0847151e-06  1.0680736e+08
    372000   5.7656765e-11  100361.13      100306.11      119099.23      2.6018531e-06  5.17184e-07    2.0846691e-06  1.0680584e+08
    373000   5.7811757e-11  100357.03      100300.9       119466.09      2.60187e-06    5.1728613e-07  2.0845839e-06  1.0680704e+08
    374000   5.7966748e-11  100360.84      100303.7       119806.21      2.6018752e-06  5.1721211e-07  2.0846631e-06  1.0681009e+08
    375000   5.8121739e-11  100366.37      100309.09      119858.33      2.6018897e-06  5.1711172e-07  2.084778e-06   1.0681344e+08
    376000   5.827673e-11   100373.28      100314.76      120281.25      2.6018795e-06  5.1695804e-07  2.0849214e-06  1.0681429e+08
    377000   5.8431722e-11  100351.43      100292.02      120556.21      2.6018596e-06  5.1739186e-07  2.0844677e-06  1.0680456e+08
    378000   5.8586713e-11  100378.22      100320.99      119853.35      2.6018691e-06  5.1684507e-07  2.085024e-06   1.0681315e+08
    379000   5.8741704e-11  100361.65      100304.12      119937.79      2.6018452e-06  5.171653e-07   2.0846799e-06  1.068057e+08 
    380000   5.8896696e-11  100359.76      100302.89      119714.93      2.6018566e-06  5.1721592e-07  2.0846406e-06  1.0680562e+08
    381000   5.9051687e-11  100370.35      100313.39      119755.42      2.6018522e-06  5.1699157e-07  2.0848607e-06  1.0680988e+08
    382000   5.9206678e-11  100365.27      100310.95      118867.85      2.6018551e-06  5.1710011e-07  2.084755e-06   1.068087e+08 
    383000   5.936167e-11   100358.79      100304.9       118719.31      2.6018538e-06  5.172333e-07   2.0846205e-06  1.0680758e+08
    384000   5.9516661e-11  100368.94      100314.78      118817.37      2.6018605e-06  5.1702918e-07  2.0848313e-06  1.0681142e+08
    385000   5.9671652e-11  100358.13      100303.78      118870.6       2.6018608e-06  5.1725405e-07  2.0846068e-06  1.0680706e+08
    386000   5.9826644e-11  100363.08      100307.39      119324.55      2.6018565e-06  5.1714691e-07  2.0847096e-06  1.0680903e+08
    387000   5.9981635e-11  100364.1       100307.19      119732.31      2.6018761e-06  5.1714521e-07  2.0847308e-06  1.0681215e+08
    388000   6.0136626e-11  100369.47      100313.98      119263.61      2.6018677e-06  5.1702529e-07  2.0848424e-06  1.0681229e+08
    389000   6.0291617e-11  100370.52      100316.95      118623.67      2.6018611e-06  5.1699688e-07  2.0848642e-06  1.0681108e+08
    390000   6.0446609e-11  100346.95      100295.98      117728.79      2.6018738e-06  5.1749924e-07  2.0843745e-06  1.0680288e+08
    391000   6.06016e-11    100364.85      100314.66      117485.33      2.6018511e-06  5.1710481e-07  2.0847463e-06  1.0680692e+08
    392000   6.0756591e-11  100375.74      100325.9       117380.37      2.6018436e-06  5.168711e-07   2.0849725e-06  1.0680817e+08
    393000   6.0911583e-11  100368.74      100320.62      116799.13      2.6018473e-06  5.1702014e-07  2.0848272e-06  1.0680685e+08
    394000   6.1066574e-11  100357.93      100311.1       116354.27      2.6018591e-06  5.1725656e-07  2.0846026e-06  1.0680582e+08
    395000   6.1221565e-11  100350.45      100304.66      115998.13      2.6018696e-06  5.174224e-07   2.0844472e-06  1.0680663e+08
    396000   6.1376557e-11  100358.56      100315.67      115040.83      2.601849e-06   5.1723322e-07  2.0846158e-06  1.068061e+08 
    397000   6.1531548e-11  100362.35      100321.21      114456.71      2.6018538e-06  5.171593e-07   2.0846945e-06  1.0680867e+08
    398000   6.1686539e-11  100364.54      100324.64      114045.01      2.6018675e-06  5.1712754e-07  2.08474e-06    1.0681153e+08
    399000   6.184153e-11   100358.44      100317.32      114445.07      2.6018696e-06  5.1725641e-07  2.0846132e-06  1.0680934e+08
    400000   6.1996522e-11  100355.92      100312.1       115345.92      2.6018877e-06  5.1732696e-07  2.0845608e-06  1.0680826e+08
    401000   6.2151513e-11  100359.56      100316.56      115077.51      2.6018822e-06  5.1724572e-07  2.0846365e-06  1.0680838e+08
    402000   6.2306504e-11  100358.23      100314.59      115287.95      2.6018642e-06  5.1725544e-07  2.0846088e-06  1.0680673e+08
    403000   6.2461496e-11  100360.67      100316.73      115392.63      2.6018594e-06  5.171998e-07   2.0846596e-06  1.0680729e+08
    404000   6.2616487e-11  100378.62      100333.06      115950.33      2.6018594e-06  5.1682708e-07  2.0850323e-06  1.0681202e+08
    405000   6.2771478e-11  100367.16      100322.44      115660.37      2.6018659e-06  5.1707151e-07  2.0847944e-06  1.068083e+08 
    406000   6.292647e-11   100351.01      100309.3       114638.25      2.601857e-06   5.1739807e-07  2.084459e-06   1.0680316e+08
    407000   6.3081461e-11  100358.9       100315.99      115044.9       2.6018399e-06  5.1721711e-07  2.0846228e-06  1.0680606e+08
    408000   6.3236452e-11  100358.93      100315.61      115185.58      2.6018576e-06  5.1723408e-07  2.0846235e-06  1.0680851e+08
    409000   6.3391444e-11  100352.78      100309.78      115068.72      2.6018776e-06  5.1738205e-07  2.0844956e-06  1.0680644e+08
    410000   6.3546435e-11  100372.94      100329.22      115331.96      2.6018603e-06  5.1694584e-07  2.0849145e-06  1.0681141e+08
    411000   6.3701426e-11  100359.89      100316.33      115261.77      2.6018469e-06  5.172036e-07   2.0846433e-06  1.0680508e+08
    412000   6.3856417e-11  100386         100342.81      115165.46      2.6018551e-06  5.1666956e-07  2.0851856e-06  1.0681469e+08
    413000   6.4011409e-11  100366.99      100325.52      114571.09      2.6018479e-06  5.1705711e-07  2.0847908e-06  1.0680702e+08
    414000   6.41664e-11    100362.31      100319.38      115057.18      2.6018639e-06  5.171702e-07   2.0846937e-06  1.0680492e+08
    415000   6.4321391e-11  100365.91      100323.13      115007.68      2.6018531e-06  5.1708474e-07  2.0847683e-06  1.06808e+08  
    416000   6.4476383e-11  100372         100330.02      114744.71      2.6018744e-06  5.1697962e-07  2.0848948e-06  1.0681246e+08
    417000   6.4631374e-11  100348.9       100310.88      113399.58      2.6018652e-06  5.174502e-07   2.084415e-06   1.068055e+08 
    418000   6.4786365e-11  100351.37      100314.63      112975.96      2.6018545e-06  5.1738811e-07  2.0844664e-06  1.0680619e+08
    419000   6.4941357e-11  100358.3       100321.14      113122.4       2.6018662e-06  5.1725583e-07  2.0846104e-06  1.0680686e+08
    420000   6.5096348e-11  100366.44      100331.09      112524.18      2.6018784e-06  5.1709904e-07  2.0847793e-06  1.0680941e+08
    421000   6.5251339e-11  100369.1       100335.6       111907.4       2.6018881e-06  5.1705355e-07  2.0848345e-06  1.0681324e+08
    422000   6.540633e-11   100331.11      100299.85      111123         2.6018894e-06  5.1784388e-07  2.0840456e-06  1.0680227e+08
    423000   6.5561322e-11  100344.87      100314.85      110719.61      2.6018721e-06  5.1754078e-07  2.0843313e-06  1.0680491e+08
    424000   6.5716313e-11  100368.54      100338.12      110874.75      2.6018442e-06  5.1702131e-07  2.0848229e-06  1.0680818e+08
    425000   6.5871304e-11  100358.32      100330.6       109965.38      2.6018419e-06  5.1723117e-07  2.0846108e-06  1.0680276e+08
    426000   6.6026296e-11  100356.98      100331.87      109089.86      2.6018574e-06  5.1727457e-07  2.0845828e-06  1.0680408e+08
    427000   6.6181287e-11  100364.49      100342.06      108202.26      2.6018506e-06  5.1711171e-07  2.0847389e-06  1.0680692e+08
    428000   6.6336278e-11  100370.43      100349.45      107724.52      2.601859e-06   5.1699666e-07  2.0848623e-06  1.0680985e+08
    429000   6.649127e-11   100374.52      100354.82      107299.59      2.6018751e-06  5.1692778e-07  2.0849473e-06  1.0681447e+08
    430000   6.6646261e-11  100365.63      100344.68      107707.37      2.6018835e-06  5.1712102e-07  2.0847625e-06  1.0681279e+08
    431000   6.6801252e-11  100357.4       100336.16      107794.92      2.6018746e-06  5.1728304e-07  2.0845915e-06  1.0680702e+08
    432000   6.6956244e-11  100369.07      100347.99      107753.92      2.6018605e-06  5.1702656e-07  2.084834e-06   1.0681173e+08
    433000   6.7111235e-11  100359.97      100340.3       107274.81      2.6018424e-06  5.1719733e-07  2.0846451e-06  1.0680475e+08
    434000   6.7266226e-11  100361.61      100341.11      107553.4       2.6018397e-06  5.1716067e-07  2.084679e-06   1.0680292e+08
    435000   6.7421217e-11  100380.37      100359.77      107604.71      2.6018428e-06  5.1677405e-07  2.0850688e-06  1.0681101e+08
    436000   6.7576209e-11  100359.51      100340.98      106892.27      2.601863e-06   5.1722755e-07  2.0846355e-06  1.0680719e+08
    437000   6.77312e-11    100359.97      100341.32      106934.09      2.6018692e-06  5.1722419e-07  2.084645e-06   1.0680949e+08
    438000   6.7886191e-11  100361.36      100344.19      106440.29      2.6018519e-06  5.1717797e-07  2.084674e-06   1.0680868e+08
    439000   6.8041183e-11  100374.68      100356.32      106852.02      2.6018602e-06  5.1690956e-07  2.0849506e-06  1.0681119e+08
    440000   6.8196174e-11  100352.2       100334.37      106650.33      2.6018601e-06  5.1737648e-07  2.0844836e-06  1.0680274e+08
    441000   6.8351165e-11  100352.47      100333.63      106985.97      2.6018479e-06  5.1735877e-07  2.0844891e-06  1.0680273e+08
    442000   6.8506157e-11  100357.54      100339.18      106834.9       2.601855e-06   5.1726038e-07  2.0845946e-06  1.068053e+08 
    443000   6.8661148e-11  100354.9       100337.77      106417.48      2.6018536e-06  5.17314e-07    2.0845396e-06  1.068038e+08 
    444000   6.8816139e-11  100368.94      100351.98      106376.5       2.6018547e-06  5.1702343e-07  2.0848313e-06  1.0680928e+08
    445000   6.897113e-11   100385.03      100368.45      106266.27      2.6018657e-06  5.1670015e-07  2.0851655e-06  1.0681402e+08
    446000   6.9126122e-11  100375.9       100360.78      105765.95      2.601876e-06   5.1690019e-07  2.0849758e-06  1.068124e+08 
    447000   6.9281113e-11  100358.03      100343.43      105576.93      2.6018778e-06  5.1727316e-07  2.0846046e-06  1.0680999e+08
    448000   6.9436104e-11  100349.98      100333.46      106211.14      2.6018719e-06  5.1743441e-07  2.0844375e-06  1.0680887e+08
    449000   6.9591096e-11  100339.43      100321.77      106582.36      2.6018711e-06  5.1765273e-07  2.0842184e-06  1.0680411e+08
    450000   6.9746087e-11  100354.97      100336.87      106741.86      2.6018791e-06  5.17338e-07    2.0845411e-06  1.0680835e+08
    451000   6.9901078e-11  100353.04      100335.11      106685.36      2.6018766e-06  5.173755e-07   2.0845011e-06  1.0680745e+08
    452000   7.005607e-11   100354.32      100336.25      106733.98      2.6018823e-06  5.1735472e-07  2.0845276e-06  1.0680882e+08
    453000   7.0211061e-11  100363.29      100344.18      107089.76      2.6018962e-06  5.1718229e-07  2.0847139e-06  1.0681428e+08
    454000   7.0366052e-11  100351.54      100332.48      107061.23      2.6018897e-06  5.1741993e-07  2.0844698e-06  1.0680938e+08
    455000   7.0521044e-11  100364.12      100344.84      107149         2.6018779e-06  5.1714668e-07  2.0847312e-06  1.0681267e+08
    456000   7.0676035e-11  100361.29      100340.47      107660.9       2.6018724e-06  5.1719999e-07  2.0846725e-06  1.0680962e+08
    457000   7.0831026e-11  100348.26      100327.89      107495.96      2.6018577e-06  5.1745582e-07  2.0844018e-06  1.0680488e+08
    458000   7.0986017e-11  100370.22      100351.23      107055.29      2.6018814e-06  5.1702358e-07  2.0848578e-06  1.0681401e+08
    459000   7.1141009e-11  100358.72      100337.15      107909.3       2.6018921e-06  5.1727302e-07  2.0846191e-06  1.0681124e+08
    460000   7.1296e-11     100346.41      100324.57      107986.73      2.6018947e-06  5.1753128e-07  2.0843634e-06  1.0680753e+08
    461000   7.1450991e-11  100348.54      100325.91      108253.03      2.6018787e-06  5.1747112e-07  2.0844076e-06  1.0680647e+08
    462000   7.1605983e-11  100347.4       100324.76      108253.19      2.6018685e-06  5.174846e-07   2.0843839e-06  1.068052e+08 
    463000   7.1760974e-11  100367.97      100347.05      107698.92      2.6018381e-06  5.1702701e-07  2.0848111e-06  1.0680873e+08
    464000   7.1915965e-11  100368.2       100348.76      107203.56      2.6018502e-06  5.1703433e-07  2.0848159e-06  1.0680752e+08
    465000   7.2070957e-11  100373.92      100356.85      106417.72      2.6018492e-06  5.1691452e-07  2.0849347e-06  1.0681005e+08
    466000   7.2225948e-11  100365.26      100348.3       106370.89      2.6018568e-06  5.1710195e-07  2.0847548e-06  1.0680724e+08
    467000   7.2380939e-11  100378.95      100362.88      106090.37      2.6018666e-06  5.1682736e-07  2.0850392e-06  1.0681319e+08
    468000   7.253593e-11   100363.76      100348.3       105868.64      2.6018609e-06  5.1713727e-07  2.0847236e-06  1.0680713e+08
    469000   7.2690922e-11  100362.54      100347.85      105611.66      2.601855e-06   5.1715654e-07  2.0846984e-06  1.0680835e+08
    470000   7.2845913e-11  100367.97      100351.98      106051.27      2.6018574e-06  5.1704627e-07  2.0848111e-06  1.0680988e+08
    471000   7.3000904e-11  100366.19      100349.53      106274.4       2.6018563e-06  5.1708204e-07  2.0847742e-06  1.0680949e+08
    472000   7.3155896e-11  100372.54      100355.98      106248.28      2.6018582e-06  5.1695197e-07  2.0849062e-06  1.0681175e+08
    473000   7.3310887e-11  100361.4       100344.62      106308.92      2.6018734e-06  5.1719873e-07  2.0846747e-06  1.0680986e+08
    474000   7.3465878e-11  100370.5       100352.46      106740.39      2.6018637e-06  5.1699989e-07  2.0848638e-06  1.0681204e+08
    475000   7.362087e-11   100356.71      100338.25      106867.12      2.6018647e-06  5.1728738e-07  2.0845773e-06  1.0680735e+08
    476000   7.3775861e-11  100357.63      100340.38      106462.22      2.6018569e-06  5.1726046e-07  2.0845965e-06  1.068062e+08 
    477000   7.3930852e-11  100374.7       100358.21      106226.48      2.6018708e-06  5.1691986e-07  2.084951e-06   1.0681165e+08
    478000   7.4085844e-11  100365.87      100348.86      106390.81      2.6018457e-06  5.170782e-07   2.0847675e-06  1.0680818e+08
    479000   7.4240835e-11  100365.63      100347.12      106891.23      2.6018629e-06  5.1710046e-07  2.0847625e-06  1.0680914e+08
    480000   7.4395826e-11  100369.49      100351.99      106557.89      2.6018706e-06  5.1702781e-07  2.0848428e-06  1.0681114e+08
    481000   7.4550817e-11  100365.29      100348.92      106175.44      2.601856e-06   5.1710045e-07  2.0847556e-06  1.0680943e+08
    482000   7.4705809e-11  100360.66      100344.87      105975.63      2.6018618e-06  5.172025e-07   2.0846593e-06  1.0680848e+08
    483000   7.48608e-11    100351.52      100334.25      106464.8       2.6018697e-06  5.1740011e-07  2.0844695e-06  1.068063e+08 
    484000   7.5015791e-11  100364.6       100347.24      106505.71      2.6018701e-06  5.1712891e-07  2.0847412e-06  1.0680878e+08
    485000   7.5170783e-11  100359.07      100342.34      106291.02      2.6018813e-06  5.1725499e-07  2.0846263e-06  1.0680856e+08
    486000   7.5325774e-11  100354.64      100338.49      106092.26      2.6018668e-06  5.173324e-07   2.0845344e-06  1.0680455e+08
    487000   7.5480765e-11  100362.91      100346.38      106227.23      2.6018655e-06  5.1715931e-07  2.0847062e-06  1.0680856e+08
    488000   7.5635757e-11  100353.12      100337.73      105834.48      2.6018665e-06  5.1736386e-07  2.0845026e-06  1.0680591e+08
    489000   7.5790748e-11  100348.01      100332.33      105929.33      2.6018576e-06  5.1746095e-07  2.0843966e-06  1.068043e+08 
    490000   7.5945739e-11  100352.64      100337.4       105783.15      2.6018682e-06  5.1737549e-07  2.0844927e-06  1.0680595e+08
    491000   7.610073e-11   100365.77      100351.2       105573.14      2.6018655e-06  5.1710011e-07  2.0847654e-06  1.0680967e+08
    492000   7.6255722e-11  100367.37      100353         105512.06      2.6018684e-06  5.1706959e-07  2.0847988e-06  1.0681044e+08
    493000   7.6410713e-11  100371.88      100357.67      105460.31      2.6018722e-06  5.1697993e-07  2.0848923e-06  1.0681124e+08
    494000   7.6565704e-11  100379.22      100363.95      105822.63      2.6018449e-06  5.1680009e-07  2.0850448e-06  1.0680969e+08
    495000   7.6720696e-11  100362.25      100348.05      105450.02      2.6018462e-06  5.1715377e-07  2.0846924e-06  1.0680474e+08
    496000   7.6875687e-11  100371.28      100356.19      105753.91      2.6018497e-06  5.1696987e-07  2.0848799e-06  1.0680869e+08
    497000   7.7030678e-11  100372.49      100357.94      105572.83      2.6018644e-06  5.1695944e-07  2.084905e-06   1.0681019e+08
    498000   7.718567e-11   100363.1       100349.56      105225.95      2.6018574e-06  5.1714748e-07  2.0847099e-06  1.0680607e+08
    499000   7.7340661e-11  100378.22      100365.58      104942.31      2.6018635e-06  5.1683946e-07  2.0850241e-06  1.0681073e+08
    500000   7.7495652e-11  100372.4       100361.41      104384.44      2.6018548e-06  5.1695149e-07  2.0849033e-06  1.0680875e+08
    501000   7.7650644e-11  100377.52      100367.39      104099.32      2.6018643e-06  5.1685489e-07  2.0850095e-06  1.0681352e+08
    502000   7.7805635e-11  100364.28      100355.55      103618.86      2.6018631e-06  5.1712859e-07  2.0847345e-06  1.0680875e+08
    503000   7.7960626e-11  100363.64      100355.33      103476.9       2.6018604e-06  5.1713928e-07  2.0847211e-06  1.0680866e+08
    504000   7.8115617e-11  100353.58      100348.13      102511.94      2.6018495e-06  5.1733717e-07  2.0845124e-06  1.0680216e+08
    505000   7.8270609e-11  100378.64      100373.63      102389.19      2.6018586e-06  5.1682572e-07  2.0850328e-06  1.0681104e+08
    506000   7.84256e-11    100384.23      100378.34      102687.57      2.6018648e-06  5.167159e-07   2.0851489e-06  1.0681412e+08
    507000   7.8580591e-11  100364.44      100358.39      102721.05      2.6018748e-06  5.17137e-07    2.0847378e-06  1.0681088e+08
    508000   7.8735583e-11  100365.4       100359.37      102720.3       2.6018825e-06  5.1712467e-07  2.0847579e-06  1.0681161e+08
    509000   7.8890574e-11  100355.73      100351.42      102134.5       2.6018698e-06  5.1731273e-07  2.084557e-06   1.0680498e+08
    510000   7.9045565e-11  100367.07      100364.47      101573.1       2.6018748e-06  5.1708226e-07  2.0847926e-06  1.0680963e+08
    511000   7.9200557e-11  100368.23      100366.21      101377.65      2.6018688e-06  5.1705228e-07  2.0848165e-06  1.0681147e+08
    512000   7.9355548e-11  100372.39      100368.45      102025.16      2.6018329e-06  5.1692997e-07  2.0849029e-06  1.0680935e+08
    513000   7.9510539e-11  100374.57      100371.81      101631.13      2.6018287e-06  5.1688045e-07  2.0849482e-06  1.068078e+08 
    514000   7.966553e-11   100369.73      100366.27      101861.74      2.6018389e-06  5.1699118e-07  2.0848477e-06  1.0680621e+08
    515000   7.9820522e-11  100371.22      100368.07      101762.41      2.6018472e-06  5.1696839e-07  2.0848788e-06  1.0680865e+08
    516000   7.9975513e-11  100370.45      100368.39      101394.81      2.6018472e-06  5.1698445e-07  2.0848627e-06  1.0680994e+08
    517000   8.0130504e-11  100363.4       100362.56      100980.02      2.601858e-06   5.1714179e-07  2.0847162e-06  1.0680764e+08
    518000   8.0285496e-11  100375.61      100375.19      100852.32      2.6018615e-06  5.1689158e-07  2.0849699e-06  1.0681193e+08
    519000   8.0440487e-11  100363.45      100361.92      101211.64      2.6018503e-06  5.1713307e-07  2.0847173e-06  1.0680741e+08
    520000   8.0595478e-11  100368.65      100366.04      101575.19      2.6018644e-06  5.1703918e-07  2.0848252e-06  1.0681262e+08
    521000   8.075047e-11   100355.21      100352.46      101610.5       2.601859e-06   5.1731298e-07  2.084546e-06   1.0680662e+08
    522000   8.0905461e-11  100364.36      100360.89      101858.15      2.601856e-06   5.1711994e-07  2.0847361e-06  1.0680831e+08
    523000   8.1060452e-11  100353.19      100348.98      102096.5       2.6018399e-06  5.1733583e-07  2.0845041e-06  1.0680201e+08
    524000   8.1215444e-11  100364.15      100360.22      102014.2       2.6018487e-06  5.1711678e-07  2.0847319e-06  1.0680508e+08
    525000   8.1370435e-11  100387.56      100384.34      101800.85      2.6018623e-06  5.1664418e-07  2.0852181e-06  1.0681319e+08
    526000   8.1525426e-11  100380.18      100377.21      101707.39      2.6018473e-06  5.1678255e-07  2.0850648e-06  1.0681088e+08
    527000   8.1680417e-11  100362.07      100358.38      101933.24      2.6018668e-06  5.1717816e-07  2.0846886e-06  1.0680714e+08
    528000   8.1835409e-11  100368.82      100364.13      102273.54      2.6018658e-06  5.1703687e-07  2.0848289e-06  1.0681113e+08
    529000   8.19904e-11    100367.17      100361.22      102692.94      2.6018681e-06  5.1707348e-07  2.0847947e-06  1.0681013e+08
    530000   8.2145391e-11  100374.84      100368.84      102716.15      2.6018757e-06  5.1692181e-07  2.0849539e-06  1.0681243e+08
    531000   8.2300383e-11  100367.15      100361.05      102741.62      2.6018625e-06  5.1706838e-07  2.0847941e-06  1.0681084e+08
    532000   8.2455374e-11  100358.3       100352.34      102687.27      2.601869e-06   5.1725867e-07  2.0846103e-06  1.0681075e+08
    533000   8.2610365e-11  100356.12      100349.64      102858.79      2.6018665e-06  5.1730144e-07  2.0845651e-06  1.0680879e+08
    534000   8.2765357e-11  100369.45      100362.93      102886.09      2.6018724e-06  5.1703055e-07  2.0848418e-06  1.0681316e+08
    535000   8.2920348e-11  100361.9       100352.14      103962.89      2.6018522e-06  5.1716712e-07  2.0846851e-06  1.0680725e+08
    536000   8.3075339e-11  100367.49      100357.36      104089.93      2.6018829e-06  5.1708168e-07  2.0848012e-06  1.0681083e+08
    537000   8.323033e-11   100383.04      100372.59      104211.84      2.6018637e-06  5.1673954e-07  2.0851242e-06  1.0681627e+08
    538000   8.3385322e-11  100358.38      100348.37      104043.85      2.6018538e-06  5.1724173e-07  2.084612e-06   1.0680547e+08
    539000   8.3540313e-11  100368.65      100358.33      104157.72      2.6018542e-06  5.1702888e-07  2.0848254e-06  1.068069e+08 
    540000   8.3695304e-11  100387.41      100377.79      103941.53      2.601852e-06   5.166369e-07   2.0852151e-06  1.0681398e+08
    541000   8.3850296e-11  100372.38      100362.29      104084.63      2.6018387e-06  5.1693584e-07  2.0849028e-06  1.0680886e+08
    542000   8.4005287e-11  100373.02      100361.44      104580.33      2.6018317e-06  5.1691571e-07  2.084916e-06   1.0680769e+08
    543000   8.4160278e-11  100370.88      100360.73      104101.75      2.6018303e-06  5.1695874e-07  2.0848716e-06  1.0680694e+08
    544000   8.431527e-11   100366.77      100357.55      103785.69      2.6018429e-06  5.1705675e-07  2.0847861e-06  1.0680783e+08
    545000   8.4470261e-11  100370.99      100361.51      103876.39      2.6018396e-06  5.1696568e-07  2.0848739e-06  1.0680952e+08
    546000   8.4625252e-11  100357.06      100349.56      103199.56      2.6018407e-06  5.1725621e-07  2.0845845e-06  1.068074e+08 
    547000   8.4780244e-11  100358.07      100351.22      102983.07      2.601856e-06   5.1725048e-07  2.0846055e-06  1.0680652e+08
    548000   8.4935235e-11  100368.7       100362.95      102629.89      2.6018292e-06  5.1700284e-07  2.0848264e-06  1.0680618e+08
    549000   8.5090226e-11  100361.6       100356.42      102431.27      2.6018144e-06  5.1713549e-07  2.0846789e-06  1.0680233e+08
    550000   8.5245217e-11  100364.6       100359.96      102252.69      2.6018279e-06  5.1708665e-07  2.0847412e-06  1.0680687e+08
    551000   8.5400209e-11  100359.45      100355.59      101985.57      2.6018538e-06  5.1721955e-07  2.0846342e-06  1.0680817e+08
    552000   8.55552e-11    100367.55      100366.01      101216.45      2.6018779e-06  5.1707552e-07  2.0848024e-06  1.0681353e+08
    553000   8.5710191e-11  100374.09      100371.25      101659.39      2.6018778e-06  5.1693957e-07  2.0849383e-06  1.0681522e+08
    554000   8.5865183e-11  100360.72      100357.41      101805.36      2.6018755e-06  5.1721484e-07  2.0846606e-06  1.0681014e+08
    555000   8.6020174e-11  100363.23      100359.39      101984.31      2.6018641e-06  5.1715136e-07  2.0847128e-06  1.0680837e+08
    556000   8.6175165e-11  100373.02      100367.9       102422.79      2.6018447e-06  5.1692853e-07  2.0849161e-06  1.0680975e+08
    557000   8.6330157e-11  100364.19      100358.86      102480.51      2.6018501e-06  5.1711758e-07  2.0847326e-06  1.0680716e+08
    558000   8.6485148e-11  100367.35      100361.11      102791.69      2.6018531e-06  5.1705466e-07  2.0847984e-06  1.0681051e+08
    559000   8.6640139e-11  100353.74      100349.3       102174.61      2.601859e-06   5.1734344e-07  2.0845156e-06  1.0680922e+08
    560000   8.679513e-11   100350.56      100347.32      101769.43      2.6018585e-06  5.1740898e-07  2.0844495e-06  1.0680696e+08
    561000   8.6950122e-11  100365.41      100361.74      101926.46      2.601876e-06   5.171181e-07   2.0847579e-06  1.0681182e+08
    562000   8.7105113e-11  100364.06      100362.17      101333.2       2.6018883e-06  5.1715831e-07  2.08473e-06    1.068114e+08 
    563000   8.7260104e-11  100371.7       100370.12      101237.68      2.6018583e-06  5.1696959e-07  2.0848888e-06  1.0681274e+08
    564000   8.7415096e-11  100358.44      100357.21      101108.33      2.6018553e-06  5.1724203e-07  2.0846133e-06  1.068073e+08 
    565000   8.7570087e-11  100374.9       100372.2       101613.8       2.6018625e-06  5.1690739e-07  2.0849551e-06  1.0681092e+08
    566000   8.7725078e-11  100352.42      100349.64      101615.75      2.6018612e-06  5.1737303e-07  2.0844881e-06  1.0680446e+08
    567000   8.788007e-11   100350.99      100348.36      101565.86      2.6018725e-06  5.1741402e-07  2.0844585e-06  1.0680604e+08
    568000   8.8035061e-11  100360.23      100358.31      101338.64      2.601884e-06   5.1723352e-07  2.0846504e-06  1.0681269e+08
    569000   8.8190052e-11  100355.67      100354.76      100996.97      2.601876e-06   5.1732027e-07  2.0845557e-06  1.0681038e+08
    570000   8.8345044e-11  100359.14      100358.92      100768.07      2.6018795e-06  5.1725182e-07  2.0846277e-06  1.0680996e+08
    571000   8.8500035e-11  100344.06      100342.72      101127.58      2.6018781e-06  5.1756354e-07  2.0843146e-06  1.0680441e+08
    572000   8.8655026e-11  100360.1       100357.28      101639.74      2.6018724e-06  5.1722463e-07  2.0846478e-06  1.0680958e+08
    573000   8.8810017e-11  100386.87      100382.83      102074.15      2.6018568e-06  5.1665299e-07  2.0852038e-06  1.0681642e+08
    574000   8.8965009e-11  100369.45      100366.09      101828.59      2.6018586e-06  5.1701672e-07  2.0848419e-06  1.0681105e+08
    575000   8.912e-11      100362.35      100359.16      101765.43      2.6018588e-06  5.1716432e-07  2.0846945e-06  1.0680811e+08
    576000   8.9274991e-11  100366.6       100364.04      101557.21      2.6018553e-06  5.1707264e-07  2.0847826e-06  1.0680909e+08
    577000   8.9429983e-11  100351.75      100347.86      101988.33      2.6018598e-06  5.1738562e-07  2.0844742e-06  1.068061e+08 
    578000   8.9584974e-11  100348.26      100344.76      101854.64      2.6018678e-06  5.1746601e-07  2.0844018e-06  1.0680425e+08
    579000   8.9739965e-11  100356.31      100353.13      101756.54      2.6018548e-06  5.1728574e-07  2.0845691e-06  1.0680474e+08
    580000   8.9894957e-11  100376.51      100374.84      101269.82      2.6018606e-06  5.1687212e-07  2.0849885e-06  1.0681171e+08
    581000   9.0049948e-11  100382.46      100381.27      101116.48      2.6018585e-06  5.1674634e-07  2.0851121e-06  1.0681373e+08
    582000   9.0204939e-11  100381.14      100379.64      101216.8       2.6018459e-06  5.1676118e-07  2.0850847e-06  1.0681179e+08
    583000   9.035993e-11   100369.92      100367.46      101528.48      2.6018263e-06  5.1697457e-07  2.0848517e-06  1.0680656e+08
    584000   9.0514922e-11  100352.46      100348.63      101970.37      2.6018412e-06  5.1735222e-07  2.084489e-06   1.0680311e+08
    585000   9.0669913e-11  100365.82      100362.42      101837.61      2.601849e-06   5.170825e-07   2.0847665e-06  1.0681042e+08
    586000   9.0824904e-11  100361.42      100356.95      102192.26      2.6018584e-06  5.1718322e-07  2.0846752e-06  1.0680956e+08
    587000   9.0979896e-11  100349.72      100343.1       102900.71      2.6018526e-06  5.1742047e-07  2.0844321e-06  1.0680448e+08
    588000   9.1134887e-11  100368.42      100361.22      103113.12      2.6018545e-06  5.1703399e-07  2.0848205e-06  1.0680916e+08
    589000   9.1289878e-11  100367.94      100360.02      103350.36      2.6018539e-06  5.170435e-07   2.0848104e-06  1.0680971e+08
    590000   9.144487e-11   100365.33      100356.76      103565.44      2.6018531e-06  5.1709679e-07  2.0847563e-06  1.0680794e+08
    591000   9.1599861e-11  100368.68      100360.34      103492.32      2.6018523e-06  5.1702645e-07  2.0848259e-06  1.0680726e+08
    592000   9.1754852e-11  100384.05      100375.84      103462.69      2.6018456e-06  5.1670048e-07  2.0851451e-06  1.0681062e+08
    593000   9.1909844e-11  100384.96      100375.83      103774.17      2.6018205e-06  5.1665645e-07  2.085164e-06   1.0680783e+08
    594000   9.2064835e-11  100370.45      100361.81      103596.96      2.601816e-06   5.1695326e-07  2.0848628e-06  1.0680263e+08
    595000   9.2219826e-11  100363.35      100353.49      103997.34      2.6018299e-06  5.1711471e-07  2.0847152e-06  1.0680498e+08
    596000   9.2374817e-11  100364.92      100354.98      104022.77      2.601864e-06   5.1711627e-07  2.0847478e-06  1.0680881e+08
    597000   9.2529809e-11  100365.63      100356.2       103854.09      2.601876e-06   5.1711344e-07  2.0847626e-06  1.0680977e+08
    598000   9.26848e-11    100365.19      100357.11      103403.01      2.6018638e-06  5.1711049e-07  2.0847533e-06  1.0680846e+08
    599000   9.2839791e-11  100364.11      100355.52      103573.05      2.6018454e-06  5.1711439e-07  2.084731e-06   1.0680719e+08
    600000   9.2994783e-11  100361.68      100351.82      103993.96      2.6018175e-06  5.1713704e-07  2.0846804e-06  1.0680332e+08
    601000   9.3149774e-11  100382.16      100371.09      104421.74      2.6018458e-06  5.1673985e-07  2.085106e-06   1.0681221e+08
    602000   9.3304765e-11  100372.15      100360.58      104576.19      2.6018548e-06  5.1695691e-07  2.0848979e-06  1.0681108e+08
    603000   9.3459757e-11  100369.14      100358.23      104351.93      2.6018538e-06  5.170184e-07   2.0848354e-06  1.0680909e+08
    604000   9.3614748e-11  100370.42      100356.64      105314.39      2.6018643e-06  5.1700224e-07  2.0848621e-06  1.0680928e+08
    605000   9.3769739e-11  100358.03      100344.81      105114.38      2.6018618e-06  5.17257e-07    2.0846047e-06  1.0680664e+08
    606000   9.392473e-11   100357.72      100343.37      105490.33      2.6018526e-06  5.1725445e-07  2.0845982e-06  1.068066e+08 
    607000   9.4079722e-11  100365.69      100351.41      105477.37      2.6018538e-06  5.170901e-07   2.0847637e-06  1.0680777e+08
    608000   9.4234713e-11  100358.08      100342.71      105833.88      2.6018594e-06  5.1725363e-07  2.0846057e-06  1.0680673e+08
    609000   9.4389704e-11  100351.04      100336.39      105585.4       2.6018641e-06  5.1740463e-07  2.0844595e-06  1.0680496e+08
    610000   9.4544696e-11  100365.39      100352.3       105077.53      2.6018716e-06  5.1711406e-07  2.0847576e-06  1.0681039e+08
    611000   9.4699687e-11  100338.55      100323.78      105614.46      2.6018688e-06  5.1766877e-07  2.0842e-06     1.0680276e+08
    612000   9.4854678e-11  100352.94      100336.48      106193.22      2.6018606e-06  5.1736154e-07  2.084499e-06   1.0680568e+08
    613000   9.500967e-11   100376.67      100359.35      106502.58      2.6018418e-06  5.1684997e-07  2.0849918e-06  1.0681051e+08
    614000   9.5164661e-11  100362.7       100345.83      106337.97      2.6018556e-06  5.17154e-07    2.0847016e-06  1.0680618e+08
    615000   9.5319652e-11  100375.99      100359.9       106091.89      2.6018587e-06  5.1688107e-07  2.0849777e-06  1.0681052e+08
    616000   9.5474644e-11  100365.88      100350.57      105823.96      2.6018457e-06  5.170779e-07   2.0847678e-06  1.0680603e+08
    617000   9.5629635e-11  100366.93      100351.36      105909.02      2.601855e-06   5.170654e-07   2.0847896e-06  1.0680843e+08
    618000   9.5784626e-11  100376.6       100359.37      106473.58      2.6018575e-06  5.1686715e-07  2.0849904e-06  1.0681125e+08
    619000   9.5939617e-11  100364.7       100348.64      106070.84      2.6018736e-06  5.1713035e-07  2.0847433e-06  1.0680789e+08
    620000   9.6094609e-11  100344.39      100329.02      105818.36      2.6018626e-06  5.1754131e-07  2.0843213e-06  1.0680211e+08
    621000   9.62496e-11    100345.32      100329.93      105827.19      2.6018508e-06  5.1751006e-07  2.0843407e-06  1.0680266e+08
    622000   9.6404591e-11  100356.95      100345.92      104383.15      2.6018455e-06  5.1726322e-07  2.0845823e-06  1.0680383e+08
    623000   9.6559583e-11  100365.54      100354.5       104395.57      2.6018498e-06  5.1708903e-07  2.0847608e-06  1.068074e+08 
    624000   9.6714574e-11  100393.05      100381.68      104530.04      2.6018638e-06  5.1653175e-07  2.0853321e-06  1.0681757e+08
    625000   9.6869565e-11  100358.8       100346.44      104827.9       2.601864e-06   5.1724343e-07  2.0846206e-06  1.0680708e+08
    626000   9.7024557e-11  100374.77      100362.88      104689.34      2.6018581e-06  5.1690565e-07  2.0849525e-06  1.0681132e+08
    627000   9.7179548e-11  100361.87      100349.48      104842.83      2.6018613e-06  5.171768e-07   2.0846845e-06  1.0680962e+08
    628000   9.7334539e-11  100368.05      100355.85      104786.55      2.6018818e-06  5.1706884e-07  2.0848129e-06  1.0681401e+08
    629000   9.748953e-11   100345.79      100334.05      104607.92      2.6018857e-06  5.1753528e-07  2.0843504e-06  1.0680741e+08
    630000   9.7644522e-11  100358.5       100346.15      104823.31      2.6018784e-06  5.1726397e-07  2.0846144e-06  1.0681064e+08
    631000   9.7799513e-11  100358.69      100347.22      104530.25      2.6018713e-06  5.1725283e-07  2.0846185e-06  1.0680888e+08
    632000   9.7954504e-11  100358.04      100344.88      105094.65      2.6018719e-06  5.1726704e-07  2.0846048e-06  1.0680658e+08
    633000   9.8109496e-11  100374.38      100359.43      105709.3       2.6018438e-06  5.1689956e-07  2.0849443e-06  1.0680929e+08
    634000   9.8264487e-11  100366.4       100349.96      106197.65      2.6018611e-06  5.1708264e-07  2.0847785e-06  1.0680995e+08
    635000   9.8419478e-11  100357.13      100343.47      105260.82      2.6018467e-06  5.1726067e-07  2.084586e-06   1.0680717e+08
    636000   9.857447e-11   100351.56      100342.14      103835.49      2.6018537e-06  5.1738348e-07  2.0844702e-06  1.0680581e+08
    637000   9.8729461e-11  100345.15      100336.18      103680.72      2.6018632e-06  5.1752599e-07  2.0843372e-06  1.0680275e+08
    638000   9.8884452e-11  100369.15      100360.85      103479.84      2.6018592e-06  5.1702358e-07  2.0848356e-06  1.0681223e+08
    639000   9.9039444e-11  100377.34      100367.66      103950.84      2.6018696e-06  5.168638e-07   2.0850058e-06  1.0681529e+08
    640000   9.9194435e-11  100363.54      100355.28      103460.35      2.6018579e-06  5.1713884e-07  2.0847191e-06  1.0680933e+08
    641000   9.9349426e-11  100380.95      100371.73      103802.23      2.601852e-06   5.1677113e-07  2.0850809e-06  1.0681373e+08
    642000   9.9504417e-11  100361.15      100351.71      103855.24      2.6018446e-06  5.171751e-07   2.0846695e-06  1.0680478e+08
    643000   9.9659409e-11  100366.97      100356.91      104067.53      2.6018552e-06  5.1706477e-07  2.0847904e-06  1.0680794e+08
    644000   9.98144e-11    100377.91      100368.27      103938.94      2.601845e-06   5.1682728e-07  2.0850177e-06  1.0681071e+08
    645000   9.9969391e-11  100368.25      100357.42      104323.25      2.6018523e-06  5.1703537e-07  2.0848169e-06  1.0680771e+08
    646000   1.0012438e-10  100346.62      100336.61      104030.04      2.6018738e-06  5.1750617e-07  2.0843676e-06  1.0680287e+08
    647000   1.0027937e-10  100363.05      100353.47      103902.44      2.601868e-06   5.1715894e-07  2.084709e-06   1.0680819e+08
    648000   1.0043437e-10  100360.37      100349.93      104188.44      2.601864e-06   5.1721055e-07  2.0846534e-06  1.0680959e+08
    649000   1.0058936e-10  100359.01      100348.08      104351.24      2.6018632e-06  5.1723818e-07  2.084625e-06   1.0680767e+08
    650000   1.0074435e-10  100371.8       100358.63      105111.65      2.6018813e-06  5.1699066e-07  2.0848906e-06  1.0681292e+08
    651000   1.0089934e-10  100357.79      100343.73      105394.66      2.6018797e-06  5.1728004e-07  2.0845997e-06  1.068089e+08 
    652000   1.0105433e-10  100350.12      100334.97      105750.61      2.6018726e-06  5.1743232e-07  2.0844403e-06  1.0680637e+08
    653000   1.0120932e-10  100362.5       100347.77      105624.33      2.6018635e-06  5.1716598e-07  2.0846975e-06  1.0680904e+08
    654000   1.0136431e-10  100371.47      100354.93      106239.7       2.6018566e-06  5.1697278e-07  2.0848838e-06  1.0680931e+08
    655000   1.015193e-10   100366.99      100350.53      106206.89      2.6018513e-06  5.1706047e-07  2.0847908e-06  1.0680722e+08
    656000   1.016743e-10   100366.49      100348.56      106699.6       2.6018631e-06  5.1708263e-07  2.0847805e-06  1.0680756e+08
    657000   1.0182929e-10  100356.33      100338.58      106625.42      2.6018445e-06  5.1727516e-07  2.0845693e-06  1.068045e+08 
    658000   1.0198428e-10  100351.25      100333.62      106582.68      2.601852e-06   5.1738811e-07  2.0844638e-06  1.068029e+08 
    659000   1.0213927e-10  100370.14      100353.23      106363.85      2.6018305e-06  5.1697419e-07  2.0848563e-06  1.0680585e+08
    660000   1.0229426e-10  100382.8       100365.69      106438.51      2.6018331e-06  5.1671398e-07  2.0851192e-06  1.0680849e+08
    661000   1.0244925e-10  100378.22      100361.82      106199.89      2.6018499e-06  5.1682581e-07  2.0850241e-06  1.0680797e+08
    662000   1.0260424e-10  100375.14      100359         106107.91      2.6018547e-06  5.1689464e-07  2.0849601e-06  1.0680963e+08
    663000   1.0275923e-10  100366.15      100349.07      106414.41      2.6018672e-06  5.1709387e-07  2.0847733e-06  1.0680829e+08
    664000   1.0291423e-10  100374.38      100359.02      105846.77      2.6018649e-06  5.1692071e-07  2.0849442e-06  1.0681221e+08
    665000   1.0306922e-10  100364.61      100350.34      105472.33      2.6018618e-06  5.1712049e-07  2.0847413e-06  1.0681005e+08
    666000   1.0322421e-10  100367.54      100352.24      105818.03      2.6018628e-06  5.1706062e-07  2.0848022e-06  1.0681087e+08
    667000   1.033792e-10   100358.89      100341.46      106522.89      2.6018735e-06  5.1725099e-07  2.0846226e-06  1.068095e+08 
    668000   1.0353419e-10  100352.33      100334.35      106702.86      2.6018766e-06  5.1739021e-07  2.0844864e-06  1.0680663e+08
    669000   1.0368918e-10  100351.73      100332.94      106970.88      2.6018662e-06  5.1739231e-07  2.0844739e-06  1.0680427e+08
    670000   1.0384417e-10  100363.74      100344.04      107285.31      2.6018433e-06  5.1712011e-07  2.0847232e-06  1.0680656e+08
    671000   1.0399917e-10  100361.34      100340.63      107620.72      2.60185e-06    5.171766e-07   2.0846734e-06  1.0680636e+08
    672000   1.0415416e-10  100380         100358.43      107926.71      2.6018658e-06  5.1680485e-07  2.085061e-06   1.0681488e+08
    673000   1.0430915e-10  100362         100342.18      107324.5       2.6018676e-06  5.1718053e-07  2.0846871e-06  1.0680891e+08
    674000   1.0446414e-10  100357.53      100339.12      106851.38      2.6018739e-06  5.1727957e-07  2.0845943e-06  1.0681074e+08
    675000   1.0461913e-10  100364.34      100346.37      106711.3       2.6018881e-06  5.171523e-07   2.0847358e-06  1.0681303e+08
    676000   1.0477412e-10  100367.37      100349.66      106623.47      2.6018802e-06  5.1708155e-07  2.0847986e-06  1.0681146e+08
    677000   1.0492911e-10  100360.32      100343.91      106184.88      2.6018736e-06  5.1722123e-07  2.0846523e-06  1.0680658e+08
    678000   1.050841e-10   100371.87      100356.02      106008.54      2.6018465e-06  5.1695435e-07  2.0848921e-06  1.0680954e+08
    679000   1.052391e-10   100364.46      100350.14      105487.87      2.6018604e-06  5.1712217e-07  2.0847383e-06  1.0680944e+08
    680000   1.0539409e-10  100361.02      100347.67      105159.74      2.6018539e-06  5.1718721e-07  2.0846667e-06  1.0680777e+08
    681000   1.0554908e-10  100365.65      100352.75      105016.29      2.6018721e-06  5.1710901e-07  2.0847631e-06  1.0681044e+08
    682000   1.0570407e-10  100368.1       100353.96      105434.08      2.6018626e-06  5.1704867e-07  2.0848139e-06  1.0681114e+08
    683000   1.0585906e-10  100364.06      100349.34      105622.76      2.6018749e-06  5.1714499e-07  2.0847299e-06  1.0681083e+08
    684000   1.0601405e-10  100362.46      100347.15      105820.67      2.6018585e-06  5.1716174e-07  2.0846968e-06  1.0680909e+08
    685000   1.0616904e-10  100365.22      100352.43      104977.75      2.6018718e-06  5.1711785e-07  2.084754e-06   1.0680901e+08
    686000   1.0632403e-10  100378.1       100367.97      104104.37      2.6018573e-06  5.168356e-07   2.0850217e-06  1.068107e+08 
    687000   1.0647903e-10  100376.33      100366.66      103943.88      2.6018523e-06  5.1686748e-07  2.0849848e-06  1.0681078e+08
    688000   1.0663402e-10  100358.23      100351.56      102925.4       2.6018707e-06  5.172618e-07   2.0846089e-06  1.0680992e+08
    689000   1.0678901e-10  100368.74      100361.47      103134.69      2.6018675e-06  5.1704037e-07  2.0848271e-06  1.0681251e+08
    690000   1.06944e-10    100359.47      100352.34      103080.82      2.6018582e-06  5.1722345e-07  2.0846347e-06  1.0680695e+08
    691000   1.0709899e-10  100365.34      100356.24      103746.32      2.6018637e-06  5.171071e-07   2.0847566e-06  1.0681109e+08
    692000   1.0725398e-10  100358.82      100350.27      103552.94      2.6018541e-06  5.1723309e-07  2.0846211e-06  1.0680496e+08
    693000   1.0740897e-10  100385.64      100379.17      102884.81      2.6018452e-06  5.1666704e-07  2.0851781e-06  1.0681385e+08
    694000   1.0756397e-10  100377.93      100373.09      102334.41      2.6018536e-06  5.1683552e-07  2.0850181e-06  1.0681086e+08
    695000   1.0771896e-10  100376.64      100372.96      101941.63      2.6018632e-06  5.1687199e-07  2.0849912e-06  1.068123e+08 
    696000   1.0787395e-10  100371.8       100368.86      101692.58      2.6018574e-06  5.1696653e-07  2.0848908e-06  1.0681054e+08
    697000   1.0802894e-10  100373.15      100371.05      101412.86      2.6018517e-06  5.1693293e-07  2.0849188e-06  1.0681021e+08
    698000   1.0818393e-10  100371.9       100370.8       101074.8       2.6018545e-06  5.1696173e-07  2.0848927e-06  1.0681132e+08
    699000   1.0833892e-10  100383.8       100385.29      100222.08      2.6018498e-06  5.1670972e-07  2.08514e-06    1.0681343e+08
    700000   1.0849391e-10  100369.67      100370.85      100310.83      2.6018455e-06  5.1699895e-07  2.0848465e-06  1.0680574e+08
    701000   1.086489e-10   100367.46      100368.2       100455.03      2.6018275e-06  5.1702694e-07  2.0848005e-06  1.0680306e+08
    702000   1.088039e-10   100374.61      100376.45      100094.22      2.6018139e-06  5.1686493e-07  2.084949e-06   1.0680486e+08
    703000   1.0895889e-10  100366.21      100367.88      100141.94      2.6018379e-06  5.1706327e-07  2.0847746e-06  1.068049e+08 
    704000   1.0911388e-10  100363.25      100363.25      100700.08      2.6018602e-06  5.1714706e-07  2.0847131e-06  1.0680747e+08
    705000   1.0926887e-10  100373.21      100371.44      101301.27      2.6018634e-06  5.169433e-07   2.0849201e-06  1.0681359e+08
    706000   1.0942386e-10  100369.23      100365.68      101893.18      2.6018594e-06  5.1702199e-07  2.0848374e-06  1.0681065e+08
    707000   1.0957885e-10  100375.26      100372.29      101705.8       2.601864e-06   5.1690138e-07  2.0849626e-06  1.0681069e+08
    708000   1.0973384e-10  100363.75      100360.62      101745.6       2.6018616e-06  5.1713804e-07  2.0847236e-06  1.068063e+08 
    709000   1.0988883e-10  100368.39      100364.57      101982.14      2.60184e-06    5.1702002e-07  2.08482e-06    1.0680844e+08
    710000   1.1004383e-10  100357.49      100353.7       101961.14      2.6018516e-06  5.1725803e-07  2.0845935e-06  1.0680571e+08
    711000   1.1019882e-10  100376.46      100374.51      101363.83      2.6018717e-06  5.1688422e-07  2.0849874e-06  1.0681379e+08
    712000   1.1035381e-10  100375.01      100376.46      100225.21      2.6018797e-06  5.1692225e-07  2.0849575e-06  1.0681335e+08
    713000   1.105088e-10   100362.95      100364.59      100149.71      2.6018583e-06  5.1715137e-07  2.0847069e-06  1.0680793e+08
    714000   1.1066379e-10  100370.64      100371.6       100384.25      2.6018568e-06  5.1699019e-07  2.0848666e-06  1.0680946e+08
    715000   1.1081878e-10  100371.36      100373.25      100075.45      2.6018602e-06  5.1697851e-07  2.0848817e-06  1.0681029e+08
    716000   1.1097377e-10  100365.09      100367.54      99884.552      2.6018634e-06  5.1711192e-07  2.0847514e-06  1.0680991e+08
    717000   1.1112877e-10  100358.75      100361.76      99687.435      2.6018845e-06  5.1726487e-07  2.0846196e-06  1.0681048e+08
    718000   1.1128376e-10  100366.66      100369.67      99693.109      2.6018519e-06  5.1706805e-07  2.0847839e-06  1.0680908e+08
    719000   1.1143875e-10  100379.15      100382.13      99720.136      2.6018716e-06  5.1682822e-07  2.0850434e-06  1.0681319e+08
    720000   1.1159374e-10  100373.03      100376.24      99635.062      2.6018787e-06  5.169623e-07   2.0849163e-06  1.0681238e+08
    721000   1.1174873e-10  100374.34      100376.85      99871.091      2.6018708e-06  5.1692727e-07  2.0849435e-06  1.0681302e+08
    722000   1.1190372e-10  100377.42      100378.69      100289.42      2.6018487e-06  5.1684111e-07  2.0850075e-06  1.0680979e+08
    723000   1.1205871e-10  100384.69      100384.89      100653.44      2.6018403e-06  5.1668188e-07  2.0851584e-06  1.0681093e+08
    724000   1.122137e-10   100349.7       100349.43      100777.79      2.6018593e-06  5.1742758e-07  2.0844317e-06  1.068036e+08 
    725000   1.123687e-10   100353.58      100353.19      100819.25      2.6018732e-06  5.1736098e-07  2.0845122e-06  1.0680876e+08
    726000   1.1252369e-10  100372.57      100372.13      100853.67      2.6018652e-06  5.1695861e-07  2.0849066e-06  1.0681262e+08
    727000   1.1267868e-10  100356.78      100356.27      100864.34      2.6018675e-06  5.1728872e-07  2.0845788e-06  1.0680472e+08
    728000   1.1283367e-10  100366.05      100362.88      101761.27      2.6018574e-06  5.1708608e-07  2.0847713e-06  1.0680885e+08
    729000   1.1298866e-10  100363.19      100358.87      102143.08      2.6018781e-06  5.1716625e-07  2.0847119e-06  1.0681075e+08
    730000   1.1314365e-10  100349.77      100343.92      102641.43      2.601883e-06   5.174499e-07   2.0844331e-06  1.0680633e+08
    731000   1.1329864e-10  100362.09      100354.76      103149.93      2.601862e-06   5.1717305e-07  2.084689e-06   1.0680953e+08
    732000   1.1345363e-10  100371.17      100365.07      102749.48      2.6018617e-06  5.1698395e-07  2.0848777e-06  1.0680973e+08
    733000   1.1360863e-10  100365.85      100360.74      102410.31      2.6018567e-06  5.1708952e-07  2.0847671e-06  1.0680668e+08
    734000   1.1376362e-10  100367.34      100362.77      102233.6       2.6018593e-06  5.1706115e-07  2.0847982e-06  1.0680888e+08
    735000   1.1391861e-10  100380.54      100376.31      102133.57      2.6018593e-06  5.1678694e-07  2.0850724e-06  1.06812e+08  
    736000   1.140736e-10   100360.59      100355.7       102331.55      2.6018339e-06  5.1717603e-07  2.0846578e-06  1.0680272e+08
    737000   1.1422859e-10  100360.31      100356.67      101913.41      2.6018684e-06  5.1721636e-07  2.084652e-06   1.0680786e+08
    738000   1.1438358e-10  100339.6       100338.45      101062.79      2.601839e-06   5.1761698e-07  2.084222e-06   1.0679967e+08
    739000   1.1453857e-10  100384.38      100383.76      100926.84      2.6018557e-06  5.1670374e-07  2.085152e-06   1.0681473e+08
    740000   1.1469357e-10  100359.7       100359.19      100867.1       2.6018531e-06  5.1721363e-07  2.0846395e-06  1.0680535e+08
    741000   1.1484856e-10  100379.24      100378.7       100894.79      2.6018563e-06  5.1681102e-07  2.0850453e-06  1.0681068e+08
    742000   1.1500355e-10  100374.27      100374.62      100592.11      2.6018548e-06  5.1691283e-07  2.084942e-06   1.0680872e+08
    743000   1.1515854e-10  100378         100377.72      100809.57      2.601854e-06   5.1683445e-07  2.0850196e-06  1.0681173e+08
    744000   1.1531353e-10  100364.58      100364.77      100637.34      2.6018504e-06  5.1710967e-07  2.0847407e-06  1.0680686e+08
    745000   1.1546852e-10  100370.91      100373.51      99836.65       2.6018493e-06  5.1697712e-07  2.0848722e-06  1.0680999e+08
    746000   1.1562351e-10  100354.21      100356.31      99989.351      2.6018716e-06  5.1734615e-07  2.0845254e-06  1.0680555e+08
    747000   1.157785e-10   100365.2       100365.03      100758.66      2.6018627e-06  5.1710905e-07  2.0847537e-06  1.0680908e+08
    748000   1.159335e-10   100377.92      100376.88      101062.05      2.6018633e-06  5.1684545e-07  2.0850179e-06  1.0681376e+08
    749000   1.1608849e-10  100352.84      100353.16      100580.93      2.6018604e-06  5.1736355e-07  2.0844968e-06  1.0680632e+08
    750000   1.1624348e-10  100353.96      100355.33      100232.82      2.6018775e-06  5.1735723e-07  2.0845203e-06  1.0680596e+08
    751000   1.1639847e-10  100361.88      100364.13      99943.665      2.6018704e-06  5.1718578e-07  2.0846846e-06  1.0680843e+08
    752000   1.1655346e-10  100373.49      100376.15      99817.977      2.601857e-06   5.169313e-07   2.0849257e-06  1.0681158e+08
    753000   1.1670845e-10  100377.95      100379.31      100259.53      2.6018508e-06  5.1683232e-07  2.0850185e-06  1.0681291e+08
    754000   1.1686344e-10  100381.24      100381.62      100588.08      2.6018525e-06  5.1676565e-07  2.0850868e-06  1.0681341e+08
    755000   1.1701843e-10  100366.56      100366.33      100780.6       2.6018581e-06  5.1707624e-07  2.0847819e-06  1.0681064e+08
    756000   1.1717343e-10  100366         100364.99      101040.14      2.6018774e-06  5.1710706e-07  2.0847703e-06  1.0681291e+08
    757000   1.1732842e-10  100330.99      100330.49      100833         2.6018665e-06  5.1782345e-07  2.0840431e-06  1.0680121e+08
    758000   1.1748341e-10  100363.4       100362.3       101066.53      2.6018493e-06  5.1713308e-07  2.0847162e-06  1.0680749e+08
    759000   1.176384e-10   100383.73      100381.17      101577.07      2.6018607e-06  5.1672215e-07  2.0851386e-06  1.0681342e+08
    760000   1.1779339e-10  100347.7       100344.21      101848.7       2.6018678e-06  5.174777e-07   2.0843901e-06  1.0680486e+08
    761000   1.1794838e-10  100363.31      100358.03      102465.55      2.601868e-06   5.1715354e-07  2.0847144e-06  1.0680849e+08
    762000   1.1810337e-10  100351.56      100345.2       102814.26      2.6018466e-06  5.1737633e-07  2.0844702e-06  1.0680255e+08
    763000   1.1825837e-10  100377.54      100371.85      102614.99      2.601859e-06   5.1684905e-07  2.08501e-06    1.0680982e+08
    764000   1.1841336e-10  100368.22      100362.36      102666.37      2.6018397e-06  5.1702327e-07  2.0848164e-06  1.0680743e+08
    765000   1.1856835e-10  100363.28      100354.27      103712.76      2.6018476e-06  5.1713385e-07  2.0847138e-06  1.068058e+08 
    766000   1.1872334e-10  100371.19      100361.54      103933.8       2.6018511e-06  5.1697313e-07  2.084878e-06   1.0680799e+08
    767000   1.1887833e-10  100358.99      100349.25      103953.61      2.6018468e-06  5.1722217e-07  2.0846246e-06  1.0680308e+08
    768000   1.1903332e-10  100369.11      100360.73      103505.36      2.601857e-06   5.1702219e-07  2.0848348e-06  1.0680845e+08
    769000   1.1918831e-10  100350.84      100342.71      103406.58      2.6018529e-06  5.1739745e-07  2.0844554e-06  1.0680356e+08
    770000   1.193433e-10   100363.15      100353.36      103971.45      2.6018563e-06  5.1714528e-07  2.084711e-06   1.0680738e+08
    771000   1.194983e-10   100366.24      100357.23      103717.47      2.6018585e-06  5.1708317e-07  2.0847753e-06  1.0680898e+08
    772000   1.1965329e-10  100367.87      100358.5       103836.43      2.601878e-06   5.1706886e-07  2.0848091e-06  1.0681313e+08
    773000   1.1980828e-10  100359.33      100350.2       103749.8       2.6018583e-06  5.1722666e-07  2.0846317e-06  1.0680808e+08
    774000   1.1996327e-10  100350.7       100339.56      104412.03      2.6018603e-06  5.1740788e-07  2.0844525e-06  1.0680609e+08
    775000   1.2011826e-10  100359.66      100347.87      104637.18      2.6018659e-06  5.1722732e-07  2.0846386e-06  1.0681022e+08
    776000   1.2027325e-10  100357.05      100345.81      104452.1       2.6018806e-06  5.1729615e-07  2.0845844e-06  1.0680991e+08
    777000   1.2042824e-10  100372.21      100363.33      103676.86      2.6018619e-06  5.1696271e-07  2.0848992e-06  1.0681314e+08
    778000   1.2058323e-10  100364.62      100357.12      103210.16      2.6018489e-06  5.1710729e-07  2.0847416e-06  1.0680694e+08
    779000   1.2073823e-10  100382.32      100374.31      103396.86      2.6018462e-06  5.1673704e-07  2.0851092e-06  1.0681202e+08
    780000   1.2089322e-10  100366.87      100357.9       103702.68      2.6018412e-06  5.1705285e-07  2.0847883e-06  1.0680632e+08
    781000   1.2104821e-10  100375.97      100367.32      103606.7       2.6018612e-06  5.1688377e-07  2.0849774e-06  1.0681189e+08
    782000   1.212032e-10   100360.9       100353.64      103124.61      2.601834e-06   5.171697e-07   2.0846643e-06  1.0680501e+08
    783000   1.2135819e-10  100369.25      100363.03      102784.5       2.6018419e-06  5.1700417e-07  2.0848377e-06  1.0680866e+08
    784000   1.2151318e-10  100360.21      100353.31      103001.97      2.6018388e-06  5.1718893e-07  2.0846499e-06  1.0680514e+08
    785000   1.2166817e-10  100363.75      100355.92      103317.17      2.6018634e-06  5.1713999e-07  2.0847234e-06  1.0681058e+08
    786000   1.2182317e-10  100362.25      100353.33      103682.17      2.6018773e-06  5.1718487e-07  2.0846924e-06  1.0680979e+08
    787000   1.2197816e-10  100363.34      100353.82      103883.35      2.6018569e-06  5.1714197e-07  2.0847149e-06  1.0680749e+08
    788000   1.2213315e-10  100369.72      100360.08      103930.42      2.6018767e-06  5.1702913e-07  2.0848476e-06  1.0681126e+08
    789000   1.2228814e-10  100365.47      100355.21      104129.75      2.6018528e-06  5.1709359e-07  2.0847592e-06  1.0680681e+08
    790000   1.2244313e-10  100386.3       100375.87      104211.84      2.60184e-06    5.166481e-07   2.0851919e-06  1.0680998e+08
    791000   1.2259812e-10  100375.62      100366.38      103800.88      2.6018243e-06  5.1685424e-07  2.0849701e-06  1.0680631e+08
    792000   1.2275311e-10  100376.83      100367.85      103715.9       2.6018378e-06  5.1684266e-07  2.0849951e-06  1.0681003e+08
    793000   1.229081e-10   100372.56      100363.88      103610.53      2.6018599e-06  5.1695348e-07  2.0849064e-06  1.0680976e+08
    794000   1.230631e-10   100392.4       100382.1       104173.96      2.6018393e-06  5.1652068e-07  2.0853186e-06  1.0681441e+08
    795000   1.2321809e-10  100380.09      100369.55      104239.67      2.6018414e-06  5.1677847e-07  2.0850629e-06  1.0681011e+08
    796000   1.2337308e-10  100371.85      100361.52      104162.03      2.6018396e-06  5.1694785e-07  2.0848917e-06  1.0680861e+08
    797000   1.2352807e-10  100373.03      100363.29      103968.03      2.6018427e-06  5.1692633e-07  2.0849164e-06  1.0680978e+08
    798000   1.2368306e-10  100371.77      100361.85      104024.85      2.6018395e-06  5.1694938e-07  2.0848901e-06  1.068088e+08 
    799000   1.2383805e-10  100369.81      100361.14      103605.43      2.6018626e-06  5.1701321e-07  2.0848494e-06  1.0680978e+08
    800000   1.2399304e-10  100377.88      100370.95      103031.34      2.6018514e-06  5.1683439e-07  2.085017e-06   1.0681325e+08
    801000   1.2414803e-10  100388.58      100381.56      103071.74      2.6018476e-06  5.1660835e-07  2.0852393e-06  1.0681457e+08
    802000   1.2430303e-10  100377.75      100369.98      103311.99      2.6018392e-06  5.16825e-07    2.0850142e-06  1.068084e+08 
    803000   1.2445802e-10  100379.52      100371.01      103563.79      2.6018247e-06  5.1677355e-07  2.0850512e-06  1.0680819e+08
    804000   1.2461301e-10  100364.96      100355.48      103871.91      2.6018396e-06  5.1709088e-07  2.0847487e-06  1.0680468e+08
    805000   1.24768e-10    100380.76      100370.6       104111.72      2.6018416e-06  5.1676486e-07  2.0850768e-06  1.0681068e+08
    806000   1.2492299e-10  100378.8       100368.21      104253.75      2.601839e-06   5.1680297e-07  2.085036e-06   1.0680976e+08
    807000   1.2507798e-10  100359.46      100346.52      105020.98      2.6018529e-06  5.1721855e-07  2.0846343e-06  1.0680579e+08
    808000   1.2523297e-10  100356.48      100345.45      104378.51      2.6018796e-06  5.1730719e-07  2.0845724e-06  1.0680681e+08
    809000   1.2538797e-10  100369.75      100360.98      103639.93      2.6018721e-06  5.1702387e-07  2.0848482e-06  1.0681243e+08
    810000   1.2554296e-10  100383.87      100376.76      103096.04      2.6018592e-06  5.1671782e-07  2.0851414e-06  1.0681464e+08
    811000   1.2569795e-10  100370.05      100364.08      102703.31      2.6018477e-06  5.1699332e-07  2.0848544e-06  1.0680811e+08
    812000   1.2585294e-10  100353.36      100346.37      103027.91      2.6018551e-06  5.1734739e-07  2.0845077e-06  1.068026e+08 
    813000   1.2600793e-10  100368.67      100361.04      103256.4       2.6018423e-06  5.1701655e-07  2.0848257e-06  1.0680752e+08
    814000   1.2616292e-10  100366.94      100358.01      103688.42      2.6018506e-06  5.1706095e-07  2.0847897e-06  1.0680699e+08
    815000   1.2631791e-10  100378.56      100367.47      104423.26      2.6018413e-06  5.168102e-07   2.0850311e-06  1.0681024e+08
    816000   1.264729e-10   100360.63      100350.12      104210.53      2.6018604e-06  5.1720163e-07  2.0846588e-06  1.0680531e+08
    817000   1.266279e-10   100378.93      100368.62      104160.53      2.6018516e-06  5.1681281e-07  2.0850388e-06  1.0681317e+08
    818000   1.2678289e-10  100371.02      100361.03      104047.35      2.6018573e-06  5.1698281e-07  2.0848745e-06  1.0681026e+08
    819000   1.2693788e-10  100361         100350.89      104077.5       2.601869e-06   5.1720267e-07  2.0846663e-06  1.0680751e+08
    820000   1.2709287e-10  100372.38      100362.66      103959.84      2.6018536e-06  5.1695086e-07  2.0849027e-06  1.0680908e+08
    821000   1.2724786e-10  100367.73      100356.69      104394.91      2.6018394e-06  5.1703332e-07  2.0848061e-06  1.0680754e+08
    822000   1.2740285e-10  100362.12      100350.28      104658.22      2.6018254e-06  5.1713577e-07  2.0846897e-06  1.0680572e+08
    823000   1.2755784e-10  100372.85      100360.05      104988.03      2.6018325e-06  5.1692006e-07  2.0849125e-06  1.068087e+08 
    824000   1.2771283e-10  100380.87      100370.05      104333.02      2.6018535e-06  5.1677448e-07  2.0850791e-06  1.0681298e+08
    825000   1.2786783e-10  100359.64      100350.05      103901.07      2.6018404e-06  5.1720228e-07  2.0846381e-06  1.0680389e+08
    826000   1.2802282e-10  100360.97      100353.83      103082.6       2.601839e-06   5.1717324e-07  2.0846657e-06  1.0680497e+08
    827000   1.2817781e-10  100371.56      100363.11      103532.63      2.6018659e-06  5.1698015e-07  2.0848857e-06  1.0681021e+08
    828000   1.283328e-10   100372.7       100363.05      103934.24      2.601855e-06   5.1694568e-07  2.0849094e-06  1.0681016e+08
    829000   1.2848779e-10  100377.28      100368.63      103603.4       2.6018751e-06  5.1687057e-07  2.0850045e-06  1.0681424e+08
    830000   1.2864278e-10  100388.57      100379.98      103597.44      2.6018845e-06  5.1664537e-07  2.0852391e-06  1.0681814e+08
    831000   1.2879777e-10  100371.59      100361.59      104051.13      2.6018626e-06  5.1697627e-07  2.0848863e-06  1.0680972e+08
    832000   1.2895277e-10  100381.27      100369.93      104509.8       2.6018569e-06  5.1676946e-07  2.0850874e-06  1.0681118e+08
    833000   1.2910776e-10  100367.1       100354.1       105051.58      2.6018383e-06  5.170452e-07   2.0847931e-06  1.0680634e+08
    834000   1.2926275e-10  100356.94      100343.64      105141.83      2.6018371e-06  5.1725498e-07  2.0845821e-06  1.0680267e+08
    835000   1.2941774e-10  100380.11      100366.23      105355.3       2.6018352e-06  5.1677192e-07  2.0850633e-06  1.068105e+08 
    836000   1.2957273e-10  100382.93      100369.45      105227.05      2.6018266e-06  5.1670471e-07  2.0851219e-06  1.0681006e+08
    837000   1.2972772e-10  100380.22      100365.13      105762.1       2.6018603e-06  5.1679474e-07  2.0850656e-06  1.0681253e+08
    838000   1.2988271e-10  100378.39      100361.63      106320.78      2.6018626e-06  5.1683495e-07  2.0850277e-06  1.0681336e+08
    839000   1.300377e-10   100369.75      100351.57      106785.04      2.6018721e-06  5.1702402e-07  2.0848481e-06  1.068109e+08 
    840000   1.301927e-10   100365.9       100345.92      107381.86      2.6018669e-06  5.1709882e-07  2.0847681e-06  1.0680966e+08
    841000   1.3034769e-10  100360.73      100340.43      107486.61      2.6018484e-06  5.1718759e-07  2.0846608e-06  1.0680569e+08
    842000   1.3050268e-10  100388.42      100366.59      108024.26      2.6018472e-06  5.1661122e-07  2.085236e-06   1.0681284e+08
    843000   1.3065767e-10  100378.9       100356.69      108142.15      2.6018479e-06  5.168097e-07   2.0850382e-06  1.0680982e+08
    844000   1.3081266e-10  100365.73      100343.42      108163.39      2.601872e-06   5.171074e-07   2.0847646e-06  1.0680966e+08
    845000   1.3096765e-10  100339.99      100319.83      107418.51      2.6018807e-06  5.1765064e-07  2.08423e-06    1.0680284e+08
    846000   1.3112264e-10  100348.14      100329.68      106858.13      2.6018511e-06  5.1745184e-07  2.0843993e-06  1.0680352e+08
    847000   1.3127763e-10  100370.29      100351.94      106842.97      2.6018482e-06  5.1698874e-07  2.0848594e-06  1.0680927e+08
    848000   1.3143263e-10  100377.42      100359.94      106559.28      2.6018471e-06  5.1683957e-07  2.0850075e-06  1.0680944e+08
    849000   1.3158762e-10  100377.55      100359.57      106724.04      2.6018447e-06  5.168346e-07   2.0850101e-06  1.0680957e+08
    850000   1.3174261e-10  100374.05      100355.96      106759.52      2.6018493e-06  5.1691178e-07  2.0849375e-06  1.0681028e+08
    851000   1.318976e-10   100367.67      100350.57      106421.15      2.6018491e-06  5.170442e-07   2.0848049e-06  1.068085e+08 
    852000   1.3205259e-10  100345.29      100330.61      105588.75      2.6018472e-06  5.175072e-07   2.08434e-06    1.0680228e+08
    853000   1.3220758e-10  100375.93      100360.63      105829.41      2.6018745e-06  5.1689799e-07  2.0849765e-06  1.0681462e+08
    854000   1.3236257e-10  100383.22      100366.31      106376.13      2.6018535e-06  5.1672543e-07  2.085128e-06   1.0681182e+08
    855000   1.3251757e-10  100382.52      100364.14      106864.1       2.601839e-06   5.1672564e-07  2.0851134e-06  1.0680991e+08
    856000   1.3267256e-10  100355.92      100339.71      106111.14      2.6018466e-06  5.172858e-07   2.0845608e-06  1.0680391e+08
    857000   1.3282755e-10  100371.05      100354.77      106149.56      2.601863e-06   5.169879e-07   2.0848751e-06  1.0680953e+08
    858000   1.3298254e-10  100387.87      100370.23      106620.94      2.6018699e-06  5.1664539e-07  2.0852245e-06  1.0681595e+08
    859000   1.3313753e-10  100370.09      100352.36      106637.29      2.6018466e-06  5.169913e-07   2.0848553e-06  1.0680946e+08
    860000   1.3329252e-10  100363.34      100344.72      106927.6       2.6018393e-06  5.1712425e-07  2.084715e-06   1.0680646e+08
    861000   1.3344751e-10  100370.15      100350.82      107170.95      2.6018156e-06  5.1695905e-07  2.0848565e-06  1.0680415e+08
    862000   1.336025e-10   100369.69      100349.84      107345.46      2.6018375e-06  5.1699048e-07  2.084847e-06   1.0680373e+08
    863000   1.337575e-10   100373.56      100354.14      107206.22      2.6018507e-06  5.1692327e-07  2.0849274e-06  1.0681057e+08
    864000   1.3391249e-10  100329.15      100308.74      107490.78      2.6018666e-06  5.1786184e-07  2.0840047e-06  1.0680015e+08
    865000   1.3406748e-10  100370.89      100351.49      107194.56      2.6018914e-06  5.1701959e-07  2.0848719e-06  1.0681446e+08
    866000   1.3422247e-10  100375.37      100354.49      107696.49      2.6018575e-06  5.1689261e-07  2.0849649e-06  1.0681158e+08
    867000   1.3437746e-10  100357.27      100336.67      107581.27      2.6018502e-06  5.1726126e-07  2.0845889e-06  1.0680366e+08
    868000   1.3453245e-10  100357.4       100337.26      107428.25      2.6018695e-06  5.1727784e-07  2.0845916e-06  1.068061e+08 
    869000   1.3468744e-10  100360.33      100340.42      107353.72      2.6018635e-06  5.172111e-07   2.0846524e-06  1.0680806e+08
    870000   1.3484243e-10  100355.32      100338.05      106466.31      2.6018649e-06  5.173165e-07   2.0845484e-06  1.0680743e+08
    871000   1.3499743e-10  100367.73      100351.96      105976.95      2.6018676e-06  5.1706149e-07  2.0848062e-06  1.0681079e+08
    872000   1.3515242e-10  100374.5       100358.63      106019.77      2.6018635e-06  5.1691672e-07  2.0849468e-06  1.0681174e+08
    873000   1.3530741e-10  100354.5       100337.27      106453.68      2.6018931e-06  5.1736166e-07  2.0845315e-06  1.0680853e+08
    874000   1.354624e-10   100363.35      100345.56      106648.42      2.6018682e-06  5.1715299e-07  2.0847152e-06  1.0680968e+08
    875000   1.3561739e-10  100375.7       100355.38      107504.77      2.6018787e-06  5.1690704e-07  2.0849717e-06  1.0681226e+08
    876000   1.3577238e-10  100377.44      100356.62      107676.8       2.6018664e-06  5.168585e-07   2.0850079e-06  1.0681206e+08
    877000   1.3592737e-10  100361.17      100339.92      107805.27      2.6018721e-06  5.1720218e-07  2.0846699e-06  1.0680757e+08
    878000   1.3608237e-10  100377.66      100354.86      108340.32      2.6018665e-06  5.1685394e-07  2.0850125e-06  1.0681319e+08
    879000   1.3623736e-10  100366.21      100342.92      108488.9       2.6018611e-06  5.170866e-07   2.0847745e-06  1.0680939e+08
    880000   1.3639235e-10  100372.52      100347.19      109179.22      2.6018675e-06  5.1696179e-07  2.0849057e-06  1.0681159e+08
    881000   1.3654734e-10  100349.35      100325.8       108561.09      2.6018527e-06  5.1742839e-07  2.0844243e-06  1.0680335e+08
    882000   1.3670233e-10  100360.69      100338.02      108277.2       2.6018248e-06  5.1716491e-07  2.0846599e-06  1.0680517e+08
    883000   1.3685732e-10  100353.78      100330.19      108578.92      2.6018378e-06  5.1732134e-07  2.0845164e-06  1.068022e+08 
    884000   1.3701231e-10  100359.11      100335.17      108699         2.6018355e-06  5.1720844e-07  2.0846271e-06  1.0680294e+08
    885000   1.371673e-10   100362.21      100336.86      109176.81      2.6018562e-06  5.1716461e-07  2.0846916e-06  1.0680583e+08
    886000   1.373223e-10   100358.39      100335.15      108466.32      2.6018663e-06  5.1725407e-07  2.0846122e-06  1.0680542e+08
    887000   1.3747729e-10  100374.24      100350.55      108634.76      2.6018816e-06  5.1694016e-07  2.0849415e-06  1.0681523e+08
    888000   1.3763228e-10  100351.77      100327.89      108672.98      2.6018731e-06  5.1739843e-07  2.0844747e-06  1.0680581e+08
    889000   1.3778727e-10  100370.8       100345.55      109149.37      2.6018616e-06  5.1699168e-07  2.0848699e-06  1.068122e+08 
    890000   1.3794226e-10  100366.38      100339.87      109565.85      2.6018531e-06  5.1707508e-07  2.084778e-06   1.0680915e+08
    891000   1.3809725e-10  100378.88      100352.06      109685.34      2.6018638e-06  5.1682604e-07  2.0850378e-06  1.0681234e+08
    892000   1.3825224e-10  100379.83      100354.3       109254.88      2.6018588e-06  5.1680124e-07  2.0850575e-06  1.0681295e+08
    893000   1.3840723e-10  100372.28      100346.65      109279.56      2.6018466e-06  5.1694601e-07  2.0849006e-06  1.0680765e+08
    894000   1.3856223e-10  100377.97      100351.5       109565.98      2.6018308e-06  5.1681189e-07  2.0850189e-06  1.0680799e+08
    895000   1.3871722e-10  100385.8       100360.51      109179.39      2.6018517e-06  5.1667014e-07  2.0851815e-06  1.0681402e+08
    896000   1.3887221e-10  100373.55      100349.92      108612.3       2.6018669e-06  5.1693973e-07  2.0849271e-06  1.0681325e+08
    897000   1.390272e-10   100360.6       100336.92      108616.97      2.6018718e-06  5.1721361e-07  2.0846582e-06  1.0680868e+08
    898000   1.3918219e-10  100360.73      100336.94      108654.64      2.6018661e-06  5.1720528e-07  2.0846609e-06  1.0680935e+08
    899000   1.3933718e-10  100364.75      100342.15      108259.63      2.6018694e-06  5.1712508e-07  2.0847443e-06  1.0681138e+08
    900000   1.3949217e-10  100345.16      100321.21      108690.95      2.6018595e-06  5.175221e-07   2.0843374e-06  1.0680406e+08
    901000   1.3964717e-10  100351.49      100327.74      108628.97      2.6018474e-06  5.1737859e-07  2.0844688e-06  1.0680491e+08
    902000   1.3980216e-10  100360.37      100333.57      109658.38      2.6018497e-06  5.171964e-07   2.0846533e-06  1.0680479e+08
    903000   1.3995715e-10  100365.78      100336.28      110569.33      2.6018441e-06  5.1707829e-07  2.0847658e-06  1.0680597e+08
    904000   1.4011214e-10  100369.58      100340.87      110306.39      2.601867e-06   5.170224e-07   2.0848446e-06  1.0681026e+08
    905000   1.4026713e-10  100382.63      100353.29      110531.01      2.6018542e-06  5.1673857e-07  2.0851156e-06  1.0681242e+08
    906000   1.4042212e-10  100362.43      100333.51      110371.74      2.601851e-06   5.1715477e-07  2.0846962e-06  1.0680407e+08
    907000   1.4057711e-10  100369.86      100342.44      109875.77      2.6018553e-06  5.1700485e-07  2.0848505e-06  1.0680898e+08
    908000   1.407321e-10   100381.3       100352.52      110340.85      2.6018543e-06  5.1676634e-07  2.085088e-06   1.0681391e+08
    909000   1.408871e-10   100373.03      100344.36      110295.63      2.6018611e-06  5.1694483e-07  2.0849163e-06  1.0681221e+08
    910000   1.4104209e-10  100359.52      100330.82      110292.56      2.6018435e-06  5.172079e-07   2.0846356e-06  1.0680716e+08
    911000   1.4119708e-10  100357.94      100330.22      109962.12      2.6018622e-06  5.1725947e-07  2.0846028e-06  1.0680696e+08
    912000   1.4135207e-10  100345.36      100320.1       109128.74      2.6018582e-06  5.1751672e-07  2.0843415e-06  1.0680297e+08
    913000   1.4150706e-10  100367.81      100343.25      108915.74      2.6018732e-06  5.1706544e-07  2.0848078e-06  1.0681142e+08
    914000   1.4166205e-10  100361.76      100336.9       109009.32      2.6018565e-06  5.1717437e-07  2.0846821e-06  1.0680667e+08
    915000   1.4181704e-10  100371.95      100346.07      109360.76      2.6018597e-06  5.1696594e-07  2.0848938e-06  1.0681175e+08
    916000   1.4197203e-10  100373.06      100348.56      108904.25      2.6018444e-06  5.1692748e-07  2.0849169e-06  1.0680857e+08
    917000   1.4212703e-10  100378.25      100353.62      108950.53      2.601853e-06   5.1682842e-07  2.0850246e-06  1.0681136e+08
    918000   1.4228202e-10  100357.19      100334.25      108365.19      2.6018413e-06  5.1725407e-07  2.0845872e-06  1.0680324e+08
    919000   1.4243701e-10  100367.89      100344.03      108682.52      2.6018683e-06  5.1705884e-07  2.0848095e-06  1.0680959e+08
    920000   1.42592e-10    100369.84      100345.8       108745.29      2.6018656e-06  5.1701549e-07  2.0848501e-06  1.0681131e+08
    921000   1.4274699e-10  100359.8       100338.18      107927.78      2.6018559e-06  5.1721432e-07  2.0846416e-06  1.0680739e+08
    922000   1.4290198e-10  100354.48      100334.52      107367.31      2.6018493e-06  5.1731833e-07  2.084531e-06   1.0680442e+08
    923000   1.4305697e-10  100355.53      100339.32      106113.95      2.6018563e-06  5.1730342e-07  2.0845528e-06  1.0680461e+08
    924000   1.4321197e-10  100358.07      100342.02      106062.11      2.6018648e-06  5.1725935e-07  2.0846055e-06  1.0680878e+08
    925000   1.4336696e-10  100360.68      100344.96      105951.86      2.6018401e-06  5.1718049e-07  2.0846596e-06  1.0680692e+08
    926000   1.4352195e-10  100369.26      100354.32      105701.13      2.6018475e-06  5.1700948e-07  2.084838e-06   1.0680803e+08
    927000   1.4367694e-10  100385.18      100369.92      105825.15      2.6018501e-06  5.1668144e-07  2.0851687e-06  1.0681468e+08
    928000   1.4383193e-10  100364.42      100348.45      106040.49      2.6018546e-06  5.1711712e-07  2.0847375e-06  1.0680861e+08
    929000   1.4398692e-10  100360.81      100343.71      106414.56      2.6018285e-06  5.1716618e-07  2.0846623e-06  1.0680505e+08
    930000   1.4414191e-10  100372.67      100355.75      106365.75      2.6018381e-06  5.1692934e-07  2.0849087e-06  1.0680687e+08
    931000   1.442969e-10   100374.42      100356.58      106674.68      2.6018409e-06  5.1689579e-07  2.0849451e-06  1.0680831e+08
    932000   1.444519e-10   100367.09      100348.87      106796.41      2.6018503e-06  5.1705738e-07  2.0847929e-06  1.0680764e+08
    933000   1.4460689e-10  100364.32      100345.28      107067.21      2.6018526e-06  5.1711726e-07  2.0847353e-06  1.0680738e+08
    934000   1.4476188e-10  100360.54      100344.68      106001.79      2.6018548e-06  5.1719785e-07  2.0846569e-06  1.0680557e+08
    935000   1.4491687e-10  100372.02      100357.08      105704.1       2.6018723e-06  5.1697709e-07  2.0848952e-06  1.0681102e+08
    936000   1.4507186e-10  100366.94      100353.04      105349.28      2.6018536e-06  5.1706389e-07  2.0847897e-06  1.0680843e+08
    937000   1.4522685e-10  100377.72      100362.18      105910.01      2.601846e-06   5.1683228e-07  2.0850137e-06  1.0681269e+08
    938000   1.4538184e-10  100358.42      100343.36      105732.31      2.6018566e-06  5.1724374e-07  2.0846128e-06  1.0680639e+08
    939000   1.4553683e-10  100362.26      100346.82      105860.25      2.6018485e-06  5.1715592e-07  2.0846926e-06  1.0680646e+08
    940000   1.4569183e-10  100361.98      100348.04      105359.84      2.6018483e-06  5.1716145e-07  2.0846868e-06  1.0680696e+08
    941000   1.4584682e-10  100366.64      100354.31      104826.21      2.6018641e-06  5.1708048e-07  2.0847836e-06  1.0680961e+08
    942000   1.4600181e-10  100375.46      100363.44      104729.57      2.6018821e-06  5.1691543e-07  2.0849667e-06  1.0681367e+08
    943000   1.461568e-10   100373.53      100361.31      104794.79      2.6018873e-06  5.1696072e-07  2.0849266e-06  1.0681472e+08
    944000   1.4631179e-10  100371.85      100359.55      104820.43      2.6018836e-06  5.1699187e-07  2.0848917e-06  1.0681483e+08
    945000   1.4646678e-10  100366.58      100353.13      105198.13      2.6018497e-06  5.1706746e-07  2.0847822e-06  1.0680792e+08
    946000   1.4662177e-10  100364.8       100351.03      105304.82      2.6018692e-06  5.1712384e-07  2.0847453e-06  1.068078e+08 
    947000   1.4677677e-10  100376.39      100362.86      105237.95      2.6018546e-06  5.1686852e-07  2.0849861e-06  1.0681146e+08
    948000   1.4693176e-10  100370.1       100354.82      105816.35      2.6018601e-06  5.1700468e-07  2.0848555e-06  1.0680963e+08
    949000   1.4708675e-10  100358.14      100340.66      106540.67      2.6018567e-06  5.1724972e-07  2.0846069e-06  1.0680564e+08
    950000   1.4724174e-10  100365.33      100347.22      106757.61      2.6018512e-06  5.1709489e-07  2.0847563e-06  1.0680763e+08
    951000   1.4739673e-10  100383.96      100364.58      107202.16      2.601842e-06   5.1669873e-07  2.0851433e-06  1.0681168e+08
    952000   1.4755172e-10  100361         100340.07      107696.67      2.6018471e-06  5.1718067e-07  2.0846665e-06  1.0680419e+08
    953000   1.4770671e-10  100359.63      100337.77      108005.97      2.601872e-06   5.1723407e-07  2.084638e-06   1.0680802e+08
    954000   1.478617e-10   100351.96      100331.19      107632.5       2.6018626e-06  5.1738402e-07  2.0844785e-06  1.0680516e+08
    955000   1.480167e-10   100352.86      100331.84      107720.88      2.6018643e-06  5.1736693e-07  2.0844974e-06  1.0680517e+08
    956000   1.4817169e-10  100360.77      100341.95      106989.58      2.6018651e-06  5.172035e-07   2.0846616e-06  1.0680783e+08
    957000   1.4832668e-10  100369.49      100352.2       106487.57      2.6018481e-06  5.1700537e-07  2.0848427e-06  1.0681059e+08
    958000   1.4848167e-10  100389.12      100372.79      106186.36      2.601855e-06   5.1660442e-07  2.0852505e-06  1.0681538e+08
    959000   1.4863666e-10  100383.09      100368.16      105713.01      2.6018426e-06  5.1671738e-07  2.0851252e-06  1.0681001e+08
    960000   1.4879165e-10  100383.79      100371.34      104880.99      2.6018485e-06  5.1670886e-07  2.0851397e-06  1.0681002e+08
    961000   1.4894664e-10  100363.57      100351.12      104862.32      2.6018359e-06  5.1711612e-07  2.0847198e-06  1.0680572e+08
    962000   1.4910163e-10  100352.41      100339.62      104966.54      2.6018611e-06  5.1737308e-07  2.0844881e-06  1.0680248e+08
    963000   1.4925663e-10  100364.67      100350.88      105312.04      2.6018612e-06  5.1711866e-07  2.0847425e-06  1.0680765e+08
    964000   1.4941162e-10  100372.85      100357.97      105684.34      2.6018573e-06  5.1694478e-07  2.0849125e-06  1.0681028e+08
    965000   1.4956661e-10  100346.78      100330.94      105979.26      2.601848e-06   5.1747697e-07  2.084371e-06   1.068016e+08 
    966000   1.497216e-10   100349.65      100332.96      106265.03      2.601856e-06   5.1742538e-07  2.0844306e-06  1.0680319e+08
    967000   1.4987659e-10  100369.55      100351.46      106753.73      2.6018474e-06  5.1700338e-07  2.084844e-06   1.0680954e+08
    968000   1.5003158e-10  100378.39      100360.37      106739.46      2.6018459e-06  5.1681833e-07  2.0850276e-06  1.0681137e+08
    969000   1.5018657e-10  100377.8       100358.03      107325.68      2.6018387e-06  5.1682336e-07  2.0850153e-06  1.068116e+08 
    970000   1.5034157e-10  100376.24      100357.27      107058.22      2.6018457e-06  5.1686263e-07  2.0849831e-06  1.0680922e+08
    971000   1.5049656e-10  100376.16      100356.08      107429.25      2.6018418e-06  5.1686049e-07  2.0849814e-06  1.0680964e+08
    972000   1.5065155e-10  100370.99      100349.93      107748.21      2.6018352e-06  5.1696137e-07  2.0848738e-06  1.0680784e+08
    973000   1.5080654e-10  100373.07      100353.13      107379.25      2.6018544e-06  5.1693727e-07  2.0849171e-06  1.0681119e+08
    974000   1.5096153e-10  100360.99      100343.82      106440.68      2.6018773e-06  5.1721112e-07  2.0846662e-06  1.068096e+08 
    975000   1.5111652e-10  100347.57      100328.11      107191.36      2.6018713e-06  5.1748379e-07  2.0843875e-06  1.0680415e+08
    976000   1.5127151e-10  100344.37      100322.48      108000.83      2.6018441e-06  5.1752321e-07  2.0843209e-06  1.0680096e+08
    977000   1.514265e-10   100371.83      100347.4       108875.79      2.6018575e-06  5.1696626e-07  2.0848913e-06  1.0681081e+08
    978000   1.515815e-10   100356.73      100331.34      109185.7       2.6018751e-06  5.1729732e-07  2.0845778e-06  1.0680712e+08
    979000   1.5173649e-10  100355.11      100330.86      108798.84      2.6019008e-06  5.1735683e-07  2.084544e-06   1.0680998e+08
    980000   1.5189148e-10  100348.04      100323.21      108989.95      2.6018989e-06  5.175017e-07   2.0843972e-06  1.0680803e+08
    981000   1.5204647e-10  100356.13      100332.59      108564.08      2.6018665e-06  5.1730122e-07  2.0845653e-06  1.0680608e+08
    982000   1.5220146e-10  100372.72      100350.96      107983.51      2.601861e-06   5.1695127e-07  2.0849098e-06  1.0681083e+08
    983000   1.5235645e-10  100367.52      100346.1       107868.37      2.6018267e-06  5.1702478e-07  2.0848019e-06  1.0680345e+08
    984000   1.5251144e-10  100373.26      100352.33      107708.85      2.6018188e-06  5.168978e-07   2.084921e-06   1.0680488e+08
    985000   1.5266643e-10  100370.08      100350.38      107294.2       2.6018495e-06  5.169946e-07   2.0848549e-06  1.0680676e+08
    986000   1.5282143e-10  100367.93      100349.73      106792.03      2.601871e-06   5.1706063e-07  2.0848104e-06  1.0681025e+08
    987000   1.5297642e-10  100367.51      100348.73      106986.12      2.6018661e-06  5.1706437e-07  2.0848017e-06  1.0680993e+08
    988000   1.5313141e-10  100374.87      100356.1       106987.48      2.6018579e-06  5.1690349e-07  2.0849544e-06  1.0681384e+08
    989000   1.532864e-10   100356.78      100337.88      107015.51      2.6018774e-06  5.1729854e-07  2.0845788e-06  1.0680899e+08
    990000   1.5344139e-10  100365.67      100344.08      107923.05      2.6018747e-06  5.1711132e-07  2.0847634e-06  1.0681169e+08
    991000   1.5359638e-10  100371.19      100348.2       108394.7       2.6018577e-06  5.1697965e-07  2.0848781e-06  1.0681024e+08
    992000   1.5375137e-10  100352.45      100328.66      108644.84      2.601854e-06   5.1736518e-07  2.0844888e-06  1.0680616e+08
    993000   1.5390637e-10  100347.61      100322.35      109132.74      2.6018529e-06  5.1746458e-07  2.0843884e-06  1.0680398e+08
    994000   1.5406136e-10  100364.17      100338.01      109450.23      2.6018519e-06  5.1711966e-07  2.0847322e-06  1.0680589e+08
    995000   1.5421635e-10  100367.62      100339.42      110135.65      2.6018412e-06  5.1703722e-07  2.084804e-06   1.0680598e+08
    996000   1.5437134e-10  100372.53      100342.06      110897.5       2.601834e-06   5.1692822e-07  2.0849058e-06  1.0680697e+08
    997000   1.5452633e-10  100370.22      100337.73      111573.86      2.6018283e-06  5.1697039e-07  2.0848579e-06  1.0680694e+08
    998000   1.5468132e-10  100368.08      100335.62      111562.78      2.6018468e-06  5.1703331e-07  2.0848135e-06  1.0680602e+08
    999000   1.5483631e-10  100393.78      100359.61      112158.21      2.6018375e-06  5.1649018e-07  2.0853473e-06  1.0681288e+08
   1000000   1.549913e-10   100379.3       100345.03      112174.6       2.601847e-06   5.1680056e-07  2.0850464e-06  1.0680849e+08
   1001000   1.551463e-10   100369.38      100334.51      112367.12      2.6018656e-06  5.1702507e-07  2.0848405e-06  1.068092e+08 
   1002000   1.5530129e-10  100361.47      100327.55      112040.39      2.601871e-06   5.1719486e-07  2.0846761e-06  1.0680931e+08
   1003000   1.5545628e-10  100358.7       100324.45      112148.95      2.6018928e-06  5.1727427e-07  2.0846186e-06  1.0681054e+08
   1004000   1.5561127e-10  100364.12      100331.51      111608.83      2.6018794e-06  5.1714809e-07  2.0847313e-06  1.0680987e+08
   1005000   1.5576626e-10  100355.73      100324.03      111293.72      2.6018655e-06  5.1730858e-07  2.084557e-06   1.0680558e+08
   1006000   1.5592125e-10  100356.12      100328.6       109895.37      2.6018877e-06  5.1732258e-07  2.0845651e-06  1.0680817e+08
   1007000   1.5607624e-10  100369.03      100343         109411.29      2.6018546e-06  5.170214e-07   2.0848332e-06  1.0680963e+08
   1008000   1.5623123e-10  100379.04      100352.46      109605.75      2.6018406e-06  5.1679951e-07  2.0850411e-06  1.0681107e+08
   1009000   1.5638623e-10  100347.03      100321.8       109119.64      2.6018632e-06  5.1748703e-07  2.0843761e-06  1.0680231e+08
   1010000   1.5654122e-10  100354.53      100328.1       109529.91      2.6018674e-06  5.1733536e-07  2.0845321e-06  1.0680707e+08
   1011000   1.5669621e-10  100363.12      100337.41      109297.37      2.601883e-06   5.171726e-07   2.0847104e-06  1.0681117e+08
   1012000   1.568512e-10   100362.11      100336.54      109248.28      2.601907e-06   5.1721758e-07  2.0846894e-06  1.0681444e+08
   1013000   1.5700619e-10  100364.72      100339.49      109138.2       2.6018982e-06  5.1715457e-07  2.0847436e-06  1.0681257e+08
   1014000   1.5716118e-10  100367.23      100342.71      108901.46      2.6018724e-06  5.1707665e-07  2.0847958e-06  1.0681078e+08
   1015000   1.5731617e-10  100359.73      100336.92      108325.07      2.6018554e-06  5.1721536e-07  2.0846401e-06  1.0680823e+08
   1016000   1.5747117e-10  100377.45      100356.8       107621.98      2.6018456e-06  5.1683743e-07  2.0850082e-06  1.0681032e+08
   1017000   1.5762616e-10  100378.71      100359.17      107250.1       2.6018411e-06  5.1680688e-07  2.0850342e-06  1.0680729e+08
   1018000   1.5778115e-10  100366.21      100348.24      106712.26      2.6018494e-06  5.1707482e-07  2.0847746e-06  1.0680612e+08
   1019000   1.5793614e-10  100368.99      100352.77      106129.79      2.6018542e-06  5.170218e-07   2.0848324e-06  1.0681035e+08
   1020000   1.5809113e-10  100363.02      100347.6       105854.62      2.6018411e-06  5.1713273e-07  2.0847083e-06  1.0680686e+08
   1021000   1.5824612e-10  100358.34      100342.42      106016.96      2.6018624e-06  5.1725121e-07  2.0846111e-06  1.0680737e+08
   1022000   1.5840111e-10  100360.46      100344.23      106123.84      2.6018647e-06  5.1720942e-07  2.0846553e-06  1.0680797e+08
   1023000   1.585561e-10   100362.37      100347.79      105573.71      2.6018703e-06  5.171754e-07   2.0846949e-06  1.0680976e+08
   1024000   1.587111e-10   100366.5       100355.08      104519.8       2.6018656e-06  5.1708506e-07  2.0847806e-06  1.0681111e+08
   1025000   1.5886609e-10  100357.98      100347.27      104274.85      2.6018837e-06  5.1728006e-07  2.0846036e-06  1.0681074e+08
   1026000   1.5902108e-10  100362.04      100348.43      105247.83      2.6018908e-06  5.1720292e-07  2.0846879e-06  1.0681065e+08
   1027000   1.5917607e-10  100360.44      100344.24      106112.11      2.6018877e-06  5.1723299e-07  2.0846547e-06  1.0680747e+08
   1028000   1.5933106e-10  100375         100357.87      106440.06      2.6018712e-06  5.1691401e-07  2.0849572e-06  1.0681303e+08
   1029000   1.5948605e-10  100378.49      100360.72      106657.78      2.601862e-06   5.1683238e-07  2.0850296e-06  1.0681419e+08
   1030000   1.5964104e-10  100367.92      100349.13      106987.7       2.6018585e-06  5.1704841e-07  2.0848101e-06  1.0681042e+08
   1031000   1.5979603e-10  100346.35      100327.04      107137.35      2.6018745e-06  5.1751246e-07  2.084362e-06   1.0680447e+08
   1032000   1.5995103e-10  100361.96      100343.35      106923.64      2.601872e-06   5.171856e-07   2.0846864e-06  1.068079e+08 
   1033000   1.6010602e-10  100371.31      100352.5       106996.84      2.6018519e-06  5.1697147e-07  2.0848804e-06  1.0680957e+08
   1034000   1.6026101e-10  100373.43      100356.06      106517.59      2.601868e-06   5.1694339e-07  2.0849246e-06  1.0681228e+08
   1035000   1.60416e-10    100380.09      100361.97      106773.71      2.6018652e-06  5.1680239e-07  2.0850628e-06  1.0681366e+08
   1036000   1.6057099e-10  100347.81      100327.31      107540.03      2.6018699e-06  5.1747746e-07  2.0843924e-06  1.068029e+08 
   1037000   1.6072598e-10  100352.33      100333.03      107141.39      2.601856e-06   5.1736976e-07  2.0844862e-06  1.0680523e+08
   1038000   1.6088097e-10  100374.66      100356.06      106930.95      2.6018689e-06  5.1691867e-07  2.0849502e-06  1.0681211e+08
   1039000   1.6103597e-10  100379.25      100359.81      107217.05      2.6018828e-06  5.1683731e-07  2.0850455e-06  1.0681356e+08
   1040000   1.6119096e-10  100354.62      100337.21      106514.97      2.6018755e-06  5.1734153e-07  2.084534e-06   1.0680555e+08
   1041000   1.6134595e-10  100369.92      100351.67      106806.07      2.601858e-06   5.1700643e-07  2.0848516e-06  1.068099e+08 
   1042000   1.6150094e-10  100361.79      100343.87      106690.77      2.6018611e-06  5.1717836e-07  2.0846828e-06  1.0680641e+08
   1043000   1.6165593e-10  100349.2       100330.08      107078.71      2.601861e-06   5.1743975e-07  2.0844212e-06  1.0680351e+08
   1044000   1.6181092e-10  100359.9       100340.5       107181.89      2.6018711e-06  5.1722759e-07  2.0846435e-06  1.0680728e+08
   1045000   1.6196591e-10  100366.81      100348.8       106726.6       2.6018542e-06  5.1706716e-07  2.0847871e-06  1.068078e+08 
   1046000   1.621209e-10   100366.71      100349.51      106454.21      2.6018677e-06  5.1708268e-07  2.084785e-06   1.0681195e+08
   1047000   1.622759e-10   100366.94      100350.27      106279.13      2.6018505e-06  5.1706064e-07  2.0847899e-06  1.0680932e+08
   1048000   1.6243089e-10  100353.14      100337.79      105822.44      2.6018601e-06  5.1735691e-07  2.0845031e-06  1.0680543e+08
   1049000   1.6258588e-10  100350.38      100335.87      105537.92      2.6018552e-06  5.1740939e-07  2.0844458e-06  1.0680341e+08
   1050000   1.6274087e-10  100382.65      100367.75      105703.23      2.6018453e-06  5.1672911e-07  2.0851162e-06  1.0681171e+08
   1051000   1.6289586e-10  100353.71      100338.12      105904.48      2.601834e-06   5.1731902e-07  2.0845149e-06  1.0680033e+08
   1052000   1.6305085e-10  100362.1       100344.93      106440.65      2.6018256e-06  5.1713644e-07  2.0846892e-06  1.068038e+08 
   1053000   1.6320584e-10  100353.73      100336.72      106378.99      2.6018564e-06  5.1734107e-07  2.0845153e-06  1.0680313e+08
   1054000   1.6336083e-10  100361.43      100346.33      105748.46      2.6018723e-06  5.1719691e-07  2.0846754e-06  1.0680677e+08
   1055000   1.6351583e-10  100371.12      100352.47      106945.34      2.6018651e-06  5.1698848e-07  2.0848766e-06  1.0680899e+08
   1056000   1.6367082e-10  100370.74      100352.6       106771.79      2.6018647e-06  5.1699604e-07  2.0848687e-06  1.0681071e+08
   1057000   1.6382581e-10  100362.17      100344.15      106726.02      2.6018609e-06  5.1717017e-07  2.0846908e-06  1.0680807e+08
   1058000   1.639808e-10   100351.8       100332.53      107132.97      2.6018798e-06  5.1740448e-07  2.0844753e-06  1.0680632e+08
   1059000   1.6413579e-10  100362.84      100341.6       107803.71      2.6018767e-06  5.1717202e-07  2.0847047e-06  1.0680885e+08
   1060000   1.6429078e-10  100361.05      100339.39      107941.42      2.6018715e-06  5.1720415e-07  2.0846674e-06  1.0680605e+08
   1061000   1.6444577e-10  100377.14      100354.99      108119.76      2.6018737e-06  5.168721e-07   2.0850016e-06  1.0681274e+08
   1062000   1.6460077e-10  100352.66      100329.97      108278.3       2.6018942e-06  5.1740102e-07  2.0844932e-06  1.0680791e+08
   1063000   1.6475576e-10  100357.24      100331.23      109390.46      2.6018875e-06  5.1729927e-07  2.0845883e-06  1.0680772e+08
   1064000   1.6491075e-10  100383.41      100359.39      108753.1       2.601892e-06   5.1676004e-07  2.0851319e-06  1.0681562e+08
   1065000   1.6506574e-10  100351.01      100327.83      108438.91      2.6018779e-06  5.1741903e-07  2.0844589e-06  1.0680297e+08
   1066000   1.6522073e-10  100370.58      100346.81      108656.71      2.601883e-06   5.1701761e-07  2.0848654e-06  1.0681129e+08
   1067000   1.6537572e-10  100371.18      100347.63      108582.23      2.6018837e-06  5.170058e-07   2.0848779e-06  1.0681178e+08
   1068000   1.6553071e-10  100374.84      100352.03      108337.28      2.6018815e-06  5.169277e-07   2.0849538e-06  1.0681075e+08
   1069000   1.656857e-10   100373.88      100349.92      108722.84      2.6018701e-06  5.1693625e-07  2.0849338e-06  1.0680928e+08
   1070000   1.658407e-10   100356.88      100332.81      108745.15      2.6018548e-06  5.1727391e-07  2.0845809e-06  1.068032e+08 
   1071000   1.6599569e-10  100358.63      100332.55      109416.18      2.6018749e-06  5.1725779e-07  2.0846171e-06  1.0680705e+08
   1072000   1.6615068e-10  100386.55      100360.7       109368.53      2.6018746e-06  5.1667744e-07  2.0851972e-06  1.0681608e+08
   1073000   1.6630567e-10  100372.72      100346.66      109423.18      2.601872e-06   5.1696211e-07  2.0849099e-06  1.0681041e+08
   1074000   1.6646066e-10  100381.59      100354.49      109780.97      2.6018627e-06  5.1676863e-07  2.0850941e-06  1.0681252e+08
   1075000   1.6661565e-10  100372.59      100345.04      109922.63      2.6018684e-06  5.169613e-07   2.0849071e-06  1.0680834e+08
   1076000   1.6677064e-10  100370.36      100343.59      109660.12      2.6018824e-06  5.1702147e-07  2.0848609e-06  1.0680814e+08
   1077000   1.6692563e-10  100375.32      100351.24      108765.58      2.6018754e-06  5.1691151e-07  2.0849639e-06  1.0681067e+08
   1078000   1.6708063e-10  100365.51      100344.28      107799.69      2.6018916e-06  5.1713156e-07  2.08476e-06    1.0681011e+08
   1079000   1.6723562e-10  100357.27      100337.12      107431.74      2.6018876e-06  5.1729863e-07  2.084589e-06   1.0680763e+08
   1080000   1.6739061e-10  100369.61      100349         107600.42      2.6019101e-06  5.1706483e-07  2.0848453e-06  1.0681478e+08
   1081000   1.675456e-10   100345         100323.53      107860.97      2.6018932e-06  5.1755922e-07  2.0843339e-06  1.0680675e+08
   1082000   1.6770059e-10  100373.79      100351.05      108314.45      2.6018916e-06  5.1695946e-07  2.0849321e-06  1.0681689e+08
   1083000   1.6785558e-10  100344.14      100321.98      108088.62      2.6018929e-06  5.1757683e-07  2.0843161e-06  1.0680519e+08
   1084000   1.6801057e-10  100360.4       100337.74      108276.63      2.6018715e-06  5.1721756e-07  2.084654e-06   1.0680712e+08
   1085000   1.6816557e-10  100361.44      100337.43      108728.46      2.6018609e-06  5.1718531e-07  2.0846756e-06  1.0680583e+08
   1086000   1.6832056e-10  100359.81      100337.86      108037.14      2.6018637e-06  5.1722197e-07  2.0846418e-06  1.0680536e+08
   1087000   1.6847555e-10  100363.58      100343.23      107507.31      2.6018936e-06  5.171735e-07   2.0847201e-06  1.0681034e+08
   1088000   1.6863054e-10  100352.68      100331.35      107821.04      2.6018696e-06  5.1737602e-07  2.0844936e-06  1.0680641e+08
   1089000   1.6878553e-10  100365.64      100342.61      108404.35      2.6018678e-06  5.1710504e-07  2.0847628e-06  1.0680899e+08
   1090000   1.6894052e-10  100379.91      100354.97      109058.7       2.6018755e-06  5.1681629e-07  2.0850593e-06  1.0681251e+08
   1091000   1.6909551e-10  100379.41      100351.89      109916.28      2.6018771e-06  5.168284e-07   2.0850487e-06  1.0681415e+08
   1092000   1.692505e-10   100375.84      100348.83      109745.07      2.6019059e-06  5.1693116e-07  2.0849747e-06  1.0681377e+08
   1093000   1.694055e-10   100359.39      100333.06      109502.07      2.6018851e-06  5.1725217e-07  2.084633e-06   1.0680443e+08
   1094000   1.6956049e-10  100354.6       100327.53      109744.77      2.6018631e-06  5.1732958e-07  2.0845335e-06  1.0680187e+08
   1095000   1.6971548e-10  100371         100343.37      109945.73      2.6018669e-06  5.1699281e-07  2.0848741e-06  1.0680936e+08
   1096000   1.6987047e-10  100371.64      100341.92      110645.94      2.601873e-06   5.1698565e-07  2.0848874e-06  1.0681088e+08
   1097000   1.7002546e-10  100370.98      100340.7       110834.09      2.6018678e-06  5.1699405e-07  2.0848738e-06  1.0681081e+08
   1098000   1.7018045e-10  100366.42      100336.73      110630.95      2.6019004e-06  5.1712143e-07  2.084779e-06   1.0681265e+08
   1099000   1.7033544e-10  100360.03      100330.82      110463.14      2.601889e-06   5.1724286e-07  2.0846462e-06  1.0680928e+08
   1100000   1.7049043e-10  100353.01      100325.48      109897.74      2.6018983e-06  5.1739787e-07  2.0845004e-06  1.0680753e+08
   1101000   1.7064543e-10  100373.72      100346.51      109807.41      2.601886e-06   5.1695544e-07  2.0849305e-06  1.0681455e+08
   1102000   1.7080042e-10  100370.36      100343.03      109844.2       2.6018751e-06  5.1701433e-07  2.0848608e-06  1.0681156e+08
   1103000   1.7095541e-10  100378.87      100350.54      110191.23      2.6018603e-06  5.168226e-07   2.0850377e-06  1.0681167e+08
   1104000   1.711104e-10   100382.99      100354.68      110186.48      2.60185e-06    5.1672684e-07  2.0851232e-06  1.0681006e+08
   1105000   1.7126539e-10  100366.46      100339.54      109707.22      2.6018514e-06  5.1707158e-07  2.0847798e-06  1.0680624e+08
   1106000   1.7142038e-10  100371.58      100343.68      110037.89      2.6018516e-06  5.1696544e-07  2.0848861e-06  1.0680948e+08
   1107000   1.7157537e-10  100373.44      100345.12      110180.39      2.6018564e-06  5.1693158e-07  2.0849248e-06  1.068077e+08 
   1108000   1.7173037e-10  100385.05      100359.05      109416.91      2.6018646e-06  5.1669856e-07  2.085166e-06   1.0681308e+08
   1109000   1.7188536e-10  100367.27      100341.73      109242.96      2.6018676e-06  5.1707103e-07  2.0847966e-06  1.0680847e+08
   1110000   1.7204035e-10  100377.43      100350.65      109672.45      2.6018566e-06  5.1684888e-07  2.0850078e-06  1.0681038e+08
   1111000   1.7219534e-10  100376.08      100349.57      109580.51      2.6018393e-06  5.1685965e-07  2.0849797e-06  1.0680771e+08
   1112000   1.7235033e-10  100358.48      100331.87      109591.88      2.6018664e-06  5.1725237e-07  2.084614e-06   1.068045e+08 
   1113000   1.7250532e-10  100363.32      100336.24      109757.6       2.6018732e-06  5.1715861e-07  2.0847146e-06  1.0680754e+08
   1114000   1.7266031e-10  100364.64      100338.4       109477.13      2.6018646e-06  5.1712255e-07  2.084742e-06   1.0680826e+08
   1115000   1.728153e-10   100373.61      100349.21      108869.2       2.6018739e-06  5.1694552e-07  2.0849284e-06  1.0681261e+08
   1116000   1.729703e-10   100364.98      100340.81      108784.73      2.6018788e-06  5.1712966e-07  2.0847492e-06  1.0681226e+08
   1117000   1.7312529e-10  100362.1       100338.76      108504.11      2.6018801e-06  5.1719075e-07  2.0846893e-06  1.0680976e+08
   1118000   1.7328028e-10  100366.55      100341.99      108917.82      2.6018767e-06  5.1709501e-07  2.0847817e-06  1.0680863e+08
   1119000   1.7343527e-10  100369.62      100344.18      109214.47      2.6018894e-06  5.1704389e-07  2.0848455e-06  1.0681125e+08
   1120000   1.7359026e-10  100361.41      100335.06      109508.13      2.6018878e-06  5.1721288e-07  2.0846749e-06  1.0680917e+08
   1121000   1.7374525e-10  100353.51      100325.34      110111.47      2.6018816e-06  5.1737073e-07  2.0845109e-06  1.0680825e+08
   1122000   1.7390024e-10  100384.35      100357.55      109683.65      2.601882e-06   5.1673059e-07  2.0851514e-06  1.0681691e+08
   1123000   1.7405523e-10  100359.42      100331.5       110032.46      2.6018594e-06  5.1722584e-07  2.0846336e-06  1.068039e+08 
   1124000   1.7421023e-10  100370.26      100340.49      110662.36      2.6018423e-06  5.169835e-07   2.0848588e-06  1.068056e+08 
   1125000   1.7436522e-10  100376.55      100344.46      111442.81      2.6018318e-06  5.1684249e-07  2.0849893e-06  1.0680752e+08
   1126000   1.7452021e-10  100359.46      100328.01      111215.09      2.601865e-06   5.1723055e-07  2.0846344e-06  1.0680544e+08
   1127000   1.746752e-10   100351.31      100318.89      111528.67      2.6018838e-06  5.1741869e-07  2.0844651e-06  1.0680619e+08
   1128000   1.7483019e-10  100358.07      100324.74      111841.42      2.6018872e-06  5.1728163e-07  2.0846056e-06  1.068077e+08 
   1129000   1.7498518e-10  100375.28      100342.06      111822.09      2.6018887e-06  5.1692572e-07  2.084963e-06   1.0681355e+08
   1130000   1.7514017e-10  100375.03      100340.09      112396.83      2.6019018e-06  5.1694402e-07  2.0849578e-06  1.0681465e+08
   1131000   1.7529517e-10  100368.82      100333.37      112562.19      2.6018749e-06  5.1704601e-07  2.0848289e-06  1.0680925e+08
   1132000   1.7545016e-10  100374.55      100337.69      113039.12      2.6018715e-06  5.1692356e-07  2.0849479e-06  1.0681219e+08
   1133000   1.7560515e-10  100342.28      100306.28      112720.74      2.6018734e-06  5.1759575e-07  2.0842776e-06  1.0680198e+08
   1134000   1.7576014e-10  100353.79      100318.65      112440.09      2.6018663e-06  5.173497e-07   2.0845166e-06  1.068052e+08 
   1135000   1.7591513e-10  100377.87      100344.11      112004.86      2.6018684e-06  5.1685166e-07  2.0850168e-06  1.0681e+08   
   1136000   1.7607012e-10  100372.96      100339.65      111852.25      2.6018679e-06  5.1695297e-07  2.0849149e-06  1.0680875e+08
   1137000   1.7622511e-10  100349.36      100317.55      111323.41      2.6018691e-06  5.1744442e-07  2.0844247e-06  1.0680138e+08
   1138000   1.763801e-10   100357.78      100323.73      112082.02      2.6018629e-06  5.1726339e-07  2.0845995e-06  1.0680701e+08
   1139000   1.765351e-10   100362.84      100327         112687.47      2.6018679e-06  5.1716316e-07  2.0847047e-06  1.0680598e+08
   1140000   1.7669009e-10  100357.95      100322.65      112500.51      2.6018659e-06  5.1726291e-07  2.084603e-06   1.0680532e+08
   1141000   1.7684508e-10  100355.48      100317.82      113287.46      2.6018666e-06  5.1731486e-07  2.0845517e-06  1.0680556e+08
   1142000   1.7700007e-10  100356.67      100319.7       113054.65      2.6018747e-06  5.1729836e-07  2.0845764e-06  1.0680544e+08
   1143000   1.7715506e-10  100366.26      100330.63      112617.38      2.6018749e-06  5.1709928e-07  2.0847756e-06  1.0680901e+08
   1144000   1.7731005e-10  100368.26      100332.76      112577.46      2.6018851e-06  5.1706788e-07  2.0848172e-06  1.0681039e+08
   1145000   1.7746504e-10  100375.07      100342.09      111742.8       2.6018629e-06  5.1690425e-07  2.0849587e-06  1.0681071e+08
   1146000   1.7762003e-10  100362.57      100326.4       112795.87      2.6018771e-06  5.1717801e-07  2.0846991e-06  1.0680664e+08
   1147000   1.7777503e-10  100354.33      100319.72      112263.73      2.6018769e-06  5.173491e-07   2.0845278e-06  1.0680563e+08
   1148000   1.7793002e-10  100362.6       100329.25      111850.89      2.6018945e-06  5.1719491e-07  2.0846996e-06  1.0681129e+08
   1149000   1.7808501e-10  100360.72      100328.63      111427.56      2.6018965e-06  5.1723588e-07  2.0846606e-06  1.0681202e+08
   1150000   1.7824e-10     100364.48      100333.45      111075.17      2.6018834e-06  5.1714476e-07  2.0847386e-06  1.0681065e+08
   1151000   1.7839499e-10  100373.96      100342.2       111330.77      2.6018758e-06  5.1694025e-07  2.0849356e-06  1.0681262e+08
   1152000   1.7854998e-10  100381.96      100350.05      111391.46      2.6018803e-06  5.1677851e-07  2.0851018e-06  1.0681521e+08
   1153000   1.7870497e-10  100352.25      100317.95      112158.66      2.6018882e-06  5.1740353e-07  2.0844847e-06  1.0680621e+08
   1154000   1.7885997e-10  100356.94      100321.54      112534.21      2.601881e-06   5.172989e-07   2.0845821e-06  1.0680761e+08
   1155000   1.7901496e-10  100367.12      100332.28      112353.91      2.6018774e-06  5.1708389e-07  2.0847935e-06  1.0680978e+08
   1156000   1.7916995e-10  100362.43      100328.09      112182.7       2.6018705e-06  5.171744e-07   2.0846961e-06  1.0680556e+08
   1157000   1.7932494e-10  100373.37      100339.66      111985.35      2.6018513e-06  5.1692784e-07  2.0849234e-06  1.0680821e+08
   1158000   1.7947993e-10  100359.6       100325.88      111970.95      2.6018906e-06  5.1725329e-07  2.0846373e-06  1.0680923e+08
   1159000   1.7963492e-10  100345.49      100312.38      111753.39      2.6018942e-06  5.1755001e-07  2.0843442e-06  1.0680624e+08
   1160000   1.7978991e-10  100359.77      100325.9       112021.2       2.6018854e-06  5.1724461e-07  2.0846408e-06  1.0680841e+08
   1161000   1.799449e-10   100374.52      100340.36      112135.47      2.6018814e-06  5.1693413e-07  2.0849473e-06  1.0681303e+08
   1162000   1.800999e-10   100376.67      100340.49      112813.03      2.6018715e-06  5.1687952e-07  2.084992e-06   1.0681281e+08
   1163000   1.8025489e-10  100348.22      100313.04      112448.31      2.601864e-06   5.1746308e-07  2.084401e-06   1.0680139e+08
   1164000   1.8040988e-10  100356.2       100321.99      112134.61      2.6018812e-06  5.1731439e-07  2.0845668e-06  1.0680844e+08
   1165000   1.8056487e-10  100362.85      100328.69      112123.26      2.6018766e-06  5.171717e-07   2.0847049e-06  1.068108e+08 
   1166000   1.8071986e-10  100378.11      100345.65      111570.07      2.6018819e-06  5.168601e-07   2.0850218e-06  1.0681393e+08
   1167000   1.8087485e-10  100374.17      100341.09      111772.13      2.6018838e-06  5.1694388e-07  2.0849399e-06  1.0681052e+08
   1168000   1.8102984e-10  100359.82      100324.49      112509.77      2.6018591e-06  5.1721726e-07  2.0846418e-06  1.0680356e+08
   1169000   1.8118483e-10  100366.08      100331.43      112290.58      2.6018552e-06  5.1708326e-07  2.0847719e-06  1.0680685e+08
   1170000   1.8133983e-10  100358.33      100324.18      112116.25      2.6018682e-06  5.1725733e-07  2.0846109e-06  1.0680365e+08
   1171000   1.8149482e-10  100363.23      100329.36      112027.95      2.6018763e-06  5.1716353e-07  2.0847128e-06  1.0680575e+08
   1172000   1.8164981e-10  100370.16      100337.22      111722.4       2.6018732e-06  5.1701643e-07  2.0848568e-06  1.0681085e+08
   1173000   1.818048e-10   100358.55      100325.85      111628.64      2.6018943e-06  5.1727882e-07  2.0846155e-06  1.0680879e+08
   1174000   1.8195979e-10  100371.65      100339.46      111473.56      2.601872e-06   5.1698431e-07  2.0848877e-06  1.0680872e+08
   1175000   1.8211478e-10  100374.98      100345.31      110633.46      2.6018463e-06  5.1688953e-07  2.0849568e-06  1.0680723e+08
   1176000   1.8226977e-10  100382.75      100353.98      110339.88      2.6018477e-06  5.1672947e-07  2.0851182e-06  1.0681041e+08
   1177000   1.8242477e-10  100372.21      100342.2       110743.26      2.6018656e-06  5.1696642e-07  2.0848992e-06  1.0680776e+08
   1178000   1.8257976e-10  100370.66      100340.19      110896.8       2.6018751e-06  5.1700814e-07  2.084867e-06   1.0681044e+08
   1179000   1.8273475e-10  100353.57      100321.56      111395.7       2.6018649e-06  5.1735275e-07  2.0845122e-06  1.0680485e+08
   1180000   1.8288974e-10  100353.9       100322.44      111208.25      2.6018726e-06  5.1735383e-07  2.0845188e-06  1.0680434e+08
   1181000   1.8304473e-10  100369.49      100338.03      111228.11      2.601865e-06   5.170223e-07   2.0848427e-06  1.0680855e+08
   1182000   1.8319972e-10  100368.77      100337.26      111242.07      2.6018771e-06  5.1704932e-07  2.0848278e-06  1.0680827e+08
   1183000   1.8335471e-10  100376.47      100343.56      111721.16      2.6018711e-06  5.1688328e-07  2.0849878e-06  1.0681153e+08
   1184000   1.835097e-10   100352.12      100319.72      111522.43      2.6018553e-06  5.1737345e-07  2.0844819e-06  1.0680018e+08
   1185000   1.836647e-10   100375.89      100342.61      111839.11      2.601854e-06   5.1687844e-07  2.0849756e-06  1.0680869e+08
   1186000   1.8381969e-10  100372.53      100337.91      112286.07      2.6018659e-06  5.1695996e-07  2.084906e-06   1.0681006e+08
   1187000   1.8397468e-10  100363.56      100325.35      113478.68      2.6018716e-06  5.1715202e-07  2.0847196e-06  1.0680687e+08
   1188000   1.8412967e-10  100375.94      100339.8       112798.51      2.6018843e-06  5.1690771e-07  2.0849766e-06  1.0681352e+08
   1189000   1.8428466e-10  100363.86      100329.32      112249.95      2.6018788e-06  5.1715302e-07  2.0847258e-06  1.068077e+08 
   1190000   1.8443965e-10  100361.13      100327.43      111967.87      2.6018681e-06  5.1719899e-07  2.0846692e-06  1.0680491e+08
   1191000   1.8459464e-10  100378.88      100344.52      112205.46      2.6018498e-06  5.1681206e-07  2.0850377e-06  1.0680919e+08
   1192000   1.8474963e-10  100368.82      100332.97      112693.24      2.601861e-06   5.1703223e-07  2.0848288e-06  1.0680685e+08
   1193000   1.8490463e-10  100366.43      100330.69      112654.1       2.6018839e-06  5.1710485e-07  2.0847791e-06  1.0680978e+08
   1194000   1.8505962e-10  100361.4       100327         112203.19      2.601895e-06   5.172203e-07   2.0846747e-06  1.0681233e+08
   1195000   1.8521461e-10  100354.76      100320.96      111994.59      2.6018969e-06  5.173602e-07   2.0845367e-06  1.0680986e+08
   1196000   1.853696e-10   100367.8       100334.25      111925.14      2.6018723e-06  5.1706469e-07  2.0848077e-06  1.0681138e+08
   1197000   1.8552459e-10  100366.25      100333.36      111703.01      2.6018613e-06  5.1708586e-07  2.0847755e-06  1.0680856e+08
   1198000   1.8567958e-10  100373.34      100341.77      111267.46      2.6018823e-06  5.1695953e-07  2.0849228e-06  1.0681199e+08
   1199000   1.8583457e-10  100369.29      100338.86      110881.49      2.6018779e-06  5.1703937e-07  2.0848386e-06  1.0681046e+08
   1200000   1.8598957e-10  100373.8       100344.06      110657.3       2.6018908e-06  5.1695846e-07  2.0849324e-06  1.0681257e+08
   1201000   1.8614456e-10  100373.74      100345.27      110233.38      2.6018706e-06  5.1693954e-07  2.0849311e-06  1.0681176e+08
   1202000   1.8629955e-10  100380.22      100353.92      109509.25      2.6018718e-06  5.1680622e-07  2.0850656e-06  1.0681234e+08
   1203000   1.8645454e-10  100364.77      100338.92      109344.26      2.6018573e-06  5.1711265e-07  2.0847446e-06  1.0680436e+08
   1204000   1.8660953e-10  100369.71      100341.9       110005.8       2.6018489e-06  5.1700163e-07  2.0848473e-06  1.0680438e+08
   1205000   1.8676452e-10  100366.41      100338.33      110092.72      2.601843e-06   5.1706432e-07  2.0847787e-06  1.0680458e+08
   1206000   1.8691951e-10  100378.04      100350.77      109834.98      2.601847e-06   5.1682671e-07  2.0850203e-06  1.0680797e+08
   1207000   1.870745e-10   100377.49      100350.69      109676.03      2.6018409e-06  5.1683192e-07  2.085009e-06   1.0680725e+08
   1208000   1.872295e-10   100367.45      100342.58      109020.56      2.6018559e-06  5.1705548e-07  2.0848005e-06  1.0680753e+08
   1209000   1.8738449e-10  100375.12      100350.45      108961.25      2.6018712e-06  5.1691156e-07  2.0849596e-06  1.0681171e+08
   1210000   1.8753948e-10  100378.07      100354.7       108531.5       2.6018698e-06  5.1684877e-07  2.0850211e-06  1.0681294e+08
   1211000   1.8769447e-10  100357.63      100333.43      108784.9       2.6018714e-06  5.1727506e-07  2.0845964e-06  1.0680598e+08
   1212000   1.8784946e-10  100346.61      100321.38      109119.82      2.6018672e-06  5.1749967e-07  2.0843675e-06  1.0680088e+08
   1213000   1.8800445e-10  100365.05      100339.55      109227.63      2.6018704e-06  5.1711996e-07  2.0847505e-06  1.0680746e+08
   1214000   1.8815944e-10  100373.96      100346.49      109895.31      2.6018675e-06  5.1693195e-07  2.0849356e-06  1.068117e+08 
   1215000   1.8831443e-10  100352.48      100324.67      109987.42      2.6018825e-06  5.1739306e-07  2.0844894e-06  1.0680557e+08
   1216000   1.8846943e-10  100358.03      100329.29      110307.98      2.601873e-06   5.1726825e-07  2.0846048e-06  1.0680734e+08
   1217000   1.8862442e-10  100362.61      100335.04      109918.64      2.6018735e-06  5.1717375e-07  2.0846998e-06  1.068086e+08 
   1218000   1.8877941e-10  100368.09      100340.59      109898.33      2.6018578e-06  5.1704419e-07  2.0848136e-06  1.0680851e+08
   1219000   1.889344e-10   100372.67      100346.94      109314.51      2.6018447e-06  5.1693587e-07  2.0849088e-06  1.0680809e+08
   1220000   1.8908939e-10  100380.18      100353.21      109737.53      2.6018564e-06  5.1679154e-07  2.0850649e-06  1.0680931e+08
   1221000   1.8924438e-10  100385.34      100357.54      110021.22      2.6018675e-06  5.1669546e-07  2.085172e-06   1.0681248e+08
   1222000   1.8939937e-10  100381.46      100353.72      109991.65      2.6018669e-06  5.1677565e-07  2.0850913e-06  1.0681215e+08
   1223000   1.8955437e-10  100381.33      100356.41      109053.95      2.6018801e-06  5.1679129e-07  2.0850888e-06  1.0681332e+08
   1224000   1.8970936e-10  100376.44      100351.64      109005.3       2.6018649e-06  5.1687784e-07  2.0849871e-06  1.0681263e+08
   1225000   1.8986435e-10  100351.54      100325.5       109396.29      2.6018639e-06  5.1739396e-07  2.08447e-06    1.0680482e+08
   1226000   1.9001934e-10  100364.05      100337.3       109645.91      2.6018816e-06  5.1715183e-07  2.0847298e-06  1.0680907e+08
   1227000   1.9017433e-10  100360.41      100336.55      108676.38      2.6018733e-06  5.1721912e-07  2.0846542e-06  1.0680731e+08
   1228000   1.9032932e-10  100359.13      100337.07      108072.65      2.6018631e-06  5.1723551e-07  2.0846276e-06  1.0680583e+08
   1229000   1.9048431e-10  100364.62      100343.4       107797.13      2.6018823e-06  5.1714071e-07  2.0847416e-06  1.0681039e+08
   1230000   1.906393e-10   100352.57      100332.2       107501.01      2.6018799e-06  5.1738852e-07  2.0844914e-06  1.068072e+08 
   1231000   1.907943e-10   100351.01      100331.41      107244.73      2.6018687e-06  5.1740977e-07  2.084459e-06   1.0680369e+08
   1232000   1.9094929e-10  100369.06      100349.39      107283.04      2.6018772e-06  5.1704335e-07  2.0848339e-06  1.0680995e+08
   1233000   1.9110428e-10  100374.77      100356.3       106888.16      2.6018863e-06  5.1693386e-07  2.0849524e-06  1.0681289e+08
   1234000   1.9125927e-10  100367.32      100347.63      107288.49      2.6018964e-06  5.1709874e-07  2.0847977e-06  1.0681044e+08
   1235000   1.9141426e-10  100346.47      100328.06      106838.48      2.6018776e-06  5.1751297e-07  2.0843646e-06  1.0680422e+08
   1236000   1.9156925e-10  100364.55      100347.03      106560.18      2.6018791e-06  5.1713892e-07  2.0847401e-06  1.0680959e+08
   1237000   1.9172424e-10  100376.13      100356.02      107436.9       2.6018696e-06  5.16889e-07    2.0849806e-06  1.0681244e+08
   1238000   1.9187923e-10  100365.04      100344.15      107687.37      2.6018701e-06  5.1711977e-07  2.0847503e-06  1.0680916e+08
   1239000   1.9203423e-10  100356.4       100336.57      107325.49      2.6018798e-06  5.1730891e-07  2.0845709e-06  1.0680709e+08
   1240000   1.9218922e-10  100355.85      100336.15      107282.06      2.6018632e-06  5.1730374e-07  2.0845595e-06  1.068043e+08 
   1241000   1.9234421e-10  100373.8       100352.95      107681.09      2.601876e-06   5.1694379e-07  2.0849322e-06  1.0681144e+08
   1242000   1.924992e-10   100345.51      100325.49      107375.92      2.6018856e-06  5.1754096e-07  2.0843447e-06  1.0680442e+08
   1243000   1.9265419e-10  100356.2       100334.18      108055.46      2.6018765e-06  5.1730986e-07  2.0845667e-06  1.0680731e+08
   1244000   1.9280918e-10  100378.46      100356.05      108208.65      2.6018725e-06  5.1684347e-07  2.085029e-06   1.0681283e+08
   1245000   1.9296417e-10  100380.56      100359.28      107833.41      2.6018641e-06  5.1679147e-07  2.0850727e-06  1.0681128e+08
   1246000   1.9311917e-10  100377.54      100354.99      108253.28      2.6018564e-06  5.1684643e-07  2.0850099e-06  1.0680922e+08
   1247000   1.9327416e-10  100388.42      100366.03      108212.81      2.6018545e-06  5.1661853e-07  2.0852359e-06  1.0681251e+08
   1248000   1.9342915e-10  100375.97      100357.12      107017.42      2.6018691e-06  5.1689167e-07  2.0849774e-06  1.0680886e+08
   1249000   1.9358414e-10  100376.58      100358.42      106783.81      2.6018721e-06  5.1688213e-07  2.08499e-06    1.068106e+08 
   1250000   1.9373913e-10  100364.37      100347.5       106343.08      2.6018665e-06  5.1713019e-07  2.0847364e-06  1.0680616e+08
   1251000   1.9389412e-10  100374.05      100357.51      106241.18      2.6018665e-06  5.1692904e-07  2.0849374e-06  1.0680918e+08
   1252000   1.9404911e-10  100369.99      100352.19      106656.59      2.6018813e-06  5.1702828e-07  2.0848531e-06  1.0681095e+08
   1253000   1.942041e-10   100364.08      100345.44      106933.99      2.6018908e-06  5.1716037e-07  2.0847305e-06  1.068094e+08 
   1254000   1.943591e-10   100353.29      100333.71      107239.18      2.6018616e-06  5.1735535e-07  2.0845063e-06  1.0680205e+08
   1255000   1.9451409e-10  100374.19      100353.13      107753.29      2.6018717e-06  5.1693132e-07  2.0849404e-06  1.0680945e+08
   1256000   1.9466908e-10  100379.72      100358.52      107805.96      2.6018614e-06  5.1680613e-07  2.0850553e-06  1.0680991e+08
   1257000   1.9482407e-10  100373.99      100354.32      107288.75      2.6018741e-06  5.1693785e-07  2.0849362e-06  1.0681044e+08
   1258000   1.9497906e-10  100360.85      100338.64      108122.71      2.6018697e-06  5.1720654e-07  2.0846632e-06  1.0680817e+08
   1259000   1.9513405e-10  100355.79      100332.54      108467.84      2.6018891e-06  5.1733091e-07  2.0845582e-06  1.068079e+08 
   1260000   1.9528904e-10  100371.36      100348.76      108266.57      2.601885e-06   5.1700333e-07  2.0848816e-06  1.068129e+08 
   1261000   1.9544403e-10  100378.51      100354.76      108656.7       2.6018787e-06  5.1684858e-07  2.0850301e-06  1.0681486e+08
   1262000   1.9559903e-10  100384.44      100360.37      108770.52      2.601883e-06   5.1672965e-07  2.0851534e-06  1.0681595e+08
   1263000   1.9575402e-10  100365.79      100339.42      109520.93      2.6018789e-06  5.1711304e-07  2.0847659e-06  1.0681006e+08
   1264000   1.9590901e-10  100361.42      100337.08      108836.16      2.6018763e-06  5.172013e-07   2.084675e-06   1.0680909e+08
   1265000   1.96064e-10    100361.2       100338.59      108258.59      2.6018968e-06  5.1722626e-07  2.0846705e-06  1.068099e+08 
   1266000   1.9621899e-10  100362.96      100342.24      107630.99      2.6018966e-06  5.1718946e-07  2.0847072e-06  1.0681046e+08
   1267000   1.9637398e-10  100356.51      100335.29      107786.98      2.6018793e-06  5.1730629e-07  2.084573e-06   1.0680643e+08
   1268000   1.9652897e-10  100374.64      100352.23      108205.47      2.6018898e-06  5.1694006e-07  2.0849497e-06  1.0681302e+08
   1269000   1.9668397e-10  100372.14      100350.76      107858.21      2.601872e-06   5.1697429e-07  2.0848977e-06  1.0681185e+08
   1270000   1.9683896e-10  100363.28      100344.81      106875.94      2.6018644e-06  5.1715052e-07  2.0847138e-06  1.0680774e+08
   1271000   1.9699395e-10  100363.75      100344.44      107156.51      2.6018793e-06  5.1715586e-07  2.0847234e-06  1.0681006e+08
   1272000   1.9714894e-10  100357.51      100338.76      106963.67      2.601875e-06   5.1728114e-07  2.0845939e-06  1.0680732e+08
   1273000   1.9730393e-10  100370.54      100350.48      107416.04      2.6018786e-06  5.1701404e-07  2.0848646e-06  1.0680881e+08
   1274000   1.9745892e-10  100370.68      100350.29      107525.91      2.6018799e-06  5.1701242e-07  2.0848675e-06  1.0680924e+08
   1275000   1.9761391e-10  100379.69      100358.55      107782.56      2.6018871e-06  5.168326e-07   2.0850545e-06  1.0681493e+08
   1276000   1.977689e-10   100386.84      100366.13      107647.9       2.601899e-06   5.1669587e-07  2.0852031e-06  1.0681881e+08
   1277000   1.979239e-10   100378.39      100358.65      107317.77      2.6018833e-06  5.168556e-07   2.0850277e-06  1.0681463e+08
   1278000   1.9807889e-10  100363.3       100342.38      107696.69      2.6018953e-06  5.171811e-07   2.0847142e-06  1.0681112e+08
   1279000   1.9823388e-10  100377.95      100355.72      108150.33      2.6018904e-06  5.1687189e-07  2.0850185e-06  1.0681623e+08
   1280000   1.9838887e-10  100355.6       100333.06      108229.76      2.6018839e-06  5.1732966e-07  2.0845543e-06  1.0680654e+08
   1281000   1.9854386e-10  100345.33      100323.35      108032.9       2.6018831e-06  5.1754217e-07  2.084341e-06   1.0680431e+08
   1282000   1.9869885e-10  100357.02      100338.81      106780.57      2.6018758e-06  5.1729221e-07  2.0845836e-06  1.0680647e+08
   1283000   1.9885384e-10  100369.56      100351.67      106687.81      2.6018699e-06  5.1702571e-07  2.0848442e-06  1.0680771e+08
   1284000   1.9900883e-10  100362.3       100344.53      106641.91      2.6018668e-06  5.171734e-07   2.0846934e-06  1.0680618e+08
   1285000   1.9916383e-10  100358.85      100339.25      107249.08      2.6018711e-06  5.1724936e-07  2.0846217e-06  1.0680527e+08
   1286000   1.9931882e-10  100367.57      100347.06      107560.79      2.6018646e-06  5.1706176e-07  2.0848028e-06  1.0680824e+08
   1287000   1.9947381e-10  100385.13      100364.95      107468.3       2.6018833e-06  5.167157e-07   2.0851676e-06  1.0681603e+08
   1288000   1.996288e-10   100383.51      100364.43      107101.47      2.6018652e-06  5.1673116e-07  2.085134e-06   1.0681289e+08
   1289000   1.9978379e-10  100375.53      100354.87      107619.68      2.6018544e-06  5.1688618e-07  2.0849682e-06  1.0680828e+08
   1290000   1.9993878e-10  100378.57      100361.08      106566.55      2.6018666e-06  5.1683516e-07  2.0850314e-06  1.0681019e+08
   1291000   2.0009377e-10  100365.71      100349.76      106037.35      2.6018839e-06  5.1711964e-07  2.0847643e-06  1.0680987e+08
   1292000   2.0024877e-10  100376.58      100359.91      106287.8       2.6018877e-06  5.1689767e-07  2.0849901e-06  1.0681556e+08
   1293000   2.0040376e-10  100365.19      100348.18      106387.38      2.6018774e-06  5.171241e-07   2.0847533e-06  1.0680877e+08
   1294000   2.0055875e-10  100377.33      100360.14      106462.8       2.6018801e-06  5.1687455e-07  2.0850056e-06  1.0681077e+08
   1295000   2.0071374e-10  100372.08      100355.51      106250.66      2.6018577e-06  5.1696112e-07  2.0848966e-06  1.0680861e+08
   1296000   2.0086873e-10  100360.87      100343.29      106574.05      2.6018778e-06  5.1721416e-07  2.0846636e-06  1.0680573e+08
   1297000   2.0102372e-10  100371.87      100353.79      106753.78      2.6018753e-06  5.1698306e-07  2.0848922e-06  1.0681241e+08
   1298000   2.0117871e-10  100372.61      100355.61      106393.18      2.6018813e-06  5.1697384e-07  2.0849074e-06  1.0681234e+08
   1299000   2.013337e-10   100386.45      100370.02      106216.35      2.6018698e-06  5.1667485e-07  2.085195e-06   1.0681347e+08
   1300000   2.014887e-10   100383.67      100369.95      105308.91      2.6018722e-06  5.1673495e-07  2.0851373e-06  1.0681205e+08
   1301000   2.0164369e-10  100366.96      100353.22      105299.17      2.601865e-06   5.1707483e-07  2.0847902e-06  1.0680767e+08
   1302000   2.0179868e-10  100375.66      100361.73      105369.53      2.6018723e-06  5.1690136e-07  2.0849709e-06  1.0681104e+08
   1303000   2.0195367e-10  100367.33      100354.99      104830.28      2.6018587e-06  5.1706076e-07  2.0847979e-06  1.0680647e+08
   1304000   2.0210866e-10  100373.7       100360.8       105024.44      2.6018501e-06  5.1691987e-07  2.0849303e-06  1.0680862e+08
   1305000   2.0226365e-10  100365.56      100354.87      104277.01      2.6018552e-06  5.1709398e-07  2.0847612e-06  1.0680619e+08
   1306000   2.0241864e-10  100356.79      100347.6       103765.86      2.601868e-06   5.1728914e-07  2.0845788e-06  1.0680544e+08
   1307000   2.0257363e-10  100362.19      100354.01      103431.77      2.6018732e-06  5.1718214e-07  2.0846911e-06  1.06808e+08  
   1308000   2.0272863e-10  100365.7       100356.43      103799.57      2.601873e-06   5.1710908e-07  2.084764e-06   1.0680978e+08
   1309000   2.0288362e-10  100365.76      100353.87      104681.11      2.6018858e-06  5.1712039e-07  2.0847654e-06  1.0680952e+08
   1310000   2.0303861e-10  100378.1       100365.81      104825.34      2.6018984e-06  5.1687673e-07  2.0850217e-06  1.068152e+08 
   1311000   2.031936e-10   100360.8       100350.47      104151.09      2.6019082e-06  5.1724595e-07  2.0846622e-06  1.068121e+08 
   1312000   2.0334859e-10  100357.37      100347.74      103911.85      2.6019007e-06  5.1730972e-07  2.084591e-06   1.0680962e+08
   1313000   2.0350358e-10  100354.97      100344.67      104134.61      2.6018924e-06  5.1735135e-07  2.0845411e-06  1.0680839e+08
   1314000   2.0365857e-10  100362.54      100351.45      104406.94      2.6018655e-06  5.1716716e-07  2.0846984e-06  1.0680822e+08
   1315000   2.0381357e-10  100375.76      100363.05      104961.67      2.6018724e-06  5.1689946e-07  2.0849729e-06  1.0681175e+08
   1316000   2.0396856e-10  100391.19      100378.76      104885.11      2.6018701e-06  5.165765e-07   2.0852936e-06  1.0681622e+08
   1317000   2.0412355e-10  100353.55      100341.03      104876.26      2.601856e-06   5.1734433e-07  2.0845117e-06  1.0680379e+08
   1318000   2.0427854e-10  100374.14      100361.59      104904.87      2.6018589e-06  5.1691971e-07  2.0849392e-06  1.0681093e+08
   1319000   2.0443353e-10  100373.22      100360.93      104820.95      2.6018434e-06  5.1692314e-07  2.0849203e-06  1.0680659e+08
   1320000   2.0458852e-10  100382.28      100371.23      104414.22      2.6018617e-06  5.1675325e-07  2.0851084e-06  1.0681113e+08
   1321000   2.0474351e-10  100369.44      100356.18      105139.99      2.6018618e-06  5.1702007e-07  2.0848417e-06  1.0680803e+08
   1322000   2.048985e-10   100375.68      100361.77      105364.73      2.6018726e-06  5.169013e-07   2.0849713e-06  1.0681369e+08
   1323000   2.050535e-10   100352.67      100339.28      105167.34      2.6018841e-06  5.1739079e-07  2.0844933e-06  1.0680751e+08
   1324000   2.0520849e-10  100363.6       100348.85      105634.58      2.6018732e-06  5.1715271e-07  2.0847205e-06  1.068081e+08 
   1325000   2.0536348e-10  100377.27      100362.34      105705.29      2.6018849e-06  5.1688056e-07  2.0850044e-06  1.0681209e+08
   1326000   2.0551847e-10  100373.34      100359.47      105349.31      2.6018691e-06  5.1694631e-07  2.0849228e-06  1.0681003e+08
   1327000   2.0567346e-10  100360.17      100346.37      105312.92      2.6018852e-06  5.1723604e-07  2.0846492e-06  1.0680855e+08
   1328000   2.0582845e-10  100344.7       100332.13      104884.4       2.6018674e-06  5.1753972e-07  2.0843277e-06  1.0680412e+08
   1329000   2.0598344e-10  100359.47      100348.13      104490.27      2.6018798e-06  5.1724513e-07  2.0846347e-06  1.0680889e+08
   1330000   2.0613843e-10  100360.1       100349.02      104400.81      2.601872e-06   5.1722435e-07  2.0846476e-06  1.068077e+08 
   1331000   2.0629343e-10  100367.25      100355.02      104792.01      2.6018658e-06  5.1706964e-07  2.0847962e-06  1.0680789e+08
   1332000   2.0644842e-10  100380.7       100368.37      104841.58      2.6018677e-06  5.1679209e-07  2.0850756e-06  1.0681227e+08
   1333000   2.0660341e-10  100370.17      100356.83      105170.03      2.60186e-06    5.1700301e-07  2.084857e-06   1.0680925e+08
   1334000   2.067584e-10   100384.88      100372         105028.68      2.6018723e-06  5.1670983e-07  2.0851625e-06  1.0681481e+08
   1335000   2.0691339e-10  100386.43      100374.48      104715.64      2.6018714e-06  5.1667685e-07  2.0851945e-06  1.0681461e+08
   1336000   2.0706838e-10  100374.41      100362.62      104653.46      2.6018755e-06  5.1693062e-07  2.0849449e-06  1.0681039e+08
   1337000   2.0722337e-10  100361.35      100350.4       104359.6       2.6018917e-06  5.1721808e-07  2.0846736e-06  1.0680851e+08
   1338000   2.0737837e-10  100358.3       100350.59      103271.12      2.6018929e-06  5.1728263e-07  2.0846103e-06  1.0680803e+08
   1339000   2.0753336e-10  100359.62      100353.5       102741.76      2.601901e-06   5.1726331e-07  2.0846377e-06  1.0681056e+08
   1340000   2.0768835e-10  100354.67      100350.24      102173.74      2.6018616e-06  5.1732661e-07  2.084535e-06   1.0680649e+08
   1341000   2.0784334e-10  100355.92      100351.88      102042.2       2.6018726e-06  5.1731165e-07  2.0845609e-06  1.0680593e+08
   1342000   2.0799833e-10  100369.99      100364.83      102430.25      2.601858e-06   5.170049e-07   2.0848531e-06  1.0680836e+08
   1343000   2.0815332e-10  100376.87      100374.02      101667.11      2.6018657e-06  5.1686957e-07  2.0849961e-06  1.0681146e+08
   1344000   2.0830831e-10  100378.58      100374.84      101964.38      2.6018897e-06  5.1685826e-07  2.0850315e-06  1.0681455e+08
   1345000   2.084633e-10   100363.65      100360.47      101762.33      2.6018802e-06  5.1715876e-07  2.0847215e-06  1.0680811e+08
   1346000   2.086183e-10   100363.52      100359.86      101921.57      2.601875e-06   5.1715631e-07  2.0847187e-06  1.0680922e+08
   1347000   2.0877329e-10  100355.62      100351.91      101929.53      2.6018749e-06  5.1732037e-07  2.0845546e-06  1.0680864e+08
   1348000   2.0892828e-10  100358.66      100353.89      102289.43      2.6018711e-06  5.1725329e-07  2.0846178e-06  1.0680895e+08
   1349000   2.0908327e-10  100360.2       100353.52      102929.4       2.6018676e-06  5.1721792e-07  2.0846497e-06  1.068078e+08 
   1350000   2.0923826e-10  100377.92      100370.25      103275.96      2.6018528e-06  5.1683501e-07  2.0850178e-06  1.0680919e+08
   1351000   2.0939325e-10  100391.56      100384.6       103055.02      2.6018502e-06  5.1654903e-07  2.0853011e-06  1.0681218e+08
   1352000   2.0954824e-10  100372.96      100368.07      102345.82      2.6018546e-06  5.1693976e-07  2.0849148e-06  1.0680633e+08
   1353000   2.0970323e-10  100361.89      100357.85      102048.98      2.6018666e-06  5.1718166e-07  2.084685e-06   1.06806e+08  
   1354000   2.0985823e-10  100357.84      100352.63      102435.68      2.6018669e-06  5.1726606e-07  2.0846008e-06  1.0680541e+08
   1355000   2.1001322e-10  100361.64      100356.33      102472.24      2.6018733e-06  5.1719363e-07  2.0846796e-06  1.0680653e+08
   1356000   2.1016821e-10  100371.24      100366.7       102225.03      2.6018594e-06  5.1698026e-07  2.0848792e-06  1.0680897e+08
   1357000   2.103232e-10   100359.27      100356.13      101742.76      2.6018748e-06  5.1724436e-07  2.0846304e-06  1.0680394e+08
   1358000   2.1047819e-10  100362.48      100362.39      100725.84      2.6018675e-06  5.171705e-07   2.084697e-06   1.0680577e+08
   1359000   2.1063318e-10  100356.77      100357.93      100306.01      2.6018592e-06  5.1728069e-07  2.0845785e-06  1.0680616e+08
   1360000   2.1078817e-10  100365.14      100366.73      100169.57      2.6018732e-06  5.1712078e-07  2.0847524e-06  1.0680956e+08
   1361000   2.1094317e-10  100356.76      100358.47      100120.07      2.6018775e-06  5.1729917e-07  2.0845783e-06  1.0680609e+08
   1362000   2.1109816e-10  100354.74      100357.11      99897.626      2.6018939e-06  5.1735747e-07  2.0845364e-06  1.0680613e+08
   1363000   2.1125315e-10  100369.51      100372.31      99767.443      2.6018778e-06  5.1703473e-07  2.0848431e-06  1.0681235e+08
   1364000   2.1140814e-10  100351.07      100353.04      100027.06      2.601908e-06   5.1744786e-07  2.0844601e-06  1.068091e+08 
   1365000   2.1156313e-10  100334.36      100334.3       100691.05      2.6019008e-06  5.1778771e-07  2.084113e-06   1.0680358e+08
   1366000   2.1171812e-10  100348.61      100346.77      101297.97      2.6018923e-06  5.1748332e-07  2.0844089e-06  1.0680855e+08
   1367000   2.1187311e-10  100369.65      100367.62      101386.53      2.6018811e-06  5.1703496e-07  2.0848461e-06  1.0681301e+08
   1368000   2.120281e-10   100367.64      100364.5       101753.24      2.6018875e-06  5.1708322e-07  2.0848043e-06  1.0681104e+08
   1369000   2.121831e-10   100352.09      100349.78      101459.16      2.6018569e-06  5.1737557e-07  2.0844813e-06  1.0680264e+08
   1370000   2.1233809e-10  100374.62      100373.79      100989.06      2.6018567e-06  5.169074e-07   2.0849493e-06  1.0680914e+08
   1371000   2.1249308e-10  100360.24      100359.95      100791.77      2.6018758e-06  5.1722517e-07  2.0846506e-06  1.0680606e+08
   1372000   2.1264807e-10  100362.97      100361.96      101038         2.601877e-06   5.1716961e-07  2.0847073e-06  1.0680896e+08
   1373000   2.1280306e-10  100353.16      100354.81      100138.93      2.6018688e-06  5.1736518e-07  2.0845036e-06  1.0680573e+08
   1374000   2.1295805e-10  100354.09      100354.99      100389.08      2.6018895e-06  5.1736665e-07  2.0845229e-06  1.0680807e+08
   1375000   2.1311304e-10  100357.88      100359.26      100230.03      2.6018864e-06  5.1728485e-07  2.0846016e-06  1.0680806e+08
   1376000   2.1326803e-10  100371.27      100373.63      99916.711      2.6018965e-06  5.1701685e-07  2.0848796e-06  1.0681279e+08
   1377000   2.1342303e-10  100362.7       100363.43      100456.01      2.6018842e-06  5.1718236e-07  2.0847018e-06  1.0680871e+08
   1378000   2.1357802e-10  100377.48      100377.67      100649.18      2.6019039e-06  5.1689528e-07  2.0850087e-06  1.0681655e+08
   1379000   2.1373301e-10  100350.31      100351.22      100378.49      2.6018784e-06  5.174341e-07   2.0844442e-06  1.0680458e+08
   1380000   2.13888e-10    100366.27      100366.95      100476.89      2.6018877e-06  5.1711177e-07  2.0847759e-06  1.0681048e+08
   1381000   2.1404299e-10  100354.49      100353.72      100948.28      2.6018814e-06  5.1735014e-07  2.0845312e-06  1.068066e+08 
   1382000   2.1419798e-10  100367.03      100365.64      101168.84      2.6018968e-06  5.1710508e-07  2.0847917e-06  1.0681143e+08
   1383000   2.1435297e-10  100365.84      100365.71      100745.08      2.6018924e-06  5.1712553e-07  2.0847669e-06  1.0681106e+08
   1384000   2.1450797e-10  100369.27      100369.35      100678.63      2.6018705e-06  5.1703229e-07  2.0848382e-06  1.0681014e+08
   1385000   2.1466296e-10  100360.49      100360.39      100727.97      2.6018648e-06  5.1720901e-07  2.0846558e-06  1.0680546e+08
   1386000   2.1481795e-10  100363.45      100362.48      101024.46      2.6018661e-06  5.1714875e-07  2.0847173e-06  1.0680709e+08
   1387000   2.1497294e-10  100350.76      100349.36      101153.14      2.6018631e-06  5.1740942e-07  2.0844537e-06  1.0680281e+08
   1388000   2.1512793e-10  100359.56      100357.62      101346.52      2.6018813e-06  5.1724471e-07  2.0846366e-06  1.0680793e+08
   1389000   2.1528292e-10  100351.05      100351.33      100592.89      2.6018978e-06  5.1743804e-07  2.0844598e-06  1.0680865e+08
   1390000   2.1543791e-10  100343.47      100343.81      100566.71      2.6019207e-06  5.176183e-07   2.0843024e-06  1.0680936e+08
   1391000   2.155929e-10   100349.3       100349.73      100540.94      2.6019356e-06  5.175122e-07   2.0844234e-06  1.0681181e+08
   1392000   2.157479e-10   100366.52      100368.35      100089.54      2.6019071e-06  5.1712603e-07  2.0847811e-06  1.0681493e+08
   1393000   2.1590289e-10  100375.65      100379.12      99554.021      2.6018667e-06  5.1689589e-07  2.0849708e-06  1.068119e+08 
   1394000   2.1605788e-10  100363.86      100370.15      98595.85       2.6018744e-06  5.1714871e-07  2.0847257e-06  1.0680607e+08
   1395000   2.1621287e-10  100360.48      100367.24      98436.486      2.6018628e-06  5.1720723e-07  2.0846556e-06  1.0680348e+08
   1396000   2.1636786e-10  100356.94      100363.22      98592.984      2.6018613e-06  5.172792e-07   2.0845821e-06  1.0680362e+08
   1397000   2.1652285e-10  100373.96      100379.11      98988.545      2.6018671e-06  5.169314e-07   2.0849357e-06  1.0681026e+08
   1398000   2.1667784e-10  100367.56      100372.62      99011.603      2.6018659e-06  5.1706331e-07  2.0848026e-06  1.0680811e+08
   1399000   2.1683283e-10  100373.46      100377.02      99519.479      2.6018841e-06  5.1695882e-07  2.0849253e-06  1.0681335e+08
   1400000   2.1698783e-10  100345.13      100347.92      99747.565      2.6018859e-06  5.175491e-07   2.0843368e-06  1.068051e+08 
   1401000   2.1714282e-10  100345.46      100349.1       99463.077      2.6018821e-06  5.1753856e-07  2.0843436e-06  1.0680541e+08
   1402000   2.1729781e-10  100351.23      100354.8       99492.573      2.6018861e-06  5.1742269e-07  2.0844634e-06  1.0680788e+08
   1403000   2.174528e-10   100375.08      100378.3       99636.76       2.6019049e-06  5.1694591e-07  2.084959e-06   1.0681551e+08
   1404000   2.1760779e-10  100382.56      100385.99      99570.441      2.6018687e-06  5.1675457e-07  2.0851141e-06  1.0681391e+08
   1405000   2.1776278e-10  100378.93      100381.85      99735.791      2.6018701e-06  5.1683133e-07  2.0850388e-06  1.0681214e+08
   1406000   2.1791777e-10  100373.77      100376.42      99824.673      2.6018739e-06  5.1694219e-07  2.0849317e-06  1.0681e+08   
   1407000   2.1807277e-10  100374.02      100376.58      99853.356      2.6018707e-06  5.1693388e-07  2.0849369e-06  1.068098e+08 
   1408000   2.1822776e-10  100358.03      100358.67      100480.88      2.6018814e-06  5.1727657e-07  2.0846048e-06  1.0680751e+08
   1409000   2.1838275e-10  100356.47      100357.92      100205.4       2.6018768e-06  5.1730448e-07  2.0845723e-06  1.0680619e+08
   1410000   2.1853774e-10  100371.1       100370.95      100755.72      2.6018577e-06  5.1698145e-07  2.0848762e-06  1.0680968e+08
   1411000   2.1869273e-10  100369.87      100370.13      100618.9       2.601869e-06   5.1701836e-07  2.0848506e-06  1.0680825e+08
   1412000   2.1884772e-10  100370.56      100373.9       99587.992      2.6018728e-06  5.1700796e-07  2.0848649e-06  1.0680881e+08
   1413000   2.1900271e-10  100375.4       100378.63      99630.836      2.6018606e-06  5.1689519e-07  2.0849654e-06  1.0681084e+08
   1414000   2.191577e-10   100371.78      100372.73      100389.55      2.6018721e-06  5.1698173e-07  2.0848904e-06  1.0681044e+08
   1415000   2.193127e-10   100370.46      100372.05      100173.84      2.6018693e-06  5.1700633e-07  2.084863e-06   1.0680763e+08
   1416000   2.1946769e-10  100371.93      100374.28      99922.341      2.6018615e-06  5.1696813e-07  2.0848934e-06  1.0680786e+08
   1417000   2.1962268e-10  100355.22      100359.13      99383.477      2.6018593e-06  5.1731304e-07  2.0845463e-06  1.0680054e+08
   1418000   2.1977767e-10  100383.12      100387.47      99261.711      2.6018746e-06  5.1674879e-07  2.0851258e-06  1.0681261e+08
   1419000   2.1993266e-10  100369.59      100374.7       98997.328      2.6018761e-06  5.1703124e-07  2.0848448e-06  1.0680831e+08
   1420000   2.2008765e-10  100388.81      100392.32      99551.383      2.60188e-06    5.1663588e-07  2.0852441e-06  1.0681615e+08
   1421000   2.2024264e-10  100365.35      100369.19      99416.332      2.6018813e-06  5.1712446e-07  2.0847568e-06  1.0681029e+08
   1422000   2.2039763e-10  100361.05      100364.81      99440.226      2.6018864e-06  5.1721887e-07  2.0846675e-06  1.0680964e+08
   1423000   2.2055263e-10  100363.02      100368.18      98972.636      2.6018768e-06  5.1716844e-07  2.0847084e-06  1.0680715e+08
   1424000   2.2070762e-10  100370.44      100375.03      99170.852      2.6018673e-06  5.1700479e-07  2.0848625e-06  1.0680786e+08
   1425000   2.2086261e-10  100354.84      100359.26      99212.899      2.6018716e-06  5.1733318e-07  2.0845384e-06  1.0680482e+08
   1426000   2.210176e-10   100359.63      100363.27      99477.204      2.6018618e-06  5.1722384e-07  2.0846379e-06  1.0680469e+08
   1427000   2.2117259e-10  100372.57      100375.08      99870.667      2.6018797e-06  5.1697292e-07  2.0849068e-06  1.0681109e+08
   1428000   2.2132758e-10  100375.01      100377.8       99779.123      2.6018715e-06  5.1691406e-07  2.0849575e-06  1.0681212e+08
   1429000   2.2148257e-10  100368.69      100371.65      99714.059      2.6018637e-06  5.1703762e-07  2.0848261e-06  1.0680889e+08
   1430000   2.2163757e-10  100368.72      100372.56      99421.955      2.6018758e-06  5.1704897e-07  2.0848268e-06  1.0681004e+08
   1431000   2.2179256e-10  100380.61      100383.32      99811.4        2.6018723e-06  5.1679848e-07  2.0850738e-06  1.06813e+08  
   1432000   2.2194755e-10  100373.88      100376.01      99999.598      2.6018886e-06  5.1695462e-07  2.084934e-06   1.0681173e+08
   1433000   2.2210254e-10  100385.92      100389.62      99481.64       2.6018789e-06  5.16695e-07    2.0851839e-06  1.0681771e+08
   1434000   2.2225753e-10  100358.63      100362.52      99395.46       2.6018789e-06  5.1726164e-07  2.0846172e-06  1.0680804e+08
   1435000   2.2241252e-10  100372.68      100377.39      99132.85       2.6018832e-06  5.1697419e-07  2.084909e-06   1.0681258e+08
   1436000   2.2256751e-10  100348.97      100352.83      99394.073      2.6018875e-06  5.1747102e-07  2.0844165e-06  1.0680477e+08
   1437000   2.227225e-10   100354.1       100357.78      99457.497      2.601895e-06   5.1737193e-07  2.084523e-06   1.068071e+08 
   1438000   2.228775e-10   100357.79      100360.82      99680.097      2.6018834e-06  5.1728356e-07  2.0845998e-06  1.068066e+08 
   1439000   2.2303249e-10  100364.33      100365.94      100163.63      2.6018475e-06  5.1711191e-07  2.0847356e-06  1.0680675e+08
   1440000   2.2318748e-10  100385.22      100387.28      100030.56      2.6018479e-06  5.1667845e-07  2.0851695e-06  1.0681117e+08
   1441000   2.2334247e-10  100373.01      100374.96      100054.19      2.6018683e-06  5.1695253e-07  2.0849158e-06  1.0680813e+08
   1442000   2.2349746e-10  100350.23      100350.23      100685.02      2.6018648e-06  5.1742211e-07  2.0844427e-06  1.0680195e+08
   1443000   2.2365245e-10  100369.56      100370.53      100382.82      2.6018851e-06  5.1704088e-07  2.0848442e-06  1.0681256e+08
   1444000   2.2380744e-10  100362.24      100362.58      100582.96      2.6018926e-06  5.1720057e-07  2.0846921e-06  1.068112e+08 
   1445000   2.2396243e-10  100347.79      100346.65      101067         2.6018969e-06  5.1750484e-07  2.084392e-06   1.0680675e+08
   1446000   2.2411743e-10  100342.89      100340.91      101343.05      2.6018813e-06  5.1759099e-07  2.0842903e-06  1.0680402e+08
   1447000   2.2427242e-10  100358.82      100355.38      101843.89      2.601874e-06   5.1725292e-07  2.0846211e-06  1.0680861e+08
   1448000   2.2442741e-10  100363.38      100358.31      102392.77      2.6018757e-06  5.1715991e-07  2.0847158e-06  1.0680766e+08
   1449000   2.245824e-10   100371.82      100365.93      102677.35      2.6018664e-06  5.1697518e-07  2.0848912e-06  1.0681e+08   
   1450000   2.2473739e-10  100350.65      100345.53      102400.71      2.6018692e-06  5.1741776e-07  2.0844514e-06  1.0680448e+08
   1451000   2.2489238e-10  100358.11      100352.49      102574.31      2.6018854e-06  5.1727891e-07  2.0846065e-06  1.0680922e+08
   1452000   2.2504737e-10  100368.98      100362.05      103022.42      2.6018922e-06  5.1706005e-07  2.0848321e-06  1.0681159e+08
   1453000   2.2520237e-10  100365.23      100357.91      103147.23      2.6018816e-06  5.1712742e-07  2.0847542e-06  1.068084e+08 
   1454000   2.2535736e-10  100361.66      100354.91      102957.8       2.6019019e-06  5.172217e-07   2.0846802e-06  1.0680992e+08
   1455000   2.2551235e-10  100356.64      100349.84      102965.29      2.6019044e-06  5.173286e-07   2.0845758e-06  1.0681123e+08
   1456000   2.2566734e-10  100364.48      100356.28      103442.66      2.6018986e-06  5.1715981e-07  2.0847388e-06  1.0681211e+08
   1457000   2.2582233e-10  100381.44      100370.85      104258.31      2.6018852e-06  5.1679423e-07  2.085091e-06   1.0681545e+08
   1458000   2.2597732e-10  100363.33      100351.27      104733.64      2.6018762e-06  5.1716143e-07  2.0847148e-06  1.0680769e+08
   1459000   2.2613231e-10  100363.95      100352.13      104652.71      2.6018762e-06  5.1714851e-07  2.0847277e-06  1.0680649e+08
   1460000   2.262873e-10   100375.1       100362.66      104871.54      2.601879e-06   5.169197e-07   2.0849593e-06  1.0681314e+08
   1461000   2.264423e-10   100356         100342.34      105261.38      2.6018985e-06  5.1733592e-07  2.0845626e-06  1.0681286e+08
   1462000   2.2659729e-10  100327.16      100312.29      105633.87      2.6019094e-06  5.1794603e-07  2.0839634e-06  1.0680039e+08
   1463000   2.2675228e-10  100363.36      100347.64      105954.97      2.6018758e-06  5.1716041e-07  2.0847154e-06  1.0680945e+08
   1464000   2.2690727e-10  100352.36      100337.74      105577.45      2.6019011e-06  5.1741427e-07  2.0844869e-06  1.0681005e+08
   1465000   2.2706226e-10  100368.95      100355.6       105168.59      2.6018951e-06  5.1706354e-07  2.0848315e-06  1.0681408e+08
   1466000   2.2721725e-10  100367.36      100356.36      104380.78      2.6018876e-06  5.1708917e-07  2.0847984e-06  1.0680906e+08
   1467000   2.2737224e-10  100384.46      100374.49      104056.44      2.6018767e-06  5.1672294e-07  2.0851538e-06  1.0681539e+08
   1468000   2.2752723e-10  100368.73      100358.69      104062.2       2.6018884e-06  5.1706153e-07  2.0848269e-06  1.0681214e+08
   1469000   2.2768223e-10  100369.24      100359.36      104008.22      2.6018825e-06  5.1704493e-07  2.0848375e-06  1.0681091e+08
   1470000   2.2783722e-10  100375.14      100364.1       104405.37      2.6018985e-06  5.1693828e-07  2.0849602e-06  1.0681421e+08
   1471000   2.2799221e-10  100358.33      100346.38      104690.61      2.6018809e-06  5.172699e-07   2.084611e-06   1.0680779e+08
   1472000   2.281472e-10   100365.56      100352.09      105207.65      2.6018726e-06  5.1711146e-07  2.0847612e-06  1.068105e+08 
   1473000   2.2830219e-10  100366.19      100352.68      105219.66      2.6018675e-06  5.1709342e-07  2.0847741e-06  1.0681101e+08
   1474000   2.2845718e-10  100356.83      100344.2       104918.12      2.6018818e-06  5.17302e-07    2.0845798e-06  1.0680594e+08
   1475000   2.2861217e-10  100356.09      100344.75      104484.85      2.6018845e-06  5.1732005e-07  2.0845645e-06  1.0680557e+08
   1476000   2.2876717e-10  100371.32      100360.43      104346.99      2.6018787e-06  5.1699801e-07  2.0848807e-06  1.0680985e+08
   1477000   2.2892216e-10  100366.46      100354.37      104745.77      2.6018922e-06  5.1711233e-07  2.0847798e-06  1.0681035e+08
   1478000   2.2907715e-10  100365         100351.52      105211.23      2.6018981e-06  5.1714852e-07  2.0847495e-06  1.0681269e+08
   1479000   2.2923214e-10  100363.67      100350.42      105129.32      2.6019105e-06  5.1718871e-07  2.0847218e-06  1.0681374e+08
   1480000   2.2938713e-10  100365.33      100350.53      105651.83      2.6018932e-06  5.1713691e-07  2.0847563e-06  1.0681304e+08
   1481000   2.2954212e-10  100368.26      100352.88      105846.83      2.6018983e-06  5.1708116e-07  2.0848172e-06  1.068142e+08 
   1482000   2.2969711e-10  100350.55      100336.16      105496.63      2.6018777e-06  5.1742847e-07  2.0844493e-06  1.0680391e+08
   1483000   2.298521e-10   100371.88      100358.79      105087.68      2.6018475e-06  5.1695506e-07  2.0848925e-06  1.0680613e+08
   1484000   2.300071e-10   100369.55      100354.13      105861.97      2.6018533e-06  5.1700929e-07  2.0848441e-06  1.0680403e+08
   1485000   2.3016209e-10  100357.01      100339.35      106599.57      2.6018665e-06  5.1728298e-07  2.0845835e-06  1.0680282e+08
   1486000   2.3031708e-10  100387.01      100369.51      106574.06      2.6018799e-06  5.1667328e-07  2.0852066e-06  1.0681491e+08
   1487000   2.3047207e-10  100380.23      100365.89      105512.11      2.6018756e-06  5.1680963e-07  2.0850659e-06  1.0681151e+08
   1488000   2.3062706e-10  100382.44      100368.98      105219         2.6018846e-06  5.1677283e-07  2.0851118e-06  1.0681542e+08
   1489000   2.3078205e-10  100354.71      100340.67      105387.16      2.6018594e-06  5.1732364e-07  2.0845358e-06  1.0680461e+08
   1490000   2.3093704e-10  100359.5       100345.08      105516.92      2.6018744e-06  5.1723914e-07  2.0846353e-06  1.0680666e+08
   1491000   2.3109203e-10  100363.81      100350.35      105202.13      2.6018821e-06  5.1715734e-07  2.0847248e-06  1.0681047e+08
   1492000   2.3124703e-10  100358.07      100343.89      105435.92      2.6018712e-06  5.172658e-07   2.0846054e-06  1.0680626e+08
   1493000   2.3140202e-10  100365.18      100351.63      105233.13      2.6018778e-06  5.1712463e-07  2.0847532e-06  1.0680961e+08
   1494000   2.3155701e-10  100341.52      100327.86      105245.76      2.6018811e-06  5.1761937e-07  2.0842618e-06  1.0680247e+08
   1495000   2.31712e-10    100363.69      100350.78      105015.69      2.6018806e-06  5.1715836e-07  2.0847222e-06  1.0681001e+08
   1496000   2.3186699e-10  100381.39      100369.4       104725.19      2.6018918e-06  5.1680199e-07  2.0850898e-06  1.0681662e+08
   1497000   2.3202198e-10  100352.8       100340.47      104811.48      2.601878e-06   5.17382e-07    2.084496e-06   1.0680376e+08
   1498000   2.3217697e-10  100387.55      100376.84      104305.48      2.6019067e-06  5.1668886e-07  2.0852178e-06  1.0681677e+08
   1499000   2.3233197e-10  100363.47      100355.34      103419.3       2.6018991e-06  5.1718142e-07  2.0847177e-06  1.0680866e+08
   1500000   2.3248696e-10  100362.12      100356.02      102736.11      2.6018753e-06  5.1718569e-07  2.0846896e-06  1.0680668e+08
   1501000   2.3264195e-10  100375.93      100370.14      102647         2.6018599e-06  5.1688343e-07  2.0849765e-06  1.0681076e+08
   1502000   2.3279694e-10  100380.13      100374.36      102645.2       2.6018639e-06  5.1680013e-07  2.0850638e-06  1.0681171e+08
   1503000   2.3295193e-10  100373.41      100366.8       102920.38      2.6018526e-06  5.1692845e-07  2.0849241e-06  1.0681041e+08
   1504000   2.3310692e-10  100366.04      100358.36      103270.63      2.601872e-06   5.1710083e-07  2.0847712e-06  1.0680865e+08
   1505000   2.3326191e-10  100357.46      100349.42      103382.79      2.601866e-06   5.1727317e-07  2.0845928e-06  1.0680351e+08
   1506000   2.334169e-10   100351.74      100343.32      103502.37      2.6018728e-06  5.1739871e-07  2.0844741e-06  1.0680257e+08
   1507000   2.335719e-10   100372.96      100364.11      103667.45      2.6018752e-06  5.1696036e-07  2.0849149e-06  1.068103e+08 
   1508000   2.3372689e-10  100360.41      100351.43      103699.11      2.601874e-06   5.1721993e-07  2.0846541e-06  1.0680812e+08
   1509000   2.3388188e-10  100349.58      100339.51      104052.37      2.6018623e-06  5.1743319e-07  2.0844291e-06  1.0680304e+08
   1510000   2.3403687e-10  100368.99      100360.57      103523.27      2.6018837e-06  5.1705123e-07  2.0848325e-06  1.0681088e+08
   1511000   2.3419186e-10  100343.56      100335.73      103296.39      2.6018794e-06  5.1757539e-07  2.084304e-06   1.0680141e+08
   1512000   2.3434685e-10  100367.29      100359.06      103455.37      2.6018719e-06  5.1707486e-07  2.084797e-06   1.0680923e+08
   1513000   2.3450184e-10  100364.73      100357.86      102999.4       2.6018685e-06  5.1712463e-07  2.0847439e-06  1.0680709e+08
   1514000   2.3465683e-10  100369.18      100362.29      103006.93      2.6018653e-06  5.1702907e-07  2.0848362e-06  1.0680832e+08
   1515000   2.3481183e-10  100373.73      100366.95      102975.81      2.6018668e-06  5.1693602e-07  2.0849307e-06  1.068124e+08 
   1516000   2.3496682e-10  100367.45      100360.93      102885.36      2.6018743e-06  5.1707393e-07  2.0848004e-06  1.0680754e+08
   1517000   2.3512181e-10  100387.81      100381.41      102864.13      2.6018707e-06  5.1664744e-07  2.0852233e-06  1.0681486e+08
   1518000   2.352768e-10   100352.53      100347.65      102318.25      2.6018791e-06  5.1738863e-07  2.0844904e-06  1.068045e+08 
   1519000   2.3543179e-10  100367.47      100360.22      103126.75      2.6018707e-06  5.1706996e-07  2.0848008e-06  1.0681133e+08
   1520000   2.3558678e-10  100354.99      100345.42      103889.59      2.6018918e-06  5.1735031e-07  2.0845415e-06  1.0680881e+08
   1521000   2.3574177e-10  100363.68      100354.2       103871.89      2.6018884e-06  5.1716624e-07  2.0847222e-06  1.0681032e+08
   1522000   2.3589677e-10  100372.47      100363.69      103645.12      2.601881e-06   5.1697639e-07  2.0849046e-06  1.0681156e+08
   1523000   2.3605176e-10  100360.25      100349.82      104184.69      2.6018662e-06  5.1721532e-07  2.0846509e-06  1.0680384e+08
   1524000   2.3620675e-10  100372.49      100362.04      104202.54      2.6018832e-06  5.1697815e-07  2.0849051e-06  1.0681042e+08
   1525000   2.3636174e-10  100369.46      100357.23      104794.69      2.6018778e-06  5.1703564e-07  2.0848422e-06  1.0681109e+08
   1526000   2.3651673e-10  100355.36      100342.87      104869.22      2.6018946e-06  5.173453e-07   2.0845493e-06  1.0680845e+08
   1527000   2.3667172e-10  100370.01      100357.25      104973.5       2.6018975e-06  5.1704402e-07  2.0848535e-06  1.0681373e+08
   1528000   2.3682671e-10  100373.42      100362.03      104518.84      2.6018734e-06  5.1694904e-07  2.0849243e-06  1.0681321e+08
   1529000   2.369817e-10   100378.9       100366.83      104749.93      2.6018613e-06  5.1682307e-07  2.0850382e-06  1.0681147e+08
   1530000   2.371367e-10   100372.68      100361.14      104567.32      2.6018883e-06  5.1697931e-07  2.084909e-06   1.0681011e+08
   1531000   2.3729169e-10  100359.42      100347.57      104659.2       2.6018789e-06  5.1724526e-07  2.0846336e-06  1.0680703e+08
   1532000   2.3744668e-10  100380.18      100370.91      103817.53      2.6018709e-06  5.1680605e-07  2.0850649e-06  1.068134e+08 
   1533000   2.3760167e-10  100363.17      100355.23      103357.02      2.6018368e-06  5.1712521e-07  2.0847116e-06  1.0680451e+08
   1534000   2.3775666e-10  100361.33      100354.92      102838.27      2.601856e-06   5.1718287e-07  2.0846732e-06  1.0680617e+08
   1535000   2.3791165e-10  100364.15      100358.98      102427.39      2.6018658e-06  5.1713395e-07  2.0847318e-06  1.0680777e+08
   1536000   2.3806664e-10  100375.06      100369.27      102644.53      2.6018721e-06  5.169138e-07   2.0849583e-06  1.068128e+08 
   1537000   2.3822163e-10  100377.42      100370.82      102921.51      2.6018625e-06  5.1685501e-07  2.0850075e-06  1.0681232e+08
   1538000   2.3837663e-10  100368.5       100361.42      103071.5       2.6018664e-06  5.1704421e-07  2.0848222e-06  1.0680999e+08
   1539000   2.3853162e-10  100352.83      100345.21      103237.23      2.6018618e-06  5.1736513e-07  2.0844966e-06  1.0680294e+08
   1540000   2.3868661e-10  100364.02      100358.43      102567.96      2.6018892e-06  5.1716018e-07  2.084729e-06   1.0681009e+08
   1541000   2.388416e-10   100353         100346.36      102909.62      2.6018818e-06  5.1738168e-07  2.0845001e-06  1.0680662e+08
   1542000   2.3899659e-10  100364.65      100356.51      103422.54      2.6018929e-06  5.1715062e-07  2.0847423e-06  1.0680994e+08
   1543000   2.3915158e-10  100368.59      100361.15      103190.5       2.601884e-06   5.1706005e-07  2.084824e-06   1.0681272e+08
   1544000   2.3930657e-10  100363.49      100356.6       103004.5       2.6019065e-06  5.171884e-07   2.0847181e-06  1.0681203e+08
   1545000   2.3946157e-10  100363.27      100354.84      103517.39      2.6019079e-06  5.1719429e-07  2.0847136e-06  1.0681404e+08
   1546000   2.3961656e-10  100359.82      100349.92      104006.65      2.6018906e-06  5.1724877e-07  2.0846418e-06  1.0681237e+08
   1547000   2.3977155e-10  100368.02      100356.37      104598.22      2.6018823e-06  5.1707015e-07  2.0848121e-06  1.0681166e+08
   1548000   2.3992654e-10  100362.5       100352.16      104154.79      2.6018782e-06  5.1718065e-07  2.0846975e-06  1.0680838e+08
   1549000   2.4008153e-10  100359.75      100348.82      104349.48      2.601884e-06   5.1724367e-07  2.0846404e-06  1.0680912e+08
   1550000   2.4023652e-10  100362.81      100353.06      103959.81      2.6018908e-06  5.1718675e-07  2.0847041e-06  1.0680954e+08
   1551000   2.4039151e-10  100374.68      100366.39      103483.98      2.6019045e-06  5.1695393e-07  2.0849505e-06  1.0681417e+08
   1552000   2.405465e-10   100353.56      100348.79      102283.58      2.6018977e-06  5.1738588e-07  2.0845118e-06  1.0680776e+08
   1553000   2.407015e-10   100361.36      100357.27      102064.99      2.601881e-06   5.1720725e-07  2.0846738e-06  1.0680762e+08
   1554000   2.4085649e-10  100368.47      100365.64      101653.63      2.6018509e-06  5.1702923e-07  2.0848216e-06  1.0680488e+08
   1555000   2.4101148e-10  100367.94      100365.87      101395.26      2.6018573e-06  5.1704675e-07  2.0848106e-06  1.0680624e+08
   1556000   2.4116647e-10  100380.2       100378.36      101329.9       2.6018563e-06  5.1679114e-07  2.0850651e-06  1.0681003e+08
   1557000   2.4132146e-10  100381.44      100380.75      100944.88      2.6018775e-06  5.1678664e-07  2.0850909e-06  1.068109e+08 
   1558000   2.4147645e-10  100387.49      100388.1       100518.47      2.6018926e-06  5.1667602e-07  2.0852166e-06  1.0681608e+08
   1559000   2.4163144e-10  100384.06      100384.85      100455.91      2.6018793e-06  5.1673382e-07  2.0851454e-06  1.0681568e+08
   1560000   2.4178643e-10  100357.83      100356.04      101291.83      2.6018743e-06  5.1727371e-07  2.0846006e-06  1.06805e+08  
   1561000   2.4194143e-10  100368.87      100366.33      101554.61      2.6018983e-06  5.1706838e-07  2.0848299e-06  1.068105e+08 
   1562000   2.4209642e-10  100354.72      100352.36      101481.49      2.6018997e-06  5.173637e-07   2.084536e-06   1.0680653e+08
   1563000   2.4225141e-10  100366.16      100362.67      101870.52      2.6019046e-06  5.1713098e-07  2.0847736e-06  1.0681269e+08
   1564000   2.424064e-10   100360.35      100353.58      102959.74      2.6018903e-06  5.1723731e-07  2.084653e-06   1.068104e+08 
   1565000   2.4256139e-10  100358.03      100351.97      102718.01      2.6019037e-06  5.1729914e-07  2.0846046e-06  1.068112e+08 
   1566000   2.4271638e-10  100354.26      100348.2       102714.88      2.6018931e-06  5.1736669e-07  2.0845264e-06  1.068079e+08 
   1567000   2.4287137e-10  100384.81      100377.56      103147.37      2.6018783e-06  5.1671727e-07  2.085161e-06   1.0681477e+08
   1568000   2.4302637e-10  100366.17      100358.68      103206.65      2.6018831e-06  5.171094e-07   2.0847737e-06  1.0680879e+08
   1569000   2.4318136e-10  100360.53      100352.5       103382.8       2.6019122e-06  5.1725551e-07  2.0846567e-06  1.0681099e+08
   1570000   2.4333635e-10  100351.63      100342.11      103869.5       2.601917e-06   5.1744535e-07  2.0844717e-06  1.0681082e+08
   1571000   2.4349134e-10  100364.89      100353.76      104421.58      2.6019111e-06  5.1716395e-07  2.0847471e-06  1.0681449e+08
   1572000   2.4364633e-10  100354.9       100344.19      104275.2       2.6019081e-06  5.1736831e-07  2.0845398e-06  1.0680862e+08
   1573000   2.4380132e-10  100352.85      100342.67      104092.36      2.6018857e-06  5.1738864e-07  2.0844971e-06  1.0680675e+08
   1574000   2.4395631e-10  100352.36      100341.43      104342.36      2.6018714e-06  5.1738452e-07  2.0844869e-06  1.0680597e+08
   1575000   2.441113e-10   100377.91      100367.21      104291.31      2.6018781e-06  5.1686055e-07  2.0850176e-06  1.0681323e+08
   1576000   2.442663e-10   100362.45      100349.34      105082.12      2.6018655e-06  5.1716894e-07  2.0846965e-06  1.0680714e+08
   1577000   2.4442129e-10  100364.66      100351.01      105267.95      2.6018675e-06  5.1712493e-07  2.0847425e-06  1.0680745e+08
   1578000   2.4457628e-10  100369.02      100355.88      105098.24      2.6018771e-06  5.1704405e-07  2.084833e-06   1.0680886e+08
   1579000   2.4473127e-10  100368         100356.9       104417.47      2.601892e-06   5.1708016e-07  2.0848118e-06  1.0680914e+08
   1580000   2.4488626e-10  100378.19      100368.45      103970.37      2.6018785e-06  5.1685502e-07  2.0850235e-06  1.06813e+08  
   1581000   2.4504125e-10  100363.04      100353.56      103868.16      2.6018833e-06  5.1717457e-07  2.0847087e-06  1.0680845e+08
   1582000   2.4519624e-10  100349.81      100339.77      104043.82      2.6018746e-06  5.1744059e-07  2.084434e-06   1.0680437e+08
   1583000   2.4535123e-10  100352.66      100345.58      103054.14      2.6018796e-06  5.1738658e-07  2.0844931e-06  1.0680594e+08
   1584000   2.4550623e-10  100366.11      100360.85      102463.2       2.6018844e-06  5.1711177e-07  2.0847726e-06  1.0681071e+08
   1585000   2.4566122e-10  100377.67      100373.78      102013.25      2.6018897e-06  5.1687704e-07  2.0850126e-06  1.0681439e+08
   1586000   2.4581621e-10  100362.37      100357.37      102372.94      2.6018903e-06  5.171954e-07   2.0846949e-06  1.0681009e+08
   1587000   2.459712e-10   100364.48      100357.66      102982.55      2.6018758e-06  5.1713705e-07  2.0847387e-06  1.0680919e+08
   1588000   2.4612619e-10  100361.43      100354.45      103030.58      2.601889e-06   5.1721374e-07  2.0846753e-06  1.0680909e+08
   1589000   2.4628118e-10  100358.85      100353.16      102596.12      2.6018974e-06  5.1727574e-07  2.0846217e-06  1.0680999e+08
   1590000   2.4643617e-10  100361.77      100356         102625.63      2.6018779e-06  5.1719558e-07  2.0846824e-06  1.0680989e+08
   1591000   2.4659117e-10  100364.05      100355.45      103574.39      2.6018887e-06  5.1715898e-07  2.0847297e-06  1.0681002e+08
   1592000   2.4674616e-10  100374.6       100366.8       103318.69      2.601878e-06   5.1692911e-07  2.0849489e-06  1.0681065e+08
   1593000   2.4690115e-10  100362.33      100354.94      103168.88      2.6018664e-06  5.1717232e-07  2.0846941e-06  1.0680593e+08
   1594000   2.4705614e-10  100375.59      100369.47      102760.59      2.6018782e-06  5.1690865e-07  2.0849695e-06  1.0681199e+08
   1595000   2.4721113e-10  100369.7       100364.73      102367.98      2.601868e-06   5.1702084e-07  2.0848471e-06  1.0680892e+08
   1596000   2.4736612e-10  100352.73      100346.61      102736.11      2.6018733e-06  5.1737871e-07  2.0844946e-06  1.0680488e+08
   1597000   2.4752111e-10  100376.19      100371.65      102231.55      2.6018847e-06  5.169028e-07   2.0849819e-06  1.0681175e+08
   1598000   2.476761e-10   100384.83      100380.06      102315.64      2.601888e-06   5.1672663e-07  2.0851614e-06  1.0681494e+08
   1599000   2.478311e-10   100351.65      100346.41      102439         2.6018851e-06  5.1741301e-07  2.0844721e-06  1.0680379e+08
   1600000   2.4798609e-10  100386.9       100380.64      102816.68      2.6018967e-06  5.1669237e-07  2.0852044e-06  1.0681814e+08
   1601000   2.4814108e-10  100345.34      100337.66      103251.83      2.6019002e-06  5.1755904e-07  2.0843412e-06  1.0680473e+08
   1602000   2.4829607e-10  100369.14      100363.35      102641.42      2.6018915e-06  5.1705608e-07  2.0848354e-06  1.0681108e+08
   1603000   2.4845106e-10  100364.1       100358.27      102650.26      2.6018825e-06  5.1715173e-07  2.0847308e-06  1.0680797e+08
   1604000   2.4860605e-10  100362.38      100356.43      102686.94      2.6018609e-06  5.1716583e-07  2.084695e-06   1.0680747e+08
   1605000   2.4876104e-10  100363.14      100356.72      102844.42      2.6018688e-06  5.1715803e-07  2.0847108e-06  1.0680783e+08
   1606000   2.4891603e-10  100368.16      100363.82      102156.87      2.6018526e-06  5.170374e-07   2.0848152e-06  1.0680789e+08
   1607000   2.4907103e-10  100357.75      100353.95      101965.05      2.601848e-06   5.1724914e-07  2.0845989e-06  1.0680371e+08
   1608000   2.4922602e-10  100360.43      100358.48      101349.04      2.6018536e-06  5.1719908e-07  2.0846545e-06  1.0680362e+08
   1609000   2.4938101e-10  100360.15      100358.53      101236.12      2.6018525e-06  5.172038e-07   2.0846487e-06  1.0680253e+08
   1610000   2.49536e-10    100351.32      100350.87      100835.84      2.6018543e-06  5.1738902e-07  2.0844653e-06  1.0679932e+08
   1611000   2.4969099e-10  100373.89      100374.9       100372.18      2.6018572e-06  5.16923e-07    2.0849342e-06  1.0680726e+08
   1612000   2.4984598e-10  100372.77      100373.7       100397.08      2.6018716e-06  5.169608e-07   2.0849108e-06  1.0680892e+08
   1613000   2.5000097e-10  100375.4       100376.45      100358.45      2.6018641e-06  5.1689866e-07  2.0849654e-06  1.0680924e+08
   1614000   2.5015597e-10  100369.22      100369.78      100516.75      2.6018752e-06  5.170381e-07   2.0848371e-06  1.0680994e+08
   1615000   2.5031096e-10  100381.84      100381.79      100734.27      2.6018929e-06  5.1679367e-07  2.0850993e-06  1.0681482e+08
   1616000   2.5046595e-10  100374.95      100373.86      101073.71      2.6018742e-06  5.1691811e-07  2.0849561e-06  1.0681089e+08
   1617000   2.5062094e-10  100353.86      100353.25      100894.31      2.6018762e-06  5.1735804e-07  2.0845181e-06  1.0680622e+08
   1618000   2.5077593e-10  100358.13      100358.07      100714.2       2.6018791e-06  5.1727223e-07  2.0846068e-06  1.0680807e+08
   1619000   2.5093092e-10  100358.3       100356.98      101133.35      2.6018873e-06  5.1727702e-07  2.0846102e-06  1.0680882e+08
   1620000   2.5108591e-10  100367.97      100367.66      100804.75      2.6018787e-06  5.1706757e-07  2.0848111e-06  1.0680966e+08
   1621000   2.512409e-10   100359.28      100360.16      100399.87      2.6018599e-06  5.1722926e-07  2.0846306e-06  1.0680292e+08
   1622000   2.513959e-10   100364.21      100366.1       100068.12      2.6018662e-06  5.171332e-07   2.084733e-06   1.0680561e+08
   1623000   2.5155089e-10  100361.61      100361.93      100589.84      2.6018768e-06  5.1719777e-07  2.084679e-06   1.0680715e+08
   1624000   2.5170588e-10  100362.18      100360.68      101198.09      2.6018834e-06  5.1719247e-07  2.0846909e-06  1.0680838e+08
   1625000   2.5186087e-10  100362.53      100362.75      100625.75      2.6018977e-06  5.171994e-07   2.0846982e-06  1.0680918e+08
   1626000   2.5201586e-10  100360.85      100360.44      100832.51      2.6018829e-06  5.1721973e-07  2.0846632e-06  1.0680803e+08
   1627000   2.5217085e-10  100352.38      100350.67      101259.51      2.601889e-06   5.1740166e-07  2.0844873e-06  1.0680724e+08
   1628000   2.5232584e-10  100355.72      100352.47      101778.62      2.6019e-06     5.1734322e-07  2.0845568e-06  1.0681047e+08
   1629000   2.5248083e-10  100354.67      100352.23      101504.65      2.6018791e-06  5.1734423e-07  2.0845349e-06  1.0680716e+08
   1630000   2.5263583e-10  100369.15      100367.31      101317.79      2.6018854e-06  5.170498e-07   2.0848356e-06  1.0681056e+08
   1631000   2.5279082e-10  100382.65      100380.4       101471.71      2.6018998e-06  5.1678375e-07  2.0851161e-06  1.068166e+08 
   1632000   2.5294581e-10  100357.94      100354.81      101740.4       2.601884e-06   5.1728127e-07  2.0846028e-06  1.0680798e+08
   1633000   2.531008e-10   100347.4       100342.9       102185.53      2.6018846e-06  5.1750075e-07  2.0843838e-06  1.0680359e+08
   1634000   2.5325579e-10  100365.56      100361.59      102028.76      2.6018812e-06  5.1712001e-07  2.0847611e-06  1.0680807e+08
   1635000   2.5341078e-10  100357.36      100352.45      102333.66      2.6018823e-06  5.172916e-07   2.0845907e-06  1.0680602e+08
   1636000   2.5356577e-10  100381.3       100376.76      102236.43      2.6018821e-06  5.1679406e-07  2.0850881e-06  1.0681287e+08
   1637000   2.5372077e-10  100379.17      100373.46      102625.48      2.601863e-06   5.1681904e-07  2.0850439e-06  1.068102e+08 
   1638000   2.5387576e-10  100384.9       100378.25      102942.82      2.6018764e-06  5.1671367e-07  2.0851628e-06  1.0681372e+08
   1639000   2.5403075e-10  100373.39      100366.03      103171.28      2.6018851e-06  5.169613e-07   2.0849238e-06  1.0681204e+08
   1640000   2.5418574e-10  100372.77      100365.19      103242.92      2.6018807e-06  5.1696977e-07  2.0849109e-06  1.068112e+08 
   1641000   2.5434073e-10  100352.5       100346.01      102861.44      2.6018766e-06  5.1738667e-07  2.0844899e-06  1.0680253e+08
   1642000   2.5449572e-10  100372.96      100367.07      102679.41      2.6018691e-06  5.1695415e-07  2.0849149e-06  1.0680793e+08
   1643000   2.5465071e-10  100368.47      100360.59      103339.29      2.601886e-06   5.1706446e-07  2.0848215e-06  1.0680836e+08
   1644000   2.548057e-10   100356.4       100347.92      103526.93      2.6018797e-06  5.1730884e-07  2.0845708e-06  1.0680643e+08
   1645000   2.549607e-10   100352.71      100343.48      103777.17      2.6018774e-06  5.1738317e-07  2.0844943e-06  1.0680527e+08
   1646000   2.5511569e-10  100363.18      100353.65      103885.02      2.6018687e-06  5.1715711e-07  2.0847116e-06  1.0680869e+08
   1647000   2.5527068e-10  100368.33      100359.05      103810.13      2.6018618e-06  5.1704306e-07  2.0848187e-06  1.068095e+08 
   1648000   2.5542567e-10  100377.41      100368.02      103854.13      2.6018864e-06  5.1687904e-07  2.0850073e-06  1.068128e+08 
   1649000   2.5558066e-10  100360.41      100350.32      104070.23      2.6018603e-06  5.1720621e-07  2.0846541e-06  1.0680357e+08
   1650000   2.5573565e-10  100366.75      100356.57      104104.78      2.6018695e-06  5.1708378e-07  2.0847858e-06  1.0680636e+08
   1651000   2.5589064e-10  100355.62      100343.86      104625.84      2.6018832e-06  5.1732852e-07  2.0845547e-06  1.0680674e+08
   1652000   2.5604563e-10  100365.92      100354.23      104608.16      2.6018896e-06  5.1712112e-07  2.0847685e-06  1.0681157e+08
   1653000   2.5620063e-10  100371.41      100357.95      105208.82      2.6018753e-06  5.1699271e-07  2.0848826e-06  1.0680921e+08
   1654000   2.5635562e-10  100371.48      100357.98      105222.01      2.601876e-06   5.169919e-07   2.0848841e-06  1.0681008e+08
   1655000   2.5651061e-10  100375.55      100362.84      104963.02      2.6018815e-06  5.1691276e-07  2.0849687e-06  1.0681184e+08
   1656000   2.566656e-10   100370.78      100356.36      105528.85      2.6019003e-06  5.1703071e-07  2.0848696e-06  1.0681025e+08
   1657000   2.5682059e-10  100361.31      100345.44      106006.03      2.6018813e-06  5.1720846e-07  2.0846728e-06  1.0680755e+08
   1658000   2.5697558e-10  100376.19      100361.65      105573.62      2.6018897e-06  5.169078e-07   2.0849819e-06  1.0681291e+08
   1659000   2.5713057e-10  100379.04      100366         105077.77      2.6018807e-06  5.1683956e-07  2.0850412e-06  1.0681176e+08
   1660000   2.5728557e-10  100371.27      100358.32      105040.01      2.601867e-06   5.1698724e-07  2.0848798e-06  1.0680649e+08
   1661000   2.5744056e-10  100383         100369.42      105259.19      2.6018475e-06  5.1672412e-07  2.0851234e-06  1.0680923e+08
   1662000   2.5759555e-10  100376.32      100361.71      105600.74      2.6018767e-06  5.1689204e-07  2.0849847e-06  1.0681024e+08
   1663000   2.5775054e-10  100378.32      100363.9       105537.6       2.6018837e-06  5.1685754e-07  2.0850262e-06  1.0681339e+08
   1664000   2.5790553e-10  100354.31      100341.29      105045.41      2.6018637e-06  5.173362e-07   2.0845275e-06  1.068026e+08 
   1665000   2.5806052e-10  100370.34      100357.55      104982.42      2.6018614e-06  5.1700106e-07  2.0848603e-06  1.0680708e+08
   1666000   2.5821551e-10  100380.02      100368.06      104716.14      2.601884e-06   5.168226e-07   2.0850614e-06  1.0681185e+08
   1667000   2.583705e-10   100373.55      100360.86      104955.47      2.6018754e-06  5.1694823e-07  2.0849272e-06  1.0680885e+08
   1668000   2.585255e-10   100384.33      100370.17      105456.89      2.6018582e-06  5.167072e-07   2.085151e-06   1.0680964e+08
   1669000   2.5868049e-10  100368.51      100356.1       104855.6       2.6018653e-06  5.1704294e-07  2.0848224e-06  1.0680721e+08
   1670000   2.5883548e-10  100372.92      100361.53      104519.35      2.601866e-06   5.1695199e-07  2.084914e-06   1.0680894e+08
   1671000   2.5899047e-10  100374.7       100363.67      104397.13      2.6018633e-06  5.1691235e-07  2.0849509e-06  1.0681023e+08
   1672000   2.5914546e-10  100349.73      100340.16      103884.92      2.6018765e-06  5.1744418e-07  2.0844323e-06  1.0680418e+08
   1673000   2.5930045e-10  100360.17      100347.95      104783.58      2.6018866e-06  5.1723732e-07  2.0846492e-06  1.0680843e+08
   1674000   2.5945544e-10  100385.38      100371.93      105218.62      2.6018886e-06  5.1671578e-07  2.0851729e-06  1.068148e+08 
   1675000   2.5961043e-10  100376.72      100364.8       104697.9       2.6018907e-06  5.1689784e-07  2.0849928e-06  1.0681213e+08
   1676000   2.5976543e-10  100369.47      100356.49      105045.25      2.6018936e-06  5.170513e-07   2.0848423e-06  1.068127e+08 
   1677000   2.5992042e-10  100361.22      100347.85      105170.38      2.6018959e-06  5.1722486e-07  2.084671e-06   1.068106e+08 
   1678000   2.6007541e-10  100362.75      100348.93      105319.81      2.601898e-06   5.1719538e-07  2.0847026e-06  1.0681105e+08
   1679000   2.602304e-10   100364.7       100349.36      105831.83      2.6019053e-06  5.1716206e-07  2.0847432e-06  1.0681362e+08
   1680000   2.6038539e-10  100363.81      100348.75      105736.97      2.6019065e-06  5.1718163e-07  2.0847248e-06  1.0681197e+08
   1681000   2.6054038e-10  100371.56      100356.27      105821.88      2.6018826e-06  5.1699685e-07  2.0848858e-06  1.0681125e+08
   1682000   2.6069537e-10  100353.29      100337.56      105949.21      2.6018619e-06  5.173556e-07   2.0845063e-06  1.0680144e+08
   1683000   2.6085037e-10  100382.11      100363.33      107000.44      2.6018834e-06  5.1677847e-07  2.085105e-06   1.0681321e+08
   1684000   2.6100536e-10  100358.99      100339.33      107268.06      2.6018783e-06  5.1725368e-07  2.0846246e-06  1.0680515e+08
   1685000   2.6116035e-10  100367.31      100346.57      107639.02      2.6018743e-06  5.1707683e-07  2.0847975e-06  1.0680788e+08
   1686000   2.6131534e-10  100371.89      100355.02      106350.24      2.6018768e-06  5.1698423e-07  2.0848926e-06  1.0680958e+08
   1687000   2.6147033e-10  100382.77      100369.3       105223.41      2.6018629e-06  5.1674431e-07  2.0851186e-06  1.0681131e+08
   1688000   2.6162532e-10  100373.22      100362.68      104233.89      2.6018583e-06  5.1693801e-07  2.0849203e-06  1.0680716e+08
   1689000   2.6178031e-10  100385.24      100376.03      103799.32      2.6018561e-06  5.1668627e-07  2.0851699e-06  1.0681246e+08
   1690000   2.619353e-10   100354.61      100346.95      103254.24      2.6018943e-06  5.173606e-07   2.0845337e-06  1.0680572e+08
   1691000   2.620903e-10   100360.88      100354.35      102881.61      2.6019068e-06  5.172429e-07   2.0846639e-06  1.0681103e+08
   1692000   2.6224529e-10  100362.06      100356.62      102516.22      2.6019057e-06  5.172173e-07   2.0846884e-06  1.0681057e+08
   1693000   2.6240028e-10  100382.33      100375.5       103002.78      2.6018921e-06  5.1678265e-07  2.0851094e-06  1.0681755e+08
   1694000   2.6255527e-10  100364.09      100358.23      102659.09      2.6019069e-06  5.1717639e-07  2.0847305e-06  1.0681134e+08
   1695000   2.6271026e-10  100351.12      100344.11      103031.67      2.6018809e-06  5.1741975e-07  2.0844612e-06  1.068041e+08 
   1696000   2.6286525e-10  100371.21      100362.85      103504.5       2.6018799e-06  5.1700131e-07  2.0848785e-06  1.0680924e+08
   1697000   2.6302024e-10  100368.44      100359.73      103615.86      2.601877e-06   5.1705619e-07  2.0848208e-06  1.0680772e+08
   1698000   2.6317523e-10  100361.53      100354.68      102986.76      2.6018678e-06  5.1719045e-07  2.0846774e-06  1.068062e+08 
   1699000   2.6333023e-10  100371.63      100364.04      103246.9       2.6018928e-06  5.1700557e-07  2.0848872e-06  1.0681303e+08
   1700000   2.6348522e-10  100360.64      100353.66      103031         2.6018912e-06  5.172322e-07   2.084659e-06   1.0680931e+08
   1701000   2.6364021e-10  100384.19      100375.84      103511.21      2.6018882e-06  5.1674019e-07  2.085148e-06   1.068158e+08 
   1702000   2.637952e-10   100377.76      100369.75      103395.11      2.6019015e-06  5.1688683e-07  2.0850146e-06  1.0681327e+08
   1703000   2.6395019e-10  100363.16      100355.67      103203.43      2.6019023e-06  5.1719111e-07  2.0847112e-06  1.0681055e+08
   1704000   2.6410518e-10  100367.61      100359.37      103461.63      2.6018944e-06  5.1709063e-07  2.0848037e-06  1.0681082e+08
   1705000   2.6426017e-10  100370.99      100361.25      103965.35      2.6018978e-06  5.170239e-07   2.0848739e-06  1.0681348e+08
   1706000   2.6441517e-10  100351.47      100341.47      104032.9       2.6018921e-06  5.1742365e-07  2.0844685e-06  1.0680801e+08
   1707000   2.6457016e-10  100348.82      100339.17      103911.98      2.6019047e-06  5.1749139e-07  2.0844133e-06  1.0680858e+08
   1708000   2.6472515e-10  100352.52      100341.57      104350.33      2.6019018e-06  5.1741158e-07  2.0844902e-06  1.0680949e+08
   1709000   2.6488014e-10  100343.84      100332.19      104576.82      2.6018893e-06  5.1757941e-07  2.0843099e-06  1.0680434e+08
   1710000   2.6503513e-10  100359.05      100348.21      104319.51      2.6018926e-06  5.1726675e-07  2.0846259e-06  1.0680769e+08
   1711000   2.6519012e-10  100356.95      100345.24      104609.18      2.6018818e-06  5.1729954e-07  2.0845822e-06  1.0680535e+08
   1712000   2.6534511e-10  100350.55      100337.55      105035.58      2.6018915e-06  5.1744204e-07  2.0844494e-06  1.0680555e+08
   1713000   2.655001e-10   100365.67      100352.69      105042.02      2.601918e-06   5.1715459e-07  2.0847634e-06  1.068141e+08 
   1714000   2.656551e-10   100362.19      100350.77      104515.6       2.6018892e-06  5.171981e-07   2.0846911e-06  1.0680841e+08
   1715000   2.6581009e-10  100385.12      100374.97      104116.04      2.6018832e-06  5.1671583e-07  2.0851674e-06  1.0681391e+08
   1716000   2.6596508e-10  100362.58      100350.71      104666.71      2.6018946e-06  5.1719541e-07  2.0846992e-06  1.0680803e+08
   1717000   2.6612007e-10  100358.91      100347.75      104427.35      2.6018945e-06  5.1727151e-07  2.084623e-06   1.0680748e+08
   1718000   2.6627506e-10  100377.1       100365.38      104633.01      2.6018828e-06  5.1688206e-07  2.0850008e-06  1.068134e+08 
   1719000   2.6643005e-10  100369.59      100357.05      104899.24      2.6019116e-06  5.1706685e-07  2.0848447e-06  1.068144e+08 
   1720000   2.6658504e-10  100360.56      100347.17      105174.72      2.60192e-06    5.1726271e-07  2.0846573e-06  1.0681138e+08
   1721000   2.6674003e-10  100353.9       100338.94      105691.05      2.6019199e-06  5.1740107e-07  2.0845189e-06  1.0681132e+08
   1722000   2.6689503e-10  100364.52      100349.32      105781.49      2.6019008e-06  5.1716136e-07  2.0847394e-06  1.0681103e+08
   1723000   2.6705002e-10  100363.62      100351.68      104693.36      2.6018966e-06  5.1717569e-07  2.0847209e-06  1.0680897e+08
   1724000   2.6720501e-10  100363.88      100353.4       104203.64      2.6018662e-06  5.1714001e-07  2.0847262e-06  1.0680782e+08
   1725000   2.6736e-10     100385.08      100377.71      103185.74      2.601866e-06   5.1669946e-07  2.0851666e-06  1.0681553e+08
   1726000   2.6751499e-10  100369.32      100363.48      102658.31      2.601857e-06   5.1701771e-07  2.0848393e-06  1.0680656e+08
   1727000   2.6766998e-10  100358.18      100349.76      103509.18      2.6018606e-06  5.1725287e-07  2.0846078e-06  1.0680143e+08
   1728000   2.6782497e-10  100350.92      100343.13      103290.49      2.6018596e-06  5.1740255e-07  2.084457e-06   1.0680162e+08
   1729000   2.6797997e-10  100364.98      100357.06      103351.06      2.6018765e-06  5.1712742e-07  2.0847491e-06  1.0680834e+08
   1730000   2.6813496e-10  100358.7       100352.17      102879.53      2.6018938e-06  5.1727506e-07  2.0846187e-06  1.0680834e+08
   1731000   2.6828995e-10  100333.66      100325.98      103240.61      2.6018899e-06  5.1779134e-07  2.0840986e-06  1.0680048e+08
   1732000   2.6844494e-10  100350.54      100343.6       103009.85      2.6018801e-06  5.1743087e-07  2.0844492e-06  1.0680478e+08
   1733000   2.6859993e-10  100360.41      100353.13      103132.94      2.6018702e-06  5.17216e-07    2.0846542e-06  1.0680712e+08
   1734000   2.6875492e-10  100358.95      100353.07      102662.27      2.6018804e-06  5.1725654e-07  2.0846239e-06  1.0680685e+08
   1735000   2.6890991e-10  100345.88      100339.92      102674.24      2.6018922e-06  5.1753992e-07  2.0843523e-06  1.068038e+08 
   1736000   2.690649e-10   100369.58      100363.37      102781.88      2.6018916e-06  5.1704701e-07  2.0848446e-06  1.0681252e+08
   1737000   2.692199e-10   100371.16      100364.26      103017.4       2.6019043e-06  5.170268e-07   2.0848775e-06  1.068123e+08 
   1738000   2.6937489e-10  100368.48      100361.56      103016.99      2.6018863e-06  5.1706453e-07  2.0848218e-06  1.0680895e+08
   1739000   2.6952988e-10  100371.05      100364.03      103055.59      2.6018781e-06  5.1700298e-07  2.0848752e-06  1.0680879e+08
   1740000   2.6968487e-10  100362.64      100357.42      102444.51      2.6018937e-06  5.1719326e-07  2.0847004e-06  1.068083e+08 
   1741000   2.6983986e-10  100374.39      100369.81      102242.12      2.6018791e-06  5.1693446e-07  2.0849446e-06  1.0681314e+08
   1742000   2.6999485e-10  100360.59      100356.18      102171.62      2.6018903e-06  5.1723236e-07  2.084658e-06   1.0681029e+08
   1743000   2.7014984e-10  100363.07      100358.34      102280.66      2.6018987e-06  5.1718921e-07  2.0847094e-06  1.0681092e+08
   1744000   2.7030483e-10  100344.11      100340.58      101862.11      2.6018883e-06  5.1757265e-07  2.0843156e-06  1.0680239e+08
   1745000   2.7045983e-10  100363.25      100359.52      101946.44      2.6018718e-06  5.1715876e-07  2.084713e-06   1.0680697e+08
   1746000   2.7061482e-10  100373.26      100370.51      101626.98      2.6018802e-06  5.1695918e-07  2.084921e-06   1.0680901e+08
   1747000   2.7076981e-10  100364.93      100361.98      101687.03      2.6018871e-06  5.1713914e-07  2.084748e-06   1.0680635e+08
   1748000   2.709248e-10   100359.57      100356.97      101564.03      2.6018786e-06  5.1724192e-07  2.0846367e-06  1.0680873e+08
   1749000   2.7107979e-10  100354.58      100353.2       101149.76      2.6018936e-06  5.1736062e-07  2.084533e-06   1.0680922e+08
   1750000   2.7123478e-10  100356.74      100357.17      100546.03      2.6018987e-06  5.1732087e-07  2.0845778e-06  1.0680939e+08
   1751000   2.7138977e-10  100348.27      100348.19      100708.35      2.6019139e-06  5.1751202e-07  2.0844019e-06  1.0680703e+08
   1752000   2.7154477e-10  100366.72      100367.22      100535.72      2.6019043e-06  5.1711918e-07  2.0847852e-06  1.0681106e+08
   1753000   2.7169976e-10  100363.44      100365.66      99957.927      2.6018957e-06  5.1717864e-07  2.0847171e-06  1.0680822e+08
   1754000   2.7185475e-10  100365.36      100365.07      100798.01      2.6018904e-06  5.1713346e-07  2.0847569e-06  1.0681003e+08
   1755000   2.7200974e-10  100367.31      100364.29      101712.06      2.6018853e-06  5.1708784e-07  2.0847974e-06  1.0681037e+08
   1756000   2.7216473e-10  100371.73      100368.93      101642.02      2.6018719e-06  5.1698269e-07  2.0848892e-06  1.068095e+08 
   1757000   2.7231972e-10  100361.61      100360.14      101190.94      2.6018752e-06  5.1719608e-07  2.0846791e-06  1.068079e+08 
   1758000   2.7247471e-10  100362.44      100360.95      101193.92      2.6018802e-06  5.1718395e-07  2.0846962e-06  1.0680752e+08
   1759000   2.726297e-10   100365.28      100363.55      101278.53      2.6018802e-06  5.1712494e-07  2.0847553e-06  1.0680976e+08
   1760000   2.727847e-10   100363.88      100362.26      101242.34      2.6018789e-06  5.1715258e-07  2.0847263e-06  1.0680755e+08
   1761000   2.7293969e-10  100388.34      100386.96      101185.45      2.6018691e-06  5.1663469e-07  2.0852344e-06  1.0681383e+08
   1762000   2.7309468e-10  100358.16      100356.99      101087.4       2.6018773e-06  5.1726988e-07  2.0846075e-06  1.0680424e+08
   1763000   2.7324967e-10  100350.71      100350.72      100683.55      2.6018845e-06  5.1743191e-07  2.0844526e-06  1.0680458e+08
   1764000   2.7340466e-10  100387.85      100390.29      99905.329      2.6018966e-06  5.1667253e-07  2.085224e-06   1.0681793e+08
   1765000   2.7355965e-10  100376.6       100381.08      99211.747      2.6018983e-06  5.1690794e-07  2.0849904e-06  1.0681364e+08
   1766000   2.7371464e-10  100363.18      100366.61      99552.401      2.6018955e-06  5.1718376e-07  2.0847118e-06  1.0681014e+08
   1767000   2.7386963e-10  100368.34      100371.83      99536.8        2.6018971e-06  5.1707822e-07  2.0848189e-06  1.0681243e+08
   1768000   2.7402463e-10  100365.64      100368.57      99721.63       2.6018862e-06  5.1712336e-07  2.0847628e-06  1.0680813e+08
   1769000   2.7417962e-10  100375.67      100377.81      99996.141      2.6018984e-06  5.1692721e-07  2.0849712e-06  1.0681522e+08
   1770000   2.7433461e-10  100382.88      100385.74      99763.781      2.6019121e-06  5.1679119e-07  2.0851209e-06  1.0681796e+08
   1771000   2.744896e-10   100369.79      100374.79      99032.179      2.6019086e-06  5.1705971e-07  2.0848489e-06  1.0681292e+08
   1772000   2.7464459e-10  100351.75      100354.34      99821.708      2.6018905e-06  5.174162e-07   2.0844743e-06  1.0680473e+08
   1773000   2.7479958e-10  100366.24      100366.88      100485.02      2.6018911e-06  5.1711592e-07  2.0847752e-06  1.0680797e+08
   1774000   2.7495457e-10  100352.41      100352.57      100634.67      2.6018958e-06  5.1740783e-07  2.084488e-06   1.0680383e+08
   1775000   2.7510957e-10  100365.06      100366.6       100184.95      2.6018864e-06  5.1713557e-07  2.0847508e-06  1.0680929e+08
   1776000   2.7526456e-10  100380.45      100381.89      100234.67      2.6018998e-06  5.1682937e-07  2.0850704e-06  1.0681522e+08
   1777000   2.7541955e-10  100385.15      100385.77      100514.03      2.6019088e-06  5.1674083e-07  2.085168e-06   1.0681667e+08
   1778000   2.7557454e-10  100369.66      100368.63      101048.43      2.6018989e-06  5.1705268e-07  2.0848463e-06  1.0681214e+08
   1779000   2.7572953e-10  100365.88      100363.69      101433.59      2.6019e-06     5.1713225e-07  2.0847678e-06  1.0681302e+08
   1780000   2.7588452e-10  100350.75      100346.41      102136.88      2.6018995e-06  5.174461e-07   2.0844534e-06  1.0680777e+08
   1781000   2.7603951e-10  100337.83      100332.79      102359.76      2.6019136e-06  5.1772845e-07  2.0841851e-06  1.0680544e+08
   1782000   2.761945e-10   100359.39      100354.34      102383.02      2.6019107e-06  5.1727785e-07  2.0846329e-06  1.0681272e+08
   1783000   2.763495e-10   100365.35      100360.33      102381.01      2.6019051e-06  5.1714829e-07  2.0847568e-06  1.0681394e+08
   1784000   2.7650449e-10  100367.67      100362.05      102584.69      2.6019088e-06  5.1710382e-07  2.084805e-06   1.0681349e+08
   1785000   2.7665948e-10  100349.14      100343.69      102506.83      2.601874e-06   5.1745394e-07  2.08442e-06    1.0680166e+08
   1786000   2.7681447e-10  100395.94      100392.57      101861.23      2.601871e-06   5.1647872e-07  2.0853923e-06  1.0681417e+08
   1787000   2.7696946e-10  100376.54      100374.06      101541.07      2.6018801e-06  5.1689086e-07  2.0849892e-06  1.0680938e+08
   1788000   2.7712445e-10  100361.91      100360.24      101255         2.60188e-06    5.1719464e-07  2.0846853e-06  1.0680557e+08
   1789000   2.7727944e-10  100386.81      100383.86      101710.8       2.6018735e-06  5.1667099e-07  2.0852025e-06  1.0681407e+08
   1790000   2.7743443e-10  100359.77      100358.07      101264.6       2.6018927e-06  5.1725187e-07  2.0846409e-06  1.0680811e+08
   1791000   2.7758943e-10  100348.48      100346.92      101208.7       2.6018882e-06  5.1748176e-07  2.0844064e-06  1.0680471e+08
   1792000   2.7774442e-10  100366.34      100365.07      101124.27      2.6018922e-06  5.1711499e-07  2.0847772e-06  1.0681182e+08
   1793000   2.7789941e-10  100370.17      100367.46      101612.64      2.6018938e-06  5.1703683e-07  2.0848569e-06  1.0681374e+08
   1794000   2.780544e-10   100359.29      100355.34      102015.62      2.6018877e-06  5.1725689e-07  2.0846308e-06  1.0680718e+08
   1795000   2.7820939e-10  100373.3       100370.18      101753.07      2.601888e-06   5.1696612e-07  2.0849219e-06  1.0681008e+08
   1796000   2.7836438e-10  100380.59      100376.07      102229.58      2.601885e-06   5.1681161e-07  2.0850734e-06  1.0681151e+08
   1797000   2.7851937e-10  100378.83      100374.44      102182.06      2.6018924e-06  5.1685569e-07  2.0850367e-06  1.0681269e+08
   1798000   2.7867437e-10  100378.8       100374.87      102029.14      2.6019074e-06  5.1687126e-07  2.0850362e-06  1.0681398e+08
   1799000   2.7882936e-10  100379.88      100375.07      102321.22      2.6018915e-06  5.16833e-07    2.0850585e-06  1.0681359e+08
   1800000   2.7898435e-10  100366.97      100362.4       102232.19      2.6018974e-06  5.17107e-07    2.0847904e-06  1.0680936e+08
   1801000   2.7913934e-10  100346.35      100341.82      102196.63      2.6019008e-06  5.1753879e-07  2.084362e-06   1.0680436e+08
   1802000   2.7929433e-10  100358         100355.28      101604.53      2.6019013e-06  5.1729723e-07  2.0846041e-06  1.0680973e+08
   1803000   2.7944932e-10  100356.56      100356.13      100836.41      2.6019157e-06  5.1734156e-07  2.0845741e-06  1.0681039e+08
   1804000   2.7960431e-10  100362.6       100362.52      100723.18      2.6019277e-06  5.1722816e-07  2.0846995e-06  1.0681438e+08
   1805000   2.797593e-10   100356.53      100356.2       100802.99      2.6019266e-06  5.1735305e-07  2.0845736e-06  1.06811e+08  
   1806000   2.799143e-10   100359.18      100357.99      101090.08      2.6019182e-06  5.1728964e-07  2.0846285e-06  1.068116e+08 
   1807000   2.8006929e-10  100375.09      100374.1       101041.81      2.6019031e-06  5.1694399e-07  2.0849591e-06  1.0681516e+08
   1808000   2.8022428e-10  100381.66      100378.21      101872.15      2.6019003e-06  5.1680478e-07  2.0850955e-06  1.0681565e+08
   1809000   2.8037927e-10  100365.55      100360.92      102249.36      2.601897e-06   5.1713607e-07  2.0847609e-06  1.0681016e+08
   1810000   2.8053426e-10  100356.88      100350.97      102670.79      2.6018969e-06  5.1731602e-07  2.0845809e-06  1.0680566e+08
   1811000   2.8068925e-10  100362.11      100356.09      102709.8       2.6018845e-06  5.1719514e-07  2.0846894e-06  1.0680722e+08
   1812000   2.8084424e-10  100363.51      100357.87      102583.78      2.6019061e-06  5.1718764e-07  2.0847184e-06  1.0681009e+08
   1813000   2.8099923e-10  100365.35      100358.98      102832.66      2.6019032e-06  5.1714642e-07  2.0847568e-06  1.0681114e+08
   1814000   2.8115423e-10  100368.5       100362.48      102716.43      2.6018977e-06  5.1707558e-07  2.0848221e-06  1.0681059e+08
   1815000   2.8130922e-10  100342.78      100335.11      103242.23      2.6018972e-06  5.1760927e-07  2.0842879e-06  1.0680284e+08
   1816000   2.8146421e-10  100365.88      100357.88      103375.16      2.6018892e-06  5.1712151e-07  2.0847677e-06  1.0680924e+08
   1817000   2.816192e-10   100366.91      100359.83      103072.31      2.6018862e-06  5.1709699e-07  2.0847892e-06  1.0680663e+08
   1818000   2.8177419e-10  100383.08      100376.5       102920.47      2.6018655e-06  5.1674039e-07  2.0851251e-06  1.0680929e+08
   1819000   2.8192918e-10  100379.54      100371.36      103449.64      2.6018632e-06  5.1681171e-07  2.0850515e-06  1.0680828e+08
   1820000   2.8208417e-10  100381.17      100371.62      103911.63      2.6018984e-06  5.1681308e-07  2.0850854e-06  1.0681361e+08
   1821000   2.8223917e-10  100370.88      100361.75      103760.17      2.6019036e-06  5.1703203e-07  2.0848716e-06  1.0681336e+08
   1822000   2.8239416e-10  100370.45      100361.25      103781.87      2.6018946e-06  5.17032e-07    2.0848626e-06  1.0681316e+08
   1823000   2.8254915e-10  100370.85      100361.96      103681.97      2.6018909e-06  5.1701982e-07  2.084871e-06   1.068118e+08 
   1824000   2.8270414e-10  100361.78      100353.59      103438.87      2.6018938e-06  5.1721115e-07  2.0846827e-06  1.0680925e+08
   1825000   2.8285913e-10  100358.81      100351.5       103138.89      2.601884e-06   5.1726307e-07  2.084621e-06   1.0680712e+08
   1826000   2.8301412e-10  100374.71      100368.43      102811.32      2.60189e-06    5.1693878e-07  2.0849513e-06  1.0681315e+08
   1827000   2.8316911e-10  100371.17      100364.78      102842.53      2.6018905e-06  5.1701293e-07  2.0848776e-06  1.0681024e+08
   1828000   2.833241e-10   100376.57      100369         103241.72      2.6018771e-06  5.1688734e-07  2.0849897e-06  1.0680973e+08
   1829000   2.834791e-10   100386.92      100379.63      103163.8       2.6018711e-06  5.1666618e-07  2.0852049e-06  1.0681061e+08
   1830000   2.8363409e-10  100375.88      100369.1       102975.88      2.6018755e-06  5.1690013e-07  2.0849754e-06  1.0680876e+08
   1831000   2.8378908e-10  100359.78      100352.65      103080.17      2.6018968e-06  5.172557e-07   2.0846411e-06  1.0680782e+08
   1832000   2.8394407e-10  100363.35      100357.98      102495.63      2.6018974e-06  5.1718219e-07  2.0847152e-06  1.0681077e+08
   1833000   2.8409906e-10  100354.98      100349.17      102632.41      2.601876e-06   5.1733467e-07  2.0845413e-06  1.0680422e+08
   1834000   2.8425405e-10  100367.81      100359.56      103465         2.6018878e-06  5.1707987e-07  2.0848079e-06  1.0680859e+08
   1835000   2.8440904e-10  100381.98      100375.15      103002.14      2.6018876e-06  5.1678532e-07  2.0851022e-06  1.0681661e+08
   1836000   2.8456403e-10  100370.21      100363.46      102965.08      2.6019068e-06  5.1704899e-07  2.0848578e-06  1.0681329e+08
   1837000   2.8471903e-10  100367.23      100360.3       103020.22      2.6018999e-06  5.1710404e-07  2.0847958e-06  1.0680974e+08
   1838000   2.8487402e-10  100370.59      100365.06      102553.16      2.6018844e-06  5.1701882e-07  2.0848655e-06  1.0680692e+08
   1839000   2.8502901e-10  100379.13      100373.77      102506.8       2.6018802e-06  5.1683719e-07  2.085043e-06   1.0681143e+08
   1840000   2.85184e-10    100369.28      100362.72      102898.47      2.6019013e-06  5.1706295e-07  2.0848384e-06  1.0681063e+08
   1841000   2.8533899e-10  100343.76      100337.94      102623.95      2.6019043e-06  5.1759607e-07  2.0843083e-06  1.0680204e+08
   1842000   2.8549398e-10  100365.26      100358.48      102968.08      2.6019207e-06  5.1716585e-07  2.0847548e-06  1.0681136e+08
   1843000   2.8564897e-10  100361.67      100354.53      103085.57      2.6019093e-06  5.17229e-07    2.0846803e-06  1.0680821e+08
   1844000   2.8580397e-10  100389.08      100380.59      103563.17      2.6018818e-06  5.1663219e-07  2.0852497e-06  1.0681553e+08
   1845000   2.8595896e-10  100375.29      100366.74      103571.14      2.6018803e-06  5.169171e-07   2.0849632e-06  1.0681018e+08
   1846000   2.8611395e-10  100372.16      100362.9       103804.97      2.6018683e-06  5.1697011e-07  2.0848982e-06  1.0680897e+08
   1847000   2.8626894e-10  100365.58      100354.7       104341.22      2.6018707e-06  5.1710907e-07  2.0847616e-06  1.0680688e+08
   1848000   2.8642393e-10  100372.06      100361.09      104377.56      2.6018769e-06  5.1698078e-07  2.0848961e-06  1.068094e+08 
   1849000   2.8657892e-10  100361.21      100350.41      104307.47      2.6018776e-06  5.1720686e-07  2.0846707e-06  1.0680563e+08
   1850000   2.8673391e-10  100368.64      100358.44      104116.13      2.6018953e-06  5.170702e-07   2.0848251e-06  1.0680993e+08
   1851000   2.868889e-10   100344.25      100336.34      103326.78      2.6018938e-06  5.1757525e-07  2.0843186e-06  1.0680358e+08
   1852000   2.870439e-10   100369.13      100363.61      102551.8       2.6018833e-06  5.1704797e-07  2.0848353e-06  1.0681148e+08
   1853000   2.8719889e-10  100366.36      100360.61      102623.72      2.6018959e-06  5.1711823e-07  2.0847777e-06  1.0681039e+08
   1854000   2.8735388e-10  100359.32      100354.26      102388.08      2.60189e-06    5.1725849e-07  2.0846316e-06  1.0680588e+08
   1855000   2.8750887e-10  100378.84      100374.74      102087.02      2.6018799e-06  5.1684291e-07  2.085037e-06   1.0680954e+08
   1856000   2.8766386e-10  100377.82      100373.84      102043.56      2.601878e-06   5.1686235e-07  2.0850157e-06  1.0681022e+08
   1857000   2.8781885e-10  100376.17      100372.45      101955.6       2.6018964e-06  5.1691496e-07  2.0849815e-06  1.0681199e+08
   1858000   2.8797384e-10  100370.52      100365.1       102518.01      2.6018961e-06  5.1703195e-07  2.0848641e-06  1.0681177e+08
   1859000   2.8812883e-10  100363.66      100357.52      102751.21      2.6018924e-06  5.1717083e-07  2.0847216e-06  1.0681037e+08
   1860000   2.8828383e-10  100350.09      100342.1       103358.43      2.6019001e-06  5.1746034e-07  2.0844398e-06  1.0680569e+08
   1861000   2.8843882e-10  100355.71      100348         103270.54      2.6018909e-06  5.1733446e-07  2.0845565e-06  1.0680702e+08
   1862000   2.8859381e-10  100348.39      100343.26      102401.8       2.6018948e-06  5.174903e-07   2.0844045e-06  1.0680519e+08
   1863000   2.887488e-10   100363.2       100359.11      102067.82      2.6019073e-06  5.1719514e-07  2.0847121e-06  1.0681274e+08
   1864000   2.8890379e-10  100342.02      100337.8       102091.51      2.6019213e-06  5.176491e-07   2.0842722e-06  1.0680623e+08
   1865000   2.8905878e-10  100367.79      100362.2       102572.57      2.601922e-06   5.1711451e-07  2.0848075e-06  1.0681272e+08
   1866000   2.8921377e-10  100379.12      100372.63      102885.21      2.6018938e-06  5.1685098e-07  2.0850428e-06  1.0681349e+08
   1867000   2.8936877e-10  100380.68      100372.78      103358.07      2.6018744e-06  5.1679927e-07  2.0850751e-06  1.0681123e+08
   1868000   2.8952376e-10  100374.31      100364.2       104090.81      2.6018739e-06  5.1693097e-07  2.0849429e-06  1.0680813e+08
   1869000   2.8967875e-10  100384.7       100373.05      104617.31      2.6019053e-06  5.1674658e-07  2.0851587e-06  1.068178e+08 
   1870000   2.8983374e-10  100361.74      100348.82      105017.74      2.6019156e-06  5.1723396e-07  2.0846817e-06  1.0681195e+08
   1871000   2.8998873e-10  100366.95      100352.05      105685.1       2.601889e-06   5.1709913e-07  2.0847899e-06  1.0681007e+08
   1872000   2.9014372e-10  100373.22      100356.53      106290.63      2.6018828e-06  5.1696264e-07  2.0849201e-06  1.0681026e+08
   1873000   2.9029871e-10  100361.48      100344.8       106273.2       2.6018825e-06  5.1720615e-07  2.0846763e-06  1.0680741e+08
   1874000   2.904537e-10   100356.68      100339.12      106566.89      2.601884e-06   5.1730738e-07  2.0845767e-06  1.0680985e+08
   1875000   2.906087e-10   100364.2       100347.28      106355.85      2.6018896e-06  5.1715686e-07  2.0847328e-06  1.0680948e+08
   1876000   2.9076369e-10  100362.76      100344.88      106677.53      2.601886e-06   5.1718307e-07  2.0847029e-06  1.0680648e+08
   1877000   2.9091868e-10  100363.26      100344.72      106898.62      2.6019014e-06  5.1718809e-07  2.0847133e-06  1.0680834e+08
   1878000   2.9107367e-10  100376.76      100357.17      107265.68      2.6018933e-06  5.1689943e-07  2.0849938e-06  1.0681473e+08
   1879000   2.9122866e-10  100359.29      100339.6       107279.7       2.6018907e-06  5.172598e-07   2.0846309e-06  1.0680951e+08
   1880000   2.9138365e-10  100363.64      100344.41      107133.77      2.6019007e-06  5.1717934e-07  2.0847213e-06  1.068123e+08 
   1881000   2.9153864e-10  100348.15      100329.69      106858.25      2.6019061e-06  5.1750662e-07  2.0843995e-06  1.0680655e+08
   1882000   2.9169363e-10  100363.81      100345.58      106796.15      2.6019041e-06  5.1717931e-07  2.0847247e-06  1.0681209e+08
   1883000   2.9184863e-10  100365.98      100348.94      106400.46      2.6019098e-06  5.1714006e-07  2.0847697e-06  1.0681295e+08
   1884000   2.9200362e-10  100375.19      100357.95      106477.96      2.6019058e-06  5.1694468e-07  2.0849612e-06  1.0681401e+08
   1885000   2.9215861e-10  100361.77      100343.44      106828.09      2.6019031e-06  5.1722069e-07  2.0846824e-06  1.0680903e+08
   1886000   2.923136e-10   100360.35      100341.63      106955.83      2.6018999e-06  5.1724715e-07  2.0846528e-06  1.0681021e+08
   1887000   2.9246859e-10  100357.82      100338.06      107303.66      2.6018914e-06  5.1729107e-07  2.0846004e-06  1.0680712e+08
   1888000   2.9262358e-10  100378.07      100358.55      107244.76      2.6019196e-06  5.1689849e-07  2.0850211e-06  1.0681648e+08
   1889000   2.9277857e-10  100356.51      100336.69      107321.99      2.6019085e-06  5.1733528e-07  2.0845732e-06  1.0681014e+08
   1890000   2.9293357e-10  100370.51      100350.28      107469.39      2.6018938e-06  5.1702998e-07  2.0848638e-06  1.068124e+08 
   1891000   2.9308856e-10  100358.71      100337.33      107843.16      2.6019006e-06  5.1728178e-07  2.0846188e-06  1.0680855e+08
   1892000   2.9324355e-10  100362.24      100340.5       107969.99      2.6019091e-06  5.1721694e-07  2.0846921e-06  1.0681169e+08
   1893000   2.9339854e-10  100377.24      100353.83      108541.07      2.6018869e-06  5.1688318e-07  2.0850037e-06  1.0681242e+08
   1894000   2.9355353e-10  100382.28      100358.12      108800         2.6018687e-06  5.1676024e-07  2.0851085e-06  1.0681251e+08
   1895000   2.9370852e-10  100347.56      100324.12      108523         2.6018817e-06  5.1749449e-07  2.0843872e-06  1.068011e+08 
   1896000   2.9386351e-10  100352.05      100329.75      108146.35      2.6019102e-06  5.1742971e-07  2.0844805e-06  1.0680604e+08
   1897000   2.940185e-10   100383.37      100362.47      107709.06      2.6019008e-06  5.1676972e-07  2.0851311e-06  1.0681713e+08
   1898000   2.941735e-10   100378.19      100358.25      107381.96      2.6018993e-06  5.1687591e-07  2.0850234e-06  1.0681206e+08
   1899000   2.9432849e-10  100391.16      100371.72      107228.69      2.6018812e-06  5.1658827e-07  2.0852929e-06  1.0681483e+08
   1900000   2.9448348e-10  100365.15      100345.06      107420.92      2.6018798e-06  5.1712724e-07  2.0847526e-06  1.0680642e+08
   1901000   2.9463847e-10  100365.77      100347.39      106849.88      2.6018958e-06  5.1713038e-07  2.0847655e-06  1.0680904e+08
   1902000   2.9479346e-10  100365.64      100347.17      106881.18      2.6018875e-06  5.1712467e-07  2.0847628e-06  1.0680994e+08
   1903000   2.9494845e-10  100364.12      100345.85      106809.64      2.6019037e-06  5.1717256e-07  2.0847312e-06  1.0680948e+08
   1904000   2.9510344e-10  100361.9       100343.82      106745.72      2.6019068e-06  5.1722164e-07  2.0846851e-06  1.0680942e+08
   1905000   2.9525843e-10  100363.73      100347.21      106224.29      2.6018918e-06  5.1716863e-07  2.0847232e-06  1.0680828e+08
   1906000   2.9541343e-10  100382.22      100368.85      105191.36      2.6018773e-06  5.1677011e-07  2.0851072e-06  1.0681214e+08
   1907000   2.9556842e-10  100358.94      100341.5       106528.14      2.6018821e-06  5.1725851e-07  2.0846236e-06  1.068047e+08 
   1908000   2.9572341e-10  100366.86      100349.65      106461.26      2.6018941e-06  5.1710593e-07  2.0847882e-06  1.068091e+08 
   1909000   2.958784e-10   100376.37      100359.88      106228.37      2.6018773e-06  5.1689153e-07  2.0849858e-06  1.0680983e+08
   1910000   2.9603339e-10  100369.68      100352.84      106336.68      2.6018683e-06  5.1702167e-07  2.0848467e-06  1.068074e+08 
   1911000   2.9618838e-10  100371.28      100354.83      106210.57      2.6018811e-06  5.1700111e-07  2.08488e-06    1.0681049e+08
   1912000   2.9634337e-10  100372.21      100354.95      106480.17      2.6018624e-06  5.1696323e-07  2.0848992e-06  1.0681002e+08
   1913000   2.9649837e-10  100355.64      100340         105921.96      2.6018867e-06  5.1733164e-07  2.0845551e-06  1.0680523e+08
   1914000   2.9665336e-10  100365.82      100348.88      106369.44      2.6018964e-06  5.1712982e-07  2.0847666e-06  1.0681082e+08
   1915000   2.9680835e-10  100374.79      100356.59      106796.7       2.6018807e-06  5.1692788e-07  2.0849528e-06  1.0681135e+08
   1916000   2.9696334e-10  100358.18      100339.73      106864.17      2.6018825e-06  5.1727478e-07  2.0846078e-06  1.0680495e+08
   1917000   2.9711833e-10  100356.87      100339.36      106548.83      2.6018813e-06  5.1730075e-07  2.0845806e-06  1.068063e+08 
   1918000   2.9727332e-10  100361.35      100345.33      106052.02      2.6018892e-06  5.1721566e-07  2.0846736e-06  1.0680832e+08
   1919000   2.9742831e-10  100364.67      100346.39      106814.31      2.6019e-06     5.1715735e-07  2.0847427e-06  1.0681018e+08
   1920000   2.975833e-10   100373.56      100353.75      107336.84      2.6018999e-06  5.1697254e-07  2.0849273e-06  1.0681401e+08
   1921000   2.977383e-10   100386.53      100364.56      108068.14      2.6019017e-06  5.167051e-07   2.0851966e-06  1.0681751e+08
   1922000   2.9789329e-10  100368.28      100346.15      108103.77      2.6018928e-06  5.1707513e-07  2.0848176e-06  1.0681101e+08
   1923000   2.9804828e-10  100356.91      100334.91      108052.66      2.6018895e-06  5.1730794e-07  2.0845815e-06  1.0680852e+08
   1924000   2.9820327e-10  100341.4       100316.9       108868.87      2.601924e-06   5.1766478e-07  2.0842592e-06  1.0680656e+08
   1925000   2.9835826e-10  100351         100326.11      109012.18      2.6019186e-06  5.1745991e-07  2.0844587e-06  1.068101e+08 
   1926000   2.9851325e-10  100377.25      100352.88      108864.83      2.6019171e-06  5.1691312e-07  2.085004e-06   1.0681669e+08
   1927000   2.9866824e-10  100375.72      100351.4       108844.93      2.6019077e-06  5.1693551e-07  2.0849722e-06  1.0681448e+08
   1928000   2.9882323e-10  100362.77      100339.82      108374.54      2.6019027e-06  5.1719949e-07  2.0847032e-06  1.068094e+08 
   1929000   2.9897823e-10  100355.46      100329.64      109325.36      2.6019125e-06  5.1736113e-07  2.0845513e-06  1.0680754e+08
   1930000   2.9913322e-10  100363.62      100339.3       108834.45      2.6019054e-06  5.171846e-07   2.0847208e-06  1.0681197e+08
   1931000   2.9928821e-10  100349.34      100325.04      108812.27      2.6018989e-06  5.1747476e-07  2.0844241e-06  1.0680553e+08
   1932000   2.994432e-10   100373.95      100348.35      109272.59      2.6019016e-06  5.1696616e-07  2.0849354e-06  1.0681245e+08
   1933000   2.9959819e-10  100365.91      100338.95      109719.6       2.6018952e-06  5.1712676e-07  2.0847685e-06  1.0680944e+08
   1934000   2.9975318e-10  100376.74      100349.43      109844.47      2.6018996e-06  5.169064e-07   2.0849932e-06  1.0681294e+08
   1935000   2.9990817e-10  100382.36      100355.2       109799.75      2.6019041e-06  5.1679413e-07  2.08511e-06    1.0681511e+08
   1936000   3.0006317e-10  100367.16      100339.81      109848.78      2.6019174e-06  5.1712318e-07  2.0847943e-06  1.0681273e+08
   1937000   3.0021816e-10  100357.04      100328.85      110121.94      2.601897e-06   5.1731288e-07  2.0845842e-06  1.0680959e+08
   1938000   3.0037315e-10  100370.78      100343.74      109748.69      2.6018994e-06  5.1702991e-07  2.0848695e-06  1.0681287e+08
   1939000   3.0052814e-10  100352.22      100324.57      109937.36      2.6018867e-06  5.1740266e-07  2.0844841e-06  1.0680516e+08
   1940000   3.0068313e-10  100356.33      100330.21      109427.73      2.60188e-06    5.1731073e-07  2.0845693e-06  1.0680454e+08
   1941000   3.0083812e-10  100370.69      100345.28      109203.09      2.6018796e-06  5.1701198e-07  2.0848676e-06  1.0681015e+08
   1942000   3.0099311e-10  100358.94      100333.79      109105.84      2.6018938e-06  5.1727028e-07  2.0846236e-06  1.0680669e+08
   1943000   3.011481e-10   100375.05      100347.94      109777.13      2.6018786e-06  5.169204e-07   2.0849582e-06  1.0681013e+08
   1944000   3.013031e-10   100364.3       100338.14      109450.4       2.601893e-06   5.1715804e-07  2.084735e-06   1.0680714e+08
   1945000   3.0145809e-10  100379.63      100352.53      109778.39      2.6018883e-06  5.1683492e-07  2.0850534e-06  1.0681472e+08
   1946000   3.0161308e-10  100371.89      100344.63      109825.76      2.6018955e-06  5.1700277e-07  2.0848927e-06  1.0681241e+08
   1947000   3.0176807e-10  100359.78      100332.35      109867.75      2.6018792e-06  5.1723818e-07  2.0846411e-06  1.0680613e+08
   1948000   3.0192306e-10  100378.05      100351.26      109674.85      2.6018877e-06  5.1686707e-07  2.0850206e-06  1.0681355e+08
   1949000   3.0207805e-10  100344.59      100317.56      109721.53      2.6018871e-06  5.1756152e-07  2.0843256e-06  1.0680265e+08
   1950000   3.0223304e-10  100348.97      100321.63      109827.91      2.6019075e-06  5.1749099e-07  2.0844165e-06  1.06806e+08  
   1951000   3.0238803e-10  100363.98      100337.12      109682.21      2.6018993e-06  5.1717107e-07  2.0847282e-06  1.0680896e+08
   1952000   3.0254303e-10  100373.22      100345.68      109919.43      2.6018906e-06  5.1697045e-07  2.0849202e-06  1.0680995e+08
   1953000   3.0269802e-10  100371.31      100343.21      110103.27      2.601874e-06   5.169935e-07   2.0848805e-06  1.0680893e+08
   1954000   3.0285301e-10  100368.61      100340.11      110235.48      2.60188e-06    5.1705559e-07  2.0848244e-06  1.068084e+08 
   1955000   3.03008e-10    100382.71      100353.67      110430.23      2.6018737e-06  5.1675633e-07  2.0851174e-06  1.0681189e+08
   1956000   3.0316299e-10  100382.47      100351.43      111098.25      2.6018553e-06  5.167429e-07   2.0851124e-06  1.0681042e+08
   1957000   3.0331798e-10  100371.36      100341.39      110730.94      2.6018698e-06  5.1698828e-07  2.0848815e-06  1.068077e+08 
   1958000   3.0347297e-10  100386.19      100354.55      111302.05      2.6018854e-06  5.1669582e-07  2.0851896e-06  1.0681442e+08
   1959000   3.0362797e-10  100371.29      100339.24      111426.28      2.6018868e-06  5.1700665e-07  2.0848801e-06  1.0681018e+08
   1960000   3.0378296e-10  100373.47      100341.36      111449.21      2.6019144e-06  5.1698897e-07  2.0849254e-06  1.0681513e+08
   1961000   3.0393795e-10  100354.51      100322.83      111283.87      2.6019017e-06  5.1737013e-07  2.0845316e-06  1.0680763e+08
   1962000   3.0409294e-10  100347.35      100315.24      111422.2       2.6018913e-06  5.175085e-07   2.0843828e-06  1.0680689e+08
   1963000   3.0424793e-10  100359.8       100327.86      111377.3       2.6018933e-06  5.172518e-07   2.0846415e-06  1.0680944e+08
   1964000   3.0440292e-10  100374.95      100343.29      111296.96      2.6019073e-06  5.1695121e-07  2.0849561e-06  1.0681426e+08
   1965000   3.0455791e-10  100353.25      100322.02      111132.69      2.6019093e-06  5.1740394e-07  2.0845054e-06  1.0680729e+08
   1966000   3.047129e-10   100362.01      100331.18      111008.52      2.6019031e-06  5.1721567e-07  2.0846874e-06  1.0681137e+08
   1967000   3.048679e-10   100362.43      100331.51      111040.86      2.6019007e-06  5.1720452e-07  2.0846962e-06  1.068102e+08 
   1968000   3.0502289e-10  100369.19      100337.38      111346.15      2.6018887e-06  5.1705208e-07  2.0848366e-06  1.068106e+08 
   1969000   3.0517788e-10  100361.2       100329.27      111375.63      2.6018852e-06  5.1721461e-07  2.0846706e-06  1.0680698e+08
   1970000   3.0533287e-10  100360.78      100327.51      111822.92      2.6018646e-06  5.172028e-07   2.0846618e-06  1.0680613e+08
   1971000   3.0548786e-10  100368.58      100335.62      111729.76      2.6018704e-06  5.1704649e-07  2.0848239e-06  1.0680788e+08
   1972000   3.0564285e-10  100393.25      100361.7       111278.7       2.6018613e-06  5.1652507e-07  2.0853362e-06  1.0681516e+08
   1973000   3.0579784e-10  100374.52      100345.93      110271.55      2.6018801e-06  5.1693281e-07  2.0849473e-06  1.0680991e+08
   1974000   3.0595283e-10  100364.56      100336.65      110037.01      2.601876e-06   5.1713554e-07  2.0847404e-06  1.0680595e+08
   1975000   3.0610783e-10  100381.7       100352.22      110578.11      2.6018569e-06  5.1676048e-07  2.0850965e-06  1.0680801e+08
   1976000   3.0626282e-10  100382.1       100351.49      110953.79      2.6018915e-06  5.1678688e-07  2.0851046e-06  1.0681187e+08
   1977000   3.0641781e-10  100369.9       100339.99      110706.33      2.6018755e-06  5.170243e-07   2.0848512e-06  1.0680772e+08
   1978000   3.065728e-10   100378.85      100347.75      111115.15      2.6019003e-06  5.1686312e-07  2.0850372e-06  1.0681298e+08
   1979000   3.0672779e-10  100362.55      100331.58      111055.42      2.6018907e-06  5.1719212e-07  2.0846986e-06  1.0680761e+08
   1980000   3.0688278e-10  100362.38      100330.98      111198.16      2.6018944e-06  5.1719945e-07  2.084695e-06   1.0680971e+08
   1981000   3.0703777e-10  100351.81      100319.03      111648.54      2.6018877e-06  5.1741227e-07  2.0844755e-06  1.0680713e+08
   1982000   3.0719277e-10  100359.52      100323.84      112627.91      2.6019087e-06  5.1727306e-07  2.0846357e-06  1.0681099e+08
   1983000   3.0734776e-10  100360.06      100324.99      112426.3       2.60191e-06    5.1726318e-07  2.0846469e-06  1.0681111e+08
   1984000   3.0750275e-10  100358.19      100324.64      111917.03      2.601916e-06   5.1730785e-07  2.0846081e-06  1.0681093e+08
   1985000   3.0765774e-10  100365.99      100331.58      112208.71      2.6019215e-06  5.1715141e-07  2.0847701e-06  1.0681489e+08
   1986000   3.0781273e-10  100361.86      100328.37      111899.33      2.6019236e-06  5.1723933e-07  2.0846843e-06  1.0681387e+08
   1987000   3.0796772e-10  100353.26      100318.77      112223.53      2.6019265e-06  5.1742086e-07  2.0845057e-06  1.06812e+08  
   1988000   3.0812271e-10  100355.18      100322.05      111773.08      2.6019081e-06  5.1736259e-07  2.0845455e-06  1.0681177e+08
   1989000   3.082777e-10   100365.27      100334.87      110870.54      2.6018763e-06  5.1712118e-07  2.0847552e-06  1.0680847e+08
   1990000   3.084327e-10   100362.8       100333.13      110623.7       2.6018808e-06  5.171769e-07   2.0847038e-06  1.0680546e+08
   1991000   3.0858769e-10  100356.97      100325.7       111150.48      2.6018834e-06  5.1730064e-07  2.0845828e-06  1.0680662e+08
   1992000   3.0874268e-10  100363.09      100331.6       111231.7       2.6019092e-06  5.1719928e-07  2.0847099e-06  1.0681053e+08
   1993000   3.0889767e-10  100370.17      100339.47      110975.29      2.6019076e-06  5.1705068e-07  2.0848569e-06  1.0681128e+08
   1994000   3.0905266e-10  100373.73      100342.71      111083.46      2.6019077e-06  5.1697684e-07  2.0849309e-06  1.0681138e+08
   1995000   3.0920765e-10  100356.73      100327.83      110358.16      2.6018826e-06  5.1730484e-07  2.0845777e-06  1.0680269e+08
   1996000   3.0936264e-10  100373.12      100347.75      109193.52      2.6019015e-06  5.1698336e-07  2.0849182e-06  1.0681019e+08
   1997000   3.0951763e-10  100360.24      100335.33      109027.1       2.601888e-06   5.1723733e-07  2.0846507e-06  1.0680642e+08
   1998000   3.0967263e-10  100361.26      100336.23      109069.81      2.6018627e-06  5.1719082e-07  2.0846718e-06  1.0680735e+08
   1999000   3.0982762e-10  100377.13      100352.44      108970.68      2.6018846e-06  5.1688319e-07  2.0850014e-06  1.068146e+08 
   2000000   3.0998261e-10  100365.53      100340.8       108973.1       2.6018984e-06  5.1713788e-07  2.0847605e-06  1.0681118e+08
   2001000   3.101376e-10   100360.48      100335.6       109017.71      2.6019196e-06  5.1726401e-07  2.0846556e-06  1.0681249e+08
   2002000   3.1029259e-10  100343.63      100318.44      109106.58      2.6019147e-06  5.1760904e-07  2.0843057e-06  1.0680641e+08
   2003000   3.1044758e-10  100364.06      100339.37      108958.14      2.6019375e-06  5.1720754e-07  2.0847299e-06  1.0681506e+08
   2004000   3.1060257e-10  100359.61      100334.99      108931.82      2.6019328e-06  5.1729522e-07  2.0846376e-06  1.0681391e+08
   2005000   3.1075757e-10  100341.99      100318.2       108633.91      2.6019149e-06  5.1764339e-07  2.0842715e-06  1.0680668e+08
   2006000   3.1091256e-10  100385.28      100361.35      108722.34      2.6019014e-06  5.1673068e-07  2.0851707e-06  1.0681855e+08
   2007000   3.1106755e-10  100355.64      100331.83      108655.08      2.6019031e-06  5.1734797e-07  2.0845551e-06  1.068065e+08 
   2008000   3.1122254e-10  100372.46      100348.5       108722.08      2.601909e-06   5.1700449e-07  2.0849045e-06  1.0681533e+08
   2009000   3.1137753e-10  100369.72      100346.49      108475.55      2.6019064e-06  5.1705886e-07  2.0848475e-06  1.0681444e+08
   2010000   3.1153252e-10  100368.35      100344.5       108677.77      2.6019052e-06  5.1708623e-07  2.084819e-06   1.0681257e+08
   2011000   3.1168751e-10  100365.19      100341.76      108535.93      2.6019017e-06  5.1714825e-07  2.0847534e-06  1.0681023e+08
   2012000   3.118425e-10   100355.01      100331.76      108464.15      2.6019158e-06  5.1737393e-07  2.0845419e-06  1.0680811e+08
   2013000   3.119975e-10   100369.33      100346.23      108429.89      2.6019026e-06  5.170631e-07   2.0848395e-06  1.0681246e+08
   2014000   3.1215249e-10  100349.81      100326.29      108548.6       2.6018996e-06  5.1746571e-07  2.0844339e-06  1.0680452e+08
   2015000   3.1230748e-10  100369.89      100346.84      108412.88      2.6018813e-06  5.1703025e-07  2.084851e-06   1.0680941e+08
   2016000   3.1246247e-10  100370.25      100348.79      107881.07      2.6018846e-06  5.1702611e-07  2.0848585e-06  1.0680907e+08
   2017000   3.1261746e-10  100357.87      100336.81      107738.52      2.6018995e-06  5.1729806e-07  2.0846015e-06  1.0680807e+08
   2018000   3.1277245e-10  100363.01      100343.07      107367.45      2.6019004e-06  5.171922e-07   2.0847082e-06  1.0681188e+08
   2019000   3.1292744e-10  100375.59      100358.58      106400.1       2.6018907e-06  5.1692128e-07  2.0849694e-06  1.0681471e+08
   2020000   3.1308243e-10  100368.21      100351.78      106198.75      2.6018834e-06  5.170672e-07   2.0848162e-06  1.0681028e+08
   2021000   3.1323743e-10  100361.17      100345.15      106054.62      2.6018705e-06  5.1720051e-07  2.08467e-06    1.0680435e+08
   2022000   3.1339242e-10  100359.7       100343.34      106166.57      2.6018637e-06  5.1722427e-07  2.0846394e-06  1.0680184e+08
   2023000   3.1354741e-10  100362.85      100346.93      106022.51      2.6018772e-06  5.171724e-07   2.0847048e-06  1.0680492e+08
   2024000   3.137024e-10   100369.26      100352.83      106199.6       2.6018924e-06  5.1705436e-07  2.084838e-06   1.0681014e+08
   2025000   3.1385739e-10  100360.8       100343.91      106346.18      2.6018969e-06  5.1723461e-07  2.0846623e-06  1.0680873e+08
   2026000   3.1401238e-10  100365.81      100348.07      106634.96      2.6018851e-06  5.1711878e-07  2.0847663e-06  1.068107e+08 
   2027000   3.1416737e-10  100355.35      100335.86      107209.24      2.6018937e-06  5.1734473e-07  2.084549e-06   1.0680537e+08
   2028000   3.1432237e-10  100365.43      100346.37      107078.11      2.6018762e-06  5.1711773e-07  2.0847585e-06  1.0680783e+08
   2029000   3.1447736e-10  100355.08      100338.05      106384.07      2.6018964e-06  5.1735301e-07  2.0845434e-06  1.0680545e+08
   2030000   3.1463235e-10  100363.57      100349.45      105422.24      2.6018945e-06  5.1717469e-07  2.0847198e-06  1.0680765e+08
   2031000   3.1478734e-10  100365.88      100352.2       105274.29      2.6018989e-06  5.1713115e-07  2.0847677e-06  1.0681052e+08
   2032000   3.1494233e-10  100365.16      100351.94      105122.92      2.6019026e-06  5.1714978e-07  2.0847528e-06  1.0681238e+08
   2033000   3.1509732e-10  100350.36      100337.88      104858.25      2.6018971e-06  5.1745171e-07  2.0844454e-06  1.068055e+08 
   2034000   3.1525231e-10  100364.1       100353.35      104294.26      2.6018921e-06  5.1716127e-07  2.0847308e-06  1.0680931e+08
   2035000   3.154073e-10   100379.06      100368.34      104300.67      2.6018919e-06  5.1685038e-07  2.0850415e-06  1.0681394e+08
   2036000   3.155623e-10   100366.18      100356.26      104019.35      2.6018893e-06  5.1711527e-07  2.084774e-06   1.068098e+08 
   2037000   3.1571729e-10  100363.69      100355.79      103341.68      2.601909e-06   5.1718675e-07  2.0847223e-06  1.0681029e+08
   2038000   3.1587228e-10  100371.73      100362.7       103728.41      2.601907e-06   5.1701763e-07  2.0848893e-06  1.068109e+08 
   2039000   3.1602727e-10  100382.94      100374.07      103682.43      2.601885e-06   5.1676298e-07  2.085122e-06   1.0681234e+08
   2040000   3.1618226e-10  100354.09      100345.45      103580.9       2.6018829e-06  5.1735997e-07  2.0845229e-06  1.0680442e+08
   2041000   3.1633725e-10  100362.59      100353.43      103760.23      2.6018772e-06  5.1717781e-07  2.0846994e-06  1.0680822e+08
   2042000   3.1649224e-10  100372.13      100363.39      103632.05      2.6018763e-06  5.1697869e-07  2.0848976e-06  1.0681084e+08
   2043000   3.1664723e-10  100359.29      100351.87      103177.64      2.6019005e-06  5.1726962e-07  2.0846309e-06  1.0680695e+08
   2044000   3.1680223e-10  100374.37      100368.14      102791.73      2.6018866e-06  5.169426e-07   2.084944e-06   1.0681084e+08
   2045000   3.1695722e-10  100370.48      100365.25      102454.55      2.6018851e-06  5.1702183e-07  2.0848633e-06  1.0681314e+08
   2046000   3.1711221e-10  100354.17      100348.82      102479.81      2.60189e-06    5.1736542e-07  2.0845246e-06  1.0680686e+08
   2047000   3.172672e-10   100368.13      100360.94      103107.52      2.6018777e-06  5.1706321e-07  2.0848145e-06  1.0680734e+08
   2048000   3.1742219e-10  100364.52      100356.12      103510.24      2.6018826e-06  5.1714306e-07  2.0847395e-06  1.0680493e+08
   2049000   3.1757718e-10  100363.13      100354.36      103632.43      2.6018679e-06  5.1715731e-07  2.0847106e-06  1.0680689e+08
   2050000   3.1773217e-10  100365.53      100357         103551.82      2.601883e-06   5.1712261e-07  2.0847604e-06  1.0680951e+08
   2051000   3.1788717e-10  100370.87      100364.12      102964.11      2.6018745e-06  5.1700306e-07  2.0848715e-06  1.0680825e+08
   2052000   3.1804216e-10  100375.34      100368.09      103136.51      2.6018601e-06  5.1689593e-07  2.0849642e-06  1.0680691e+08
   2053000   3.1819715e-10  100352.42      100346.41      102697.33      2.6018792e-06  5.1739102e-07  2.0844882e-06  1.068007e+08 
   2054000   3.1835214e-10  100361.2       100355.77      102513.1       2.6018795e-06  5.1720903e-07  2.0846705e-06  1.0680691e+08
   2055000   3.1850713e-10  100356.85      100349.27      103227.11      2.601884e-06   5.1730372e-07  2.0845803e-06  1.068067e+08 
   2056000   3.1866212e-10  100356.1       100351.19      102333.17      2.6018811e-06  5.1731649e-07  2.0845646e-06  1.0680429e+08
   2057000   3.1881711e-10  100373.59      100370.96      101589.43      2.6018954e-06  5.1696743e-07  2.084928e-06   1.0680922e+08
   2058000   3.189721e-10   100369.36      100366.19      101765.42      2.6018884e-06  5.1704841e-07  2.08484e-06    1.0681102e+08
   2059000   3.191271e-10   100374.2       100368.52      102610.59      2.6019108e-06  5.1697024e-07  2.0849406e-06  1.0681414e+08
   2060000   3.1928209e-10  100364.13      100358.45      102597.46      2.6018925e-06  5.171612e-07   2.0847313e-06  1.068088e+08 
   2061000   3.1943708e-10  100356.93      100351.93      102365.87      2.6018999e-06  5.1731811e-07  2.0845818e-06  1.0680792e+08
   2062000   3.1959207e-10  100358.73      100353.75      102358.79      2.6018912e-06  5.1727204e-07  2.0846192e-06  1.0680826e+08
   2063000   3.1974706e-10  100371.94      100368.4       101891.76      2.6018898e-06  5.1699619e-07  2.0848936e-06  1.0681153e+08
   2064000   3.1990205e-10  100367.27      100365         101459.34      2.601883e-06   5.1708641e-07  2.0847966e-06  1.0680978e+08
   2065000   3.2005704e-10  100377.49      100374.81      101609.06      2.6018749e-06  5.1686606e-07  2.0850089e-06  1.068112e+08 
   2066000   3.2021203e-10  100388.79      100384.86      102040.41      2.601876e-06   5.1663235e-07  2.0852436e-06  1.0681304e+08
   2067000   3.2036703e-10  100371.45      100366.29      102432.95      2.6018771e-06  5.1699368e-07  2.0848834e-06  1.0680772e+08
   2068000   3.2052202e-10  100385.83      100380.31      102568.37      2.6018789e-06  5.1669669e-07  2.0851822e-06  1.068131e+08 
   2069000   3.2067701e-10  100375.37      100369.27      102752.21      2.6018827e-06  5.1691785e-07  2.0849648e-06  1.0681093e+08
   2070000   3.20832e-10    100373.38      100369.41      102035.18      2.6018811e-06  5.1695763e-07  2.0849234e-06  1.0681151e+08
   2071000   3.2098699e-10  100361.1       100357.58      101875.87      2.6018835e-06  5.1721498e-07  2.0846685e-06  1.0680714e+08
   2072000   3.2114198e-10  100354.84      100352.19      101578.17      2.6018938e-06  5.1735527e-07  2.0845385e-06  1.0680859e+08
   2073000   3.2129697e-10  100351.91      100349.94      101344.69      2.6019038e-06  5.1742629e-07  2.0844775e-06  1.0680992e+08
   2074000   3.2145197e-10  100356.04      100353.6       101505.16      2.6018923e-06  5.17329e-07    2.0845633e-06  1.0680854e+08
   2075000   3.2160696e-10  100352.12      100351.49      100899.46      2.6018945e-06  5.1741252e-07  2.0844819e-06  1.0680521e+08
   2076000   3.2176195e-10  100363.54      100362.83      100935.84      2.6019133e-06  5.1719419e-07  2.0847191e-06  1.0681133e+08
   2077000   3.2191694e-10  100362.99      100359.86      101748.04      2.6018969e-06  5.1718909e-07  2.0847078e-06  1.0680876e+08
   2078000   3.2207193e-10  100385.49      100381.53      102045.28      2.6018688e-06  5.1669372e-07  2.0851751e-06  1.0681211e+08
   2079000   3.2222692e-10  100368.8       100363.27      102554.38      2.6018821e-06  5.1705375e-07  2.0848284e-06  1.0680815e+08
   2080000   3.2238191e-10  100363.27      100360.28      101699.76      2.6018819e-06  5.1716828e-07  2.0847136e-06  1.0680843e+08
   2081000   3.225369e-10   100344.13      100341.06      101704.45      2.6018907e-06  5.1757484e-07  2.0843159e-06  1.0680239e+08
   2082000   3.226919e-10   100357.32      100353.52      101963.15      2.6018856e-06  5.1729574e-07  2.0845899e-06  1.0680552e+08
   2083000   3.2284689e-10  100363.66      100359.4       102121.56      2.6018835e-06  5.1716192e-07  2.0847216e-06  1.0680769e+08
   2084000   3.2300188e-10  100386.4       100381.03      102517.37      2.6018922e-06  5.166983e-07   2.0851939e-06  1.0681572e+08
   2085000   3.2315687e-10  100390.99      100385.93      102419.31      2.6018845e-06  5.1659514e-07  2.0852894e-06  1.0681772e+08
   2086000   3.2331186e-10  100384.6       100378.92      102618.93      2.601901e-06   5.1674445e-07  2.0851565e-06  1.068178e+08 
   2087000   3.2346685e-10  100354.6       100349.15      102511.48      2.6019066e-06  5.1737318e-07  2.0845334e-06  1.0680909e+08
   2088000   3.2362184e-10  100370.5       100364.16      102828.36      2.6019169e-06  5.1705312e-07  2.0848638e-06  1.068149e+08 
   2089000   3.2377683e-10  100353.15      100343.65      103865.05      2.6019032e-06  5.1739984e-07  2.0845033e-06  1.0680851e+08
   2090000   3.2393183e-10  100361.05      100353.04      103375.51      2.6018931e-06  5.1722566e-07  2.0846674e-06  1.0681047e+08
   2091000   3.2408682e-10  100362.5       100357.23      102459.93      2.601896e-06   5.1719855e-07  2.0846975e-06  1.0680898e+08
   2092000   3.2424181e-10  100371.25      100365.5       102631.9       2.6018894e-06  5.1701005e-07  2.0848794e-06  1.0681114e+08
   2093000   3.243968e-10   100349.27      100344.67      102224.59      2.6019016e-06  5.1747883e-07  2.0844228e-06  1.068049e+08 
   2094000   3.2455179e-10  100373.85      100368.16      102611.19      2.6019078e-06  5.1697457e-07  2.0849333e-06  1.0681517e+08
   2095000   3.2470678e-10  100367.86      100361.41      102860.6       2.6018894e-06  5.170806e-07   2.0848088e-06  1.0681232e+08
   2096000   3.2486177e-10  100358.97      100353.87      102402.12      2.6018822e-06  5.1725788e-07  2.0846243e-06  1.0680713e+08
   2097000   3.2501677e-10  100375.43      100371.55      102010.57      2.6018895e-06  5.1692329e-07  2.0849662e-06  1.0681193e+08
   2098000   3.2517176e-10  100383.3       100379.24      102079.72      2.6019052e-06  5.1677554e-07  2.0851297e-06  1.0681619e+08
   2099000   3.2532675e-10  100371.01      100369.2       101311.03      2.6019303e-06  5.1705607e-07  2.0848742e-06  1.0681595e+08
   2100000   3.2548174e-10  100362.8       100360.9       101334.98      2.6019082e-06  5.1720439e-07  2.0847038e-06  1.0681336e+08
   2101000   3.2563673e-10  100365.31      100362.99      101480.13      2.6018998e-06  5.1714382e-07  2.084756e-06   1.0681053e+08
   2102000   3.2579172e-10  100358.31      100357.92      100823.62      2.6018806e-06  5.1727008e-07  2.0846105e-06  1.0680685e+08
   2103000   3.2594671e-10  100352.18      100352.19      100685.56      2.6018823e-06  5.1739917e-07  2.0844832e-06  1.0680408e+08
   2104000   3.261017e-10   100369.1       100367.35      101289.49      2.6018733e-06  5.1703868e-07  2.0848347e-06  1.0680689e+08
   2105000   3.262567e-10   100363.8       100362.44      101154.33      2.6018843e-06  5.1715965e-07  2.0847246e-06  1.0680804e+08
   2106000   3.2641169e-10  100366.12      100365.08      101049.46      2.6018898e-06  5.1711716e-07  2.0847727e-06  1.0681021e+08
   2107000   3.2656668e-10  100385.39      100385.1       100817.27      2.6018942e-06  5.1672122e-07  2.0851729e-06  1.0681682e+08
   2108000   3.2672167e-10  100367.58      100368.63      100351.4       2.6018934e-06  5.1709035e-07  2.0848031e-06  1.0681118e+08
   2109000   3.2687666e-10  100359.8       100359.4       100831.82      2.6018888e-06  5.1724722e-07  2.0846416e-06  1.0680906e+08
   2110000   3.2703165e-10  100362.91      100361.02      101332.42      2.601893e-06   5.1718695e-07  2.0847061e-06  1.0680849e+08
   2111000   3.2718664e-10  100370.09      100367.65      101523.64      2.6018767e-06  5.1702143e-07  2.0848552e-06  1.0680806e+08
   2112000   3.2734164e-10  100367.29      100362.39      102341.45      2.6018732e-06  5.1707613e-07  2.0847971e-06  1.0680657e+08
   2113000   3.2749663e-10  100372.24      100367.18      102398.89      2.6018768e-06  5.1697697e-07  2.0848998e-06  1.0680825e+08
   2114000   3.2765162e-10  100366.78      100361.5       102470.56      2.6018964e-06  5.1710989e-07  2.0847865e-06  1.0680876e+08
   2115000   3.2780661e-10  100364.03      100358.03      102706.72      2.6018936e-06  5.1716418e-07  2.0847294e-06  1.0680857e+08
   2116000   3.279616e-10   100359.87      100353.82      102720.4       2.6018784e-06  5.1723552e-07  2.0846429e-06  1.0680658e+08
   2117000   3.2811659e-10  100376.76      100371.41      102499.96      2.601891e-06   5.1689731e-07  2.0849937e-06  1.0681267e+08
   2118000   3.2827158e-10  100369.37      100364.18      102439.37      2.6018941e-06  5.170539e-07   2.0848402e-06  1.0681101e+08
   2119000   3.2842657e-10  100369.59      100364.91      102267.18      2.601884e-06   5.1703933e-07  2.0848447e-06  1.0681065e+08
   2120000   3.2858157e-10  100359.88      100356.25      101907.37      2.6018742e-06  5.1723114e-07  2.0846431e-06  1.0680698e+08
   2121000   3.2873656e-10  100371.22      100367.42      101977.5       2.601895e-06   5.1701638e-07  2.0848787e-06  1.0681324e+08
   2122000   3.2889155e-10  100379.11      100375.18      102029.58      2.6018905e-06  5.1684791e-07  2.0850425e-06  1.0681279e+08
   2123000   3.2904654e-10  100369.87      100368.35      101213.42      2.60188e-06    5.1702938e-07  2.0848506e-06  1.0680878e+08
   2124000   3.2920153e-10  100363         100360.4       101567.65      2.6018972e-06  5.1718924e-07  2.0847079e-06  1.0680793e+08
   2125000   3.2935652e-10  100349.92      100346.85      101715.08      2.6018935e-06  5.1745718e-07  2.0844363e-06  1.0680434e+08
   2126000   3.2951151e-10  100365.73      100362.74      101703.01      2.601913e-06   5.1714833e-07  2.0847647e-06  1.0681228e+08
   2127000   3.296665e-10   100356.93      100353.62      101802.24      2.6018797e-06  5.1729777e-07  2.084582e-06   1.0680579e+08
   2128000   3.298215e-10   100370.78      100367.52      101799.01      2.6018641e-06  5.1699447e-07  2.0848696e-06  1.0680705e+08
   2129000   3.2997649e-10  100372.33      100368.4       102021.1       2.601883e-06   5.1698129e-07  2.0849017e-06  1.068086e+08 
   2130000   3.3013148e-10  100364.04      100358.97      102396.51      2.6018802e-06  5.1715061e-07  2.0847296e-06  1.0680758e+08
   2131000   3.3028647e-10  100368.99      100362.56      102855.58      2.6018828e-06  5.1705032e-07  2.0848324e-06  1.0681027e+08
   2132000   3.3044146e-10  100374.95      100367.54      103187.42      2.6018908e-06  5.1693469e-07  2.0849561e-06  1.0681334e+08
   2133000   3.3059645e-10  100359.44      100352.28      103090.78      2.601918e-06   5.1728391e-07  2.0846341e-06  1.0681115e+08
   2134000   3.3075144e-10  100338.1       100331.35      102930.93      2.6019002e-06  5.1770954e-07  2.0841906e-06  1.0680174e+08
   2135000   3.3090644e-10  100374.49      100367.46      103061.27      2.6018979e-06  5.1695131e-07  2.0849466e-06  1.0681401e+08
   2136000   3.3106143e-10  100372.48      100366.42      102737.26      2.6019091e-06  5.1700423e-07  2.0849049e-06  1.0681387e+08
   2137000   3.3121642e-10  100365.97      100360.34      102583.03      2.601896e-06   5.1712644e-07  2.0847696e-06  1.0681085e+08
   2138000   3.3137141e-10  100372.06      100366.9       102432.66      2.6018858e-06  5.1698972e-07  2.0848961e-06  1.0681099e+08
   2139000   3.315264e-10   100361.91      100356.5       102507.74      2.6018873e-06  5.1720196e-07  2.0846853e-06  1.0680831e+08
   2140000   3.3168139e-10  100353.92      100348.48      102511.95      2.6018727e-06  5.1735333e-07  2.0845194e-06  1.0680556e+08
   2141000   3.3183638e-10  100350.65      100344.62      102703.96      2.6018938e-06  5.1744239e-07  2.0844514e-06  1.0680729e+08
   2142000   3.3199137e-10  100363.6       100358.77      102314.62      2.6018985e-06  5.1717816e-07  2.0847203e-06  1.0681126e+08
   2143000   3.3214637e-10  100360.48      100357.85      101577.8       2.6018958e-06  5.1724013e-07  2.0846556e-06  1.0680716e+08
   2144000   3.3230136e-10  100358.5       100354.8       101932.82      2.6018827e-06  5.1726814e-07  2.0846146e-06  1.0680554e+08
   2145000   3.3245635e-10  100367.99      100362.38      102579.92      2.6018911e-06  5.1707959e-07  2.0848115e-06  1.0680984e+08
   2146000   3.3261134e-10  100373.56      100367.73      102658.82      2.6018791e-06  5.1695186e-07  2.0849272e-06  1.0680997e+08
   2147000   3.3276633e-10  100357.92      100350.41      103203.57      2.6018766e-06  5.1727426e-07  2.0846023e-06  1.0680574e+08
   2148000   3.3292132e-10  100372.34      100366.07      102803.61      2.6018867e-06  5.1698473e-07  2.0849019e-06  1.0681163e+08
   2149000   3.3307631e-10  100347.99      100342.08      102659.13      2.6018949e-06  5.1749873e-07  2.0843962e-06  1.0680594e+08
   2150000   3.332313e-10   100343.42      100333.6       103964         2.601903e-06   5.1760186e-07  2.0843012e-06  1.0680418e+08
   2151000   3.333863e-10   100360.55      100349.75      104309.62      2.6018825e-06  5.1722536e-07  2.0846571e-06  1.0680904e+08
   2152000   3.3354129e-10  100354.73      100344.39      104150.28      2.6018784e-06  5.1734211e-07  2.0845362e-06  1.0680563e+08
   2153000   3.3369628e-10  100368.84      100358.79      104063.93      2.6018798e-06  5.1705055e-07  2.0848292e-06  1.068095e+08 
   2154000   3.3385127e-10  100385.69      100373.98      104638.52      2.6018884e-06  5.1670904e-07  2.0851793e-06  1.0681575e+08
   2155000   3.3400626e-10  100359.41      100347.06      104824.04      2.6018818e-06  5.1724844e-07  2.0846333e-06  1.068067e+08 
   2156000   3.3416125e-10  100377.67      100363.93      105308.2       2.6018889e-06  5.1687636e-07  2.0850126e-06  1.0681438e+08
   2157000   3.3431624e-10  100392.37      100378.42      105390.96      2.6018933e-06  5.1657542e-07  2.0853179e-06  1.0681696e+08
   2158000   3.3447124e-10  100372.44      100358.76      105281.25      2.6018811e-06  5.1697721e-07  2.0849039e-06  1.0680907e+08
   2159000   3.3462623e-10  100370.79      100357.45      105166.16      2.6018883e-06  5.1701859e-07  2.0848697e-06  1.06811e+08  
   2160000   3.3478122e-10  100366.29      100351.76      105560.35      2.6018841e-06  5.1710792e-07  2.0847762e-06  1.0680669e+08
   2161000   3.3493621e-10  100352.36      100337.85      105540.83      2.601898e-06   5.1741104e-07  2.0844869e-06  1.068042e+08 
   2162000   3.350912e-10   100365.93      100351.07      105674.14      2.6018916e-06  5.1712267e-07  2.0847689e-06  1.0681087e+08
   2163000   3.3524619e-10  100348.87      100335.39      105193.07      2.6019143e-06  5.1749989e-07  2.0844144e-06  1.0680627e+08
   2164000   3.3540118e-10  100368.09      100354.57      105225.92      2.6019034e-06  5.1708968e-07  2.0848137e-06  1.0681315e+08
   2165000   3.3555617e-10  100364.15      100348.26      106015.76      2.6018967e-06  5.1716479e-07  2.0847319e-06  1.0681064e+08
   2166000   3.3571117e-10  100370.54      100354.64      106024.05      2.6019057e-06  5.1704115e-07  2.0848645e-06  1.0681181e+08
   2167000   3.3586616e-10  100365.84      100350.56      105810.5       2.6019003e-06  5.171334e-07   2.0847669e-06  1.0681328e+08
   2168000   3.3602115e-10  100366.52      100350.68      106002.27      2.6019024e-06  5.1712127e-07  2.0847811e-06  1.0681167e+08
   2169000   3.3617614e-10  100374.7       100359.99      105631.74      2.6019064e-06  5.169553e-07   2.0849511e-06  1.0681284e+08
   2170000   3.3633113e-10  100375.67      100361.5       105449.06      2.6018906e-06  5.1691946e-07  2.0849711e-06  1.0681175e+08
   2171000   3.3648612e-10  100388.87      100374.87      105406.57      2.6018889e-06  5.1664364e-07  2.0852453e-06  1.0681477e+08
   2172000   3.3664111e-10  100383.68      100369.42      105488.74      2.601885e-06   5.1674756e-07  2.0851375e-06  1.0681078e+08
   2173000   3.367961e-10   100388.82      100372.71      106110.97      2.6018908e-06  5.1664654e-07  2.0852443e-06  1.0681409e+08
   2174000   3.369511e-10   100353.39      100335.9       106540.21      2.6018642e-06  5.1735576e-07  2.0845084e-06  1.0680068e+08
   2175000   3.3710609e-10  100379.49      100360.02      107226.89      2.6018439e-06  5.167935e-07   2.0850504e-06  1.0680632e+08
   2176000   3.3726108e-10  100370.88      100352.23      106944.41      2.6018523e-06  5.1698069e-07  2.0848716e-06  1.0680287e+08
   2177000   3.3741607e-10  100379.53      100363.1       106207.74      2.6018575e-06  5.1680632e-07  2.0850512e-06  1.0680936e+08
   2178000   3.3757106e-10  100384.25      100369.97      105492.93      2.6018708e-06  5.1672151e-07  2.0851492e-06  1.0681196e+08
   2179000   3.3772605e-10  100366.44      100352.44      105387.37      2.6018622e-06  5.1708273e-07  2.0847795e-06  1.0680435e+08
   2180000   3.3788104e-10  100387.2       100371.75      105892.71      2.6018728e-06  5.1666215e-07  2.0852107e-06  1.0681142e+08
   2181000   3.3803604e-10  100382.18      100364.45      106648.15      2.6018619e-06  5.1675558e-07  2.0851063e-06  1.0680944e+08
   2182000   3.3819103e-10  100362.55      100344.88      106607.61      2.6018758e-06  5.1717725e-07  2.0846986e-06  1.0680555e+08
   2183000   3.3834602e-10  100380.37      100364.21      106120.08      2.6018792e-06  5.1681045e-07  2.0850688e-06  1.0681096e+08
   2184000   3.3850101e-10  100346.06      100328.28      106627.77      2.6018888e-06  5.1753276e-07  2.084356e-06   1.0680328e+08
   2185000   3.38656e-10    100358.34      100340         106826.48      2.6018914e-06  5.1728029e-07  2.0846111e-06  1.0680921e+08
   2186000   3.3881099e-10  100368.28      100348.53      107309.56      2.6018927e-06  5.1707514e-07  2.0848175e-06  1.0681006e+08
   2187000   3.3896598e-10  100371.65      100353.61      106741.52      2.6018768e-06  5.169892e-07   2.0848876e-06  1.0680958e+08
   2188000   3.3912097e-10  100362.54      100345.43      106421.14      2.6018818e-06  5.1718347e-07  2.0846984e-06  1.0680563e+08
   2189000   3.3927597e-10  100374.08      100359.25      105671.21      2.6018935e-06  5.1695539e-07  2.0849381e-06  1.0680941e+08
   2190000   3.3943096e-10  100380.5       100366.71      105327.73      2.6018765e-06  5.1680504e-07  2.0850714e-06  1.0681049e+08
   2191000   3.3958595e-10  100369.4       100355.98      105196.01      2.601881e-06   5.1704002e-07  2.0848409e-06  1.0680758e+08
   2192000   3.3974094e-10  100367.72      100354.83      105016.72      2.6018956e-06  5.1708951e-07  2.084806e-06   1.0681021e+08
   2193000   3.3989593e-10  100362.19      100349.49      104944.74      2.6018923e-06  5.1720116e-07  2.0846912e-06  1.0680939e+08
   2194000   3.4005092e-10  100382.29      100366.95      105849.3       2.6018896e-06  5.1678097e-07  2.0851086e-06  1.068153e+08 
   2195000   3.4020591e-10  100375.35      100360.01      105842.61      2.6018902e-06  5.1692568e-07  2.0849645e-06  1.0681222e+08
   2196000   3.403609e-10   100355.3       100341.97      105150.54      2.6018798e-06  5.1733169e-07  2.0845481e-06  1.0680619e+08
   2197000   3.405159e-10   100357.5       100344.48      105045.89      2.601904e-06   5.1731037e-07  2.0845936e-06  1.0680855e+08
   2198000   3.4067089e-10  100364.49      100351.28      105117.2       2.6019085e-06  5.1716965e-07  2.0847389e-06  1.0681104e+08
   2199000   3.4082588e-10  100370.27      100357.76      104889.52      2.6018924e-06  5.1703344e-07  2.0848589e-06  1.0681059e+08
   2200000   3.4098087e-10  100367.59      100354.51      105076.72      2.6018653e-06  5.1706211e-07  2.0848032e-06  1.0680707e+08
   2201000   3.4113586e-10  100370.02      100355.7       105495.87      2.601878e-06   5.1702424e-07  2.0848538e-06  1.0680872e+08
   2202000   3.4129085e-10  100372.7       100357.57      105769.43      2.6018749e-06  5.1696544e-07  2.0849094e-06  1.068086e+08 
   2203000   3.4144584e-10  100375.19      100362.21      105054.01      2.6018584e-06  5.1689718e-07  2.0849612e-06  1.0680687e+08
   2204000   3.4160084e-10  100380.76      100367.44      105168.83      2.6018701e-06  5.1679335e-07  2.0850768e-06  1.0681088e+08
   2205000   3.4175583e-10  100372.5       100360.31      104783.47      2.6018895e-06  5.1698433e-07  2.0849052e-06  1.0681029e+08
   2206000   3.4191082e-10  100355.6       100343.21      104837.24      2.6018884e-06  5.1733413e-07  2.0845543e-06  1.0680602e+08
   2207000   3.4206581e-10  100385.16      100372.84      104839.84      2.6018875e-06  5.1671931e-07  2.0851682e-06  1.0681583e+08
   2208000   3.422208e-10   100360.95      100349.26      104603.52      2.601905e-06   5.1723975e-07  2.0846653e-06  1.0680838e+08
   2209000   3.4237579e-10  100371.05      100361.18      104008.89      2.6018991e-06  5.1702389e-07  2.0848752e-06  1.0681319e+08
   2210000   3.4253078e-10  100351.34      100341.86      103857.23      2.6018879e-06  5.1742209e-07  2.0844658e-06  1.0680497e+08
   2211000   3.4268577e-10  100366.46      100358.08      103504.96      2.601873e-06   5.1709312e-07  2.0847799e-06  1.0680751e+08
   2212000   3.4284077e-10  100379.19      100370.93      103477.61      2.6018805e-06  5.1683618e-07  2.0850443e-06  1.0681114e+08
   2213000   3.4299576e-10  100377.62      100370.21      103191.13      2.601887e-06   5.1687531e-07  2.0850117e-06  1.0681127e+08
   2214000   3.4315075e-10  100386.06      100377.97      103425.77      2.6018852e-06  5.1669828e-07  2.0851869e-06  1.068139e+08 
   2215000   3.4330574e-10  100357.66      100348.82      103649.94      2.6018929e-06  5.1729579e-07  2.0845971e-06  1.0680714e+08
   2216000   3.4346073e-10  100363.85      100354.81      103723.94      2.6019066e-06  5.1718092e-07  2.0847257e-06  1.0681269e+08
   2217000   3.4361572e-10  100365.59      100356.32      103801.3       2.6019017e-06  5.1713996e-07  2.0847618e-06  1.0681043e+08
   2218000   3.4377071e-10  100381.44      100373.17      103481.69      2.6019081e-06  5.1681718e-07  2.085091e-06   1.068166e+08 
   2219000   3.439257e-10   100356.37      100347.85      103541.58      2.601902e-06   5.1733174e-07  2.0845702e-06  1.0680728e+08
   2220000   3.440807e-10   100357.08      100347.63      103852.87      2.6018921e-06  5.1730725e-07  2.0845849e-06  1.0680834e+08
   2221000   3.4423569e-10  100369.23      100361.54      103277.5       2.6018763e-06  5.1703889e-07  2.0848374e-06  1.0680905e+08
   2222000   3.4439068e-10  100383.43      100376.19      103140.51      2.6018683e-06  5.1673595e-07  2.0851323e-06  1.0681335e+08
   2223000   3.4454567e-10  100372.53      100363.35      103779.71      2.6018765e-06  5.1697064e-07  2.0849059e-06  1.0681095e+08
   2224000   3.4470066e-10  100370         100360.21      103979.9       2.6018839e-06  5.1703046e-07  2.0848534e-06  1.0681167e+08
   2225000   3.4485565e-10  100374.94      100364.88      104073.78      2.6018957e-06  5.1693984e-07  2.0849559e-06  1.0681492e+08
   2226000   3.4501064e-10  100376.34      100365.82      104230.32      2.6018882e-06  5.1690307e-07  2.0849851e-06  1.0681476e+08
   2227000   3.4516564e-10  100369.39      100356.36      105062.56      2.6018728e-06  5.1703219e-07  2.0848406e-06  1.0680919e+08
   2228000   3.4532063e-10  100367.94      100355.59      104834.84      2.6018745e-06  5.1706393e-07  2.0848106e-06  1.0680761e+08
   2229000   3.4547562e-10  100366.7       100356.29      104183.93      2.6018731e-06  5.170883e-07   2.0847848e-06  1.0680758e+08
   2230000   3.4563061e-10  100341.48      100331.82      103906.34      2.6018777e-06  5.1761679e-07  2.0842609e-06  1.0680043e+08
   2231000   3.457856e-10   100371.2       100362.72      103543.98      2.6018763e-06  5.1699805e-07  2.0848782e-06  1.0681179e+08
   2232000   3.4594059e-10  100365.89      100360.04      102659.7       2.6018858e-06  5.171178e-07   2.084768e-06   1.0680803e+08
   2233000   3.4609558e-10  100377.89      100372.11      102647.49      2.6018721e-06  5.168548e-07   2.0850173e-06  1.0681021e+08
   2234000   3.4625057e-10  100366.63      100358.76      103334.79      2.6018897e-06  5.1710633e-07  2.0847834e-06  1.0680903e+08
   2235000   3.4640557e-10  100368.35      100359.02      103826.91      2.6019041e-06  5.1708495e-07  2.0848191e-06  1.0681132e+08
   2236000   3.4656056e-10  100349.53      100339.14      104159.23      2.601899e-06   5.1747092e-07  2.0844281e-06  1.0680651e+08
   2237000   3.4671555e-10  100361.49      100350.72      104297.95      2.6019062e-06  5.1722975e-07  2.0846765e-06  1.0681302e+08
   2238000   3.4687054e-10  100357.82      100349.85      103358.58      2.6018958e-06  5.172955e-07   2.0846003e-06  1.0680774e+08
   2239000   3.4702553e-10  100358.31      100349.59      103610.7       2.6018786e-06  5.1726803e-07  2.0846106e-06  1.0680508e+08
   2240000   3.4718052e-10  100358.39      100350.76      103247.64      2.6018898e-06  5.172775e-07   2.0846123e-06  1.0680491e+08
   2241000   3.4733551e-10  100356.93      100348.66      103460.27      2.6018873e-06  5.1730536e-07  2.0845819e-06  1.0680732e+08
   2242000   3.474905e-10   100362.93      100353.72      103779.08      2.6018964e-06  5.171899e-07   2.0847065e-06  1.0681254e+08
   2243000   3.476455e-10   100372.37      100360.74      104595.59      2.6018903e-06  5.1698781e-07  2.0849025e-06  1.068128e+08 
   2244000   3.4780049e-10  100365.7       100354.51      104442.37      2.601869e-06   5.1710502e-07  2.0847639e-06  1.068058e+08 
   2245000   3.4795548e-10  100371.1       100360.18      104358.31      2.6018793e-06  5.1700313e-07  2.0848762e-06  1.0680851e+08
   2246000   3.4811047e-10  100383.5       100372.69      104335.96      2.601898e-06   5.1676415e-07  2.0851338e-06  1.0681507e+08
   2247000   3.4826546e-10  100384.67      100375.85      103670.54      2.6018748e-06  5.1671683e-07  2.085158e-06   1.0681353e+08
   2248000   3.4842045e-10  100369.45      100360.81      103595.36      2.6018718e-06  5.1702976e-07  2.084842e-06   1.0680771e+08
   2249000   3.4857544e-10  100371.14      100363.86      103139.79      2.6018795e-06  5.1700252e-07  2.084877e-06   1.0680933e+08
   2250000   3.4873044e-10  100376.22      100368.11      103427.37      2.6018808e-06  5.1689813e-07  2.0849826e-06  1.0681116e+08
   2251000   3.4888543e-10  100360.73      100352.46      103460.51      2.6018763e-06  5.172155e-07   2.0846608e-06  1.0680659e+08
   2252000   3.4904042e-10  100344.3       100335.88      103494.24      2.6018817e-06  5.1756229e-07  2.0843194e-06  1.0680203e+08
   2253000   3.4919541e-10  100357.03      100347.56      103860.96      2.6018817e-06  5.1729772e-07  2.084584e-06   1.0680483e+08
   2254000   3.493504e-10   100391.36      100383.01      103517.5       2.6018887e-06  5.1659179e-07  2.0852969e-06  1.068164e+08 
   2255000   3.4950539e-10  100377.48      100367.87      103927.5       2.6018615e-06  5.1685282e-07  2.0850086e-06  1.0681021e+08
   2256000   3.4966038e-10  100375.77      100363.36      104862.99      2.6018727e-06  5.1689947e-07  2.0849733e-06  1.0681127e+08
   2257000   3.4981537e-10  100370.88      100358.26      104925.2       2.6018683e-06  5.169968e-07   2.0848715e-06  1.0680868e+08
   2258000   3.4997037e-10  100376.52      100363.68      105009.29      2.6018882e-06  5.168993e-07   2.0849889e-06  1.0681167e+08
   2259000   3.5012536e-10  100370.21      100358.78      104526.92      2.6018851e-06  5.1702739e-07  2.0848577e-06  1.0681007e+08
   2260000   3.5028035e-10  100372.79      100362.71      104078.51      2.60189e-06    5.1697877e-07  2.0849112e-06  1.0680978e+08
   2261000   3.5043534e-10  100363.04      100352.1       104359.28      2.6018872e-06  5.1717839e-07  2.0847088e-06  1.0680677e+08
   2262000   3.5059033e-10  100363.31      100353.37      104022.75      2.6018982e-06  5.1718386e-07  2.0847143e-06  1.0680912e+08
   2263000   3.5074532e-10  100360.66      100351.47      103771         2.6019012e-06  5.172419e-07   2.0846593e-06  1.0680831e+08
   2264000   3.5090031e-10  100373.14      100363.57      103909.59      2.6018987e-06  5.1698001e-07  2.0849186e-06  1.068115e+08 
   2265000   3.510553e-10   100371.08      100361.56      103891.01      2.6018979e-06  5.170222e-07   2.0848757e-06  1.0681187e+08
   2266000   3.512103e-10   100370.07      100361.7       103506.05      2.6018886e-06  5.1703373e-07  2.0848549e-06  1.0681254e+08
   2267000   3.5136529e-10  100368.53      100360.83      103276.29      2.6018871e-06  5.1706444e-07  2.0848227e-06  1.0681039e+08
   2268000   3.5152028e-10  100369.19      100361.77      103187.24      2.6018845e-06  5.1704794e-07  2.0848365e-06  1.0681106e+08
   2269000   3.5167527e-10  100373.51      100366.85      102935.69      2.6018859e-06  5.1695969e-07  2.0849263e-06  1.0681162e+08
   2270000   3.5183026e-10  100344.53      100337.25      103117.1       2.6018623e-06  5.1753795e-07  2.0843243e-06  1.0680131e+08
   2271000   3.5198525e-10  100350.21      100344.05      102746.51      2.6018838e-06  5.1744157e-07  2.0844422e-06  1.0680604e+08
   2272000   3.5214024e-10  100368.45      100363.05      102507.75      2.6018874e-06  5.1706627e-07  2.0848211e-06  1.0680901e+08
   2273000   3.5229524e-10  100376.24      100371.27      102375.32      2.6018833e-06  5.1690036e-07  2.084983e-06   1.0680922e+08
   2274000   3.5245023e-10  100361.05      100356.97      102060.52      2.6018845e-06  5.1721707e-07  2.0846674e-06  1.0680649e+08
   2275000   3.5260522e-10  100375.44      100371.4       102061.26      2.6019046e-06  5.1693833e-07  2.0849663e-06  1.0681491e+08
   2276000   3.5276021e-10  100349.52      100345.82      101921.31      2.6019005e-06  5.1747258e-07  2.0844279e-06  1.0680771e+08
   2277000   3.529152e-10   100382.12      100378.95      101779.38      2.601894e-06   5.1678883e-07  2.0851052e-06  1.068167e+08 
   2278000   3.5307019e-10  100367.31      100363.25      102059.78      2.6018823e-06  5.1708485e-07  2.0847974e-06  1.0680878e+08
   2279000   3.5322518e-10  100363.04      100358.88      102088.28      2.601877e-06   5.1716831e-07  2.0847087e-06  1.0680831e+08
   2280000   3.5338017e-10  100383.99      100378.84      102443.82      2.6018876e-06  5.1674357e-07  2.085144e-06   1.0681414e+08
   2281000   3.5353517e-10  100380.77      100377.32      101868.51      2.6018894e-06  5.1681237e-07  2.085077e-06   1.0681245e+08
   2282000   3.5369016e-10  100367.16      100365.1       101390.48      2.6018913e-06  5.1709701e-07  2.0847943e-06  1.0680988e+08
   2283000   3.5384515e-10  100370.31      100368.98      101148.67      2.601897e-06   5.1703729e-07  2.0848597e-06  1.0681371e+08
   2284000   3.5400014e-10  100362.38      100359.17      101772.97      2.6018952e-06  5.1720002e-07  2.0846952e-06  1.0680691e+08
   2285000   3.5415513e-10  100379.99      100376.2       101983.52      2.6018791e-06  5.168182e-07   2.0850609e-06  1.0681122e+08
   2286000   3.5431012e-10  100360.98      100356.64      102150.59      2.6018801e-06  5.1721404e-07  2.0846661e-06  1.0680405e+08
   2287000   3.5446511e-10  100372.68      100368.78      102013.62      2.6018868e-06  5.1697775e-07  2.084909e-06   1.0680907e+08
   2288000   3.546201e-10   100371.99      100368.95      101725.68      2.6018656e-06  5.1697078e-07  2.0848948e-06  1.0680893e+08
   2289000   3.547751e-10   100345.89      100343.44      101502.84      2.6018784e-06  5.1752576e-07  2.0843526e-06  1.0680129e+08
   2290000   3.5493009e-10  100373.21      100372.21      101043.14      2.6018978e-06  5.1697785e-07  2.08492e-06    1.0680968e+08
   2291000   3.5508508e-10  100367.76      100366.21      101222.67      2.6018911e-06  5.1708424e-07  2.0848069e-06  1.0680717e+08
   2292000   3.5524007e-10  100359.61      100358.57      101042.79      2.6018915e-06  5.1725406e-07  2.0846375e-06  1.0680836e+08
   2293000   3.5539506e-10  100360.07      100357.35      101605.01      2.6018793e-06  5.1723218e-07  2.0846471e-06  1.0680858e+08
   2294000   3.5555005e-10  100378.35      100374.86      101879.59      2.6018728e-06  5.1684612e-07  2.0850267e-06  1.0681171e+08
   2295000   3.5570504e-10  100365.6       100362.81      101634.67      2.6018634e-06  5.1710151e-07  2.0847619e-06  1.0680415e+08
   2296000   3.5586004e-10  100360.84      100357.61      101774.55      2.6018644e-06  5.1720141e-07  2.084663e-06   1.0680254e+08
   2297000   3.5601503e-10  100366.46      100364.9       101221.98      2.6018851e-06  5.1710531e-07  2.0847798e-06  1.0680744e+08
   2298000   3.5617002e-10  100365.24      100364.62      100905.04      2.6018919e-06  5.1713752e-07  2.0847544e-06  1.0681035e+08
   2299000   3.5632501e-10  100373.34      100372.54      100976.8       2.6019025e-06  5.1697966e-07  2.0849228e-06  1.0681316e+08
   2300000   3.5648e-10     100369.35      100369.2       100752.79      2.6018972e-06  5.1705746e-07  2.0848398e-06  1.068121e+08 
   2301000   3.5663499e-10  100357.38      100355.57      101295.64      2.6019057e-06  5.1731462e-07  2.0845911e-06  1.0680875e+08
   2302000   3.5678998e-10  100361.41      100358.07      101816.91      2.6018951e-06  5.172201e-07   2.084675e-06   1.06809e+08  
   2303000   3.5694497e-10  100369.41      100365.02      102175.74      2.6019042e-06  5.1706305e-07  2.0848412e-06  1.0681308e+08
   2304000   3.5709997e-10  100373.91      100370.2       101948.54      2.6019087e-06  5.1697423e-07  2.0849345e-06  1.0681535e+08
   2305000   3.5725496e-10  100358.33      100353.06      102457.51      2.6019048e-06  5.1729381e-07  2.084611e-06   1.0681094e+08
   2306000   3.5740995e-10  100350.46      100345.33      102403.57      2.6018948e-06  5.1744724e-07  2.0844475e-06  1.0680648e+08
   2307000   3.5756494e-10  100372.32      100366.09      102792.18      2.6018785e-06  5.1697696e-07  2.0849015e-06  1.0681071e+08
   2308000   3.5771993e-10  100355.47      100347.99      103191.6       2.6018675e-06  5.1731601e-07  2.0845515e-06  1.0680235e+08
   2309000   3.5787492e-10  100355.21      100347.1       103403.24      2.6018645e-06  5.1731837e-07  2.0845461e-06  1.0680374e+08
   2310000   3.5802991e-10  100372.29      100365.37      103021.38      2.6018916e-06  5.1699067e-07  2.0849009e-06  1.0681144e+08
   2311000   3.581849e-10   100372.06      100363.81      103467.31      2.6018997e-06  5.170036e-07   2.0848961e-06  1.0681215e+08
   2312000   3.583399e-10   100374.04      100369.47      102238.45      2.601894e-06   5.1695665e-07  2.0849373e-06  1.0681327e+08
   2313000   3.5849489e-10  100363.86      100358.61      102455.83      2.6018891e-06  5.1716341e-07  2.0847257e-06  1.0680844e+08
   2314000   3.5864988e-10  100356.29      100349.97      102805.67      2.6018799e-06  5.1731124e-07  2.0845687e-06  1.0680597e+08
   2315000   3.5880487e-10  100377.74      100371.45      102816.96      2.6018874e-06  5.1687324e-07  2.0850141e-06  1.0681416e+08
   2316000   3.5895986e-10  100359.32      100352.53      102967.6       2.6018992e-06  5.1726762e-07  2.0846316e-06  1.0680915e+08
   2317000   3.5911485e-10  100362.72      100356.79      102680.15      2.601884e-06   5.1718191e-07  2.084702e-06   1.0680935e+08
   2318000   3.5926984e-10  100373.08      100368.3       102308.04      2.6018912e-06  5.1697394e-07  2.0849173e-06  1.0681209e+08
   2319000   3.5942484e-10  100383.25      100378.49      102311.34      2.6018945e-06  5.1676585e-07  2.0851287e-06  1.068149e+08 
   2320000   3.5957983e-10  100369.22      100365.63      101905.34      2.6018978e-06  5.1706066e-07  2.0848372e-06  1.0681223e+08
   2321000   3.5973482e-10  100366.5       100364.63      101325.41      2.6018787e-06  5.1709808e-07  2.0847806e-06  1.0681006e+08
   2322000   3.5988981e-10  100369.03      100366.74      101471.36      2.6018742e-06  5.1704106e-07  2.0848332e-06  1.0680762e+08
   2323000   3.600448e-10   100378.5       100375.24      101802.7       2.6018852e-06  5.1685529e-07  2.0850299e-06  1.0680958e+08
   2324000   3.6019979e-10  100373.32      100370.37      101694.98      2.6018871e-06  5.1696482e-07  2.0849222e-06  1.0680838e+08
   2325000   3.6035478e-10  100373.45      100370.56      101675.12      2.6019023e-06  5.1697729e-07  2.084925e-06   1.0681203e+08
   2326000   3.6050977e-10  100370.72      100367.98      101622.06      2.6019036e-06  5.1703537e-07  2.0848683e-06  1.0681316e+08
   2327000   3.6066477e-10  100362.26      100359.19      101725.24      2.6018763e-06  5.1718372e-07  2.0846926e-06  1.0680833e+08
   2328000   3.6081976e-10  100360.56      100356.9       101918.73      2.6018946e-06  5.1723738e-07  2.0846572e-06  1.0680948e+08
   2329000   3.6097475e-10  100353.07      100350.64      101500.7       2.6018798e-06  5.1737807e-07  2.0845017e-06  1.0680456e+08
   2330000   3.6112974e-10  100361.81      100360.97      100976.31      2.6018782e-06  5.1719508e-07  2.0846831e-06  1.0680561e+08
   2331000   3.6128473e-10  100373.97      100372.8       101102.86      2.6018708e-06  5.1693497e-07  2.0849358e-06  1.0680972e+08
   2332000   3.6143972e-10  100378.16      100377.61      100896.86      2.6018786e-06  5.1685571e-07  2.0850229e-06  1.0681135e+08
   2333000   3.6159471e-10  100360.08      100360.93      100411.72      2.6018748e-06  5.172274e-07   2.0846474e-06  1.0680624e+08
   2334000   3.617497e-10   100369.42      100371.75      99926.257      2.6018901e-06  5.1704889e-07  2.0848412e-06  1.0681169e+08
   2335000   3.619047e-10   100352.09      100354.12      100011.07      2.6019013e-06  5.174199e-07   2.0844814e-06  1.068064e+08 
   2336000   3.6205969e-10  100352.69      100353.53      100408.58      2.6018849e-06  5.17391e-07    2.0844939e-06  1.0680534e+08
   2337000   3.6221468e-10  100357.94      100359.42      100198.84      2.6018795e-06  5.172767e-07   2.0846028e-06  1.068059e+08 
   2338000   3.6236967e-10  100363.8       100366.42      99823.197      2.6018865e-06  5.1716194e-07  2.0847245e-06  1.0680801e+08
   2339000   3.6252466e-10  100351.73      100354.11      99888.775      2.601905e-06   5.174312e-07   2.0844738e-06  1.0680651e+08
   2340000   3.6267965e-10  100380.09      100381.14      100365.68      2.6019056e-06  5.1684269e-07  2.0850629e-06  1.0681518e+08
   2341000   3.6283464e-10  100387.01      100386.65      100842.53      2.6018895e-06  5.1668277e-07  2.0852067e-06  1.0681607e+08
   2342000   3.6298964e-10  100363.45      100361.13      101475.04      2.6018804e-06  5.1716314e-07  2.0847172e-06  1.0680854e+08
   2343000   3.6314463e-10  100372.83      100369.86      101700.22      2.6018817e-06  5.1696953e-07  2.0849121e-06  1.068104e+08 
   2344000   3.6329962e-10  100358.93      100355.57      101816.98      2.6018788e-06  5.1725547e-07  2.0846233e-06  1.0680517e+08
   2345000   3.6345461e-10  100375.88      100373.12      101632.62      2.6018968e-06  5.1692137e-07  2.0849754e-06  1.0681347e+08
   2346000   3.636096e-10   100367.11      100364.95      101425.81      2.601898e-06   5.1710461e-07  2.0847933e-06  1.0681037e+08
   2347000   3.6376459e-10  100380.73      100380.93      100648.92      2.6019074e-06  5.168312e-07   2.0850762e-06  1.0681458e+08
   2348000   3.6391958e-10  100362.36      100361.62      100943.3       2.6019093e-06  5.1721474e-07  2.0846946e-06  1.0680797e+08
   2349000   3.6407457e-10  100366.35      100365.67      100931.69      2.6019029e-06  5.171253e-07   2.0847776e-06  1.0681013e+08
   2350000   3.6422957e-10  100376.81      100375.36      101196.95      2.6018972e-06  5.1690247e-07  2.0849947e-06  1.0681218e+08
   2351000   3.6438456e-10  100384.53      100383.68      101006.36      2.601865e-06   5.1670978e-07  2.0851552e-06  1.0681121e+08
   2352000   3.6453955e-10  100370.44      100368.95      101205.58      2.6018818e-06  5.1701922e-07  2.0848625e-06  1.0680737e+08
   2353000   3.6469454e-10  100374.42      100373.11      101147.9       2.6018858e-06  5.1694066e-07  2.0849451e-06  1.0680971e+08
   2354000   3.6484953e-10  100376.4       100374.88      101218.61      2.6018694e-06  5.1688318e-07  2.0849862e-06  1.0681105e+08
   2355000   3.6500452e-10  100369.76      100368.41      101156.83      2.6018812e-06  5.1703291e-07  2.0848483e-06  1.0680979e+08
   2356000   3.6515951e-10  100359.09      100356.29      101630.17      2.6019059e-06  5.172792e-07   2.0846267e-06  1.0680851e+08
   2357000   3.653145e-10   100359.75      100355.86      101994.58      2.6018942e-06  5.1725385e-07  2.0846404e-06  1.0681091e+08
   2358000   3.654695e-10   100353.41      100350.06      101811.83      2.6019152e-06  5.1740636e-07  2.0845088e-06  1.0681091e+08
   2359000   3.6562449e-10  100356.24      100355.29      101008.62      2.6019101e-06  5.1734259e-07  2.0845675e-06  1.0681105e+08
   2360000   3.6577948e-10  100359         100359.81      100423.64      2.6019045e-06  5.1727971e-07  2.0846248e-06  1.0681131e+08
   2361000   3.6593447e-10  100360.58      100360.32      100783.79      2.6019123e-06  5.1725463e-07  2.0846577e-06  1.0681235e+08
   2362000   3.6608946e-10  100370.85      100369.66      101104.28      2.6018945e-06  5.1702351e-07  2.084871e-06   1.0681021e+08
   2363000   3.6624445e-10  100376.61      100375.16      101198.01      2.6018905e-06  5.1689991e-07  2.0849906e-06  1.0681218e+08
   2364000   3.6639944e-10  100380.42      100380.04      100841.22      2.6018749e-06  5.1680511e-07  2.0850697e-06  1.0681122e+08
   2365000   3.6655444e-10  100387.88      100386.73      101108.48      2.6018775e-06  5.1665271e-07  2.0852247e-06  1.0681212e+08
   2366000   3.6670943e-10  100372.56      100370.34      101451.97      2.6018808e-06  5.1697431e-07  2.0849065e-06  1.0681113e+08
   2367000   3.6686442e-10  100363.98      100359.36      102245.21      2.6018787e-06  5.1715036e-07  2.0847284e-06  1.0681081e+08
   2368000   3.6701941e-10  100369.46      100362.76      102945.05      2.6018817e-06  5.1703955e-07  2.0848421e-06  1.0681025e+08
   2369000   3.671744e-10   100359.66      100352.09      103226.34      2.6018898e-06  5.1725126e-07  2.0846385e-06  1.0680606e+08
   2370000   3.6732939e-10  100364.69      100355.14      103893.57      2.6018928e-06  5.1714969e-07  2.0847431e-06  1.0680812e+08
   2371000   3.6748438e-10  100367.97      100358.1       104007         2.6019039e-06  5.1709264e-07  2.0848112e-06  1.068112e+08 
   2372000   3.6763937e-10  100358.5       100347.78      104280.53      2.6019159e-06  5.1730135e-07  2.0846145e-06  1.0680883e+08
   2373000   3.6779437e-10  100348.57      100335.59      105024.31      2.6018996e-06  5.1749133e-07  2.0844082e-06  1.0680396e+08
   2374000   3.6794936e-10  100374.37      100363.36      104393.4       2.6018872e-06  5.169431e-07   2.0849441e-06  1.0681269e+08
   2375000   3.6810435e-10  100351.08      100340.7       104156.85      2.6019079e-06  5.1744759e-07  2.0844603e-06  1.0680613e+08
   2376000   3.6825934e-10  100365.12      100353.8       104487.96      2.6018886e-06  5.1713661e-07  2.084752e-06   1.0680927e+08
   2377000   3.6841433e-10  100377.45      100366.3       104442.47      2.6018864e-06  5.168783e-07   2.0850081e-06  1.0681082e+08
   2378000   3.6856932e-10  100376.11      100366.73      103850.92      2.6018873e-06  5.1690705e-07  2.0849803e-06  1.0680994e+08
   2379000   3.6872431e-10  100381.14      100372.89      103477.36      2.601877e-06   5.167922e-07   2.0850848e-06  1.0681194e+08
   2380000   3.688793e-10   100365.92      100361.02      102339.54      2.6018783e-06  5.1710975e-07  2.0847686e-06  1.068089e+08 
   2381000   3.690343e-10   100357.1       100353.13      102020.11      2.601909e-06   5.1732367e-07  2.0845853e-06  1.0680948e+08
   2382000   3.6918929e-10  100353.71      100349.53      102089.62      2.6019093e-06  5.1739424e-07  2.084515e-06   1.0680854e+08
   2383000   3.6934428e-10  100365.14      100363.75      101164.33      2.6019202e-06  5.1716782e-07  2.0847524e-06  1.0681226e+08
   2384000   3.6949927e-10  100360.48      100360.23      100779.94      2.6019056e-06  5.1725006e-07  2.0846556e-06  1.0680939e+08
   2385000   3.6965426e-10  100352.51      100352.47      100701.18      2.6019063e-06  5.1741624e-07  2.08449e-06    1.0680587e+08
   2386000   3.6980925e-10  100351.65      100350.77      100980.13      2.60191e-06    5.1743788e-07  2.0844721e-06  1.0680416e+08
   2387000   3.6996424e-10  100374.8       100372.19      101581.29      2.6018843e-06  5.1693139e-07  2.084953e-06   1.0680947e+08
   2388000   3.7011924e-10  100361.76      100356.96      102302.58      2.6018918e-06  5.1720966e-07  2.0846821e-06  1.0680803e+08
   2389000   3.7027423e-10  100365.66      100360.2       102526.5       2.6018986e-06  5.1713537e-07  2.0847632e-06  1.0680988e+08
   2390000   3.7042922e-10  100369.82      100362.34      103205.53      2.6018891e-06  5.1703956e-07  2.0848496e-06  1.0680993e+08
   2391000   3.7058421e-10  100360.15      100351.97      103432.27      2.6018978e-06  5.1724904e-07  2.0846488e-06  1.0680771e+08
   2392000   3.707392e-10   100368.59      100359.54      103732.22      2.6018904e-06  5.1706629e-07  2.0848241e-06  1.0681241e+08
   2393000   3.7089419e-10  100357.93      100349.88      103386.37      2.6018766e-06  5.1727389e-07  2.0846027e-06  1.0680819e+08
   2394000   3.7104918e-10  100374.66      100365.55      103756.38      2.6018899e-06  5.1693988e-07  2.08495e-06    1.0681071e+08
   2395000   3.7120417e-10  100360.98      100352.91      103397.97      2.6018724e-06  5.1720633e-07  2.0846661e-06  1.0680453e+08
   2396000   3.7135917e-10  100386.77      100378.24      103575.01      2.6018854e-06  5.1668382e-07  2.0852016e-06  1.0681491e+08
   2397000   3.7151416e-10  100377.57      100368.72      103674.99      2.6019068e-06  5.1689623e-07  2.0850106e-06  1.0681299e+08
   2398000   3.7166915e-10  100364.55      100354.51      104058.2       2.6019047e-06  5.1716452e-07  2.0847402e-06  1.0681094e+08
   2399000   3.7182414e-10  100368.38      100357.82      104236.37      2.6019217e-06  5.1710196e-07  2.0848197e-06  1.0681376e+08
   2400000   3.7197913e-10  100360.02      100349.37      104257.75      2.6018913e-06  5.1724531e-07  2.084646e-06   1.0680943e+08
   2401000   3.7213412e-10  100363.07      100353.2       103999.43      2.6018891e-06  5.1717964e-07  2.0847095e-06  1.0680944e+08
   2402000   3.7228911e-10  100361.33      100350.34      104373.25      2.601898e-06   5.1722479e-07  2.0846732e-06  1.0681105e+08
   2403000   3.724441e-10   100359.41      100348.77      104252.68      2.6019073e-06  5.1727394e-07  2.0846334e-06  1.0680987e+08
   2404000   3.725991e-10   100370.9       100360.81      104081.25      2.6019368e-06  5.1706471e-07  2.0848721e-06  1.0681475e+08
   2405000   3.7275409e-10  100378.8       100371.1       103289.69      2.6019269e-06  5.1689079e-07  2.0850361e-06  1.0681697e+08
   2406000   3.7290908e-10  100367.27      100358.69      103573.59      2.601916e-06   5.1711931e-07  2.0847967e-06  1.0681427e+08
   2407000   3.7306407e-10  100337.91      100329.49      103488.56      2.6019026e-06  5.1771583e-07  2.0841867e-06  1.0680409e+08
   2408000   3.7321906e-10  100347.93      100340.33      103225.41      2.6019006e-06  5.1750575e-07  2.0843949e-06  1.0680579e+08
   2409000   3.7337405e-10  100366.23      100358.61      103249.75      2.6018728e-06  5.1709776e-07  2.084775e-06   1.0680813e+08
   2410000   3.7352904e-10  100365.84      100357.01      103653.66      2.6018629e-06  5.1709598e-07  2.084767e-06   1.068075e+08 
   2411000   3.7368404e-10  100361.95      100352.85      103739.91      2.6018998e-06  5.1721365e-07  2.0846861e-06  1.0680765e+08
   2412000   3.7383903e-10  100379.71      100372.31      103188.92      2.6018895e-06  5.1683451e-07  2.085055e-06   1.0681399e+08
   2413000   3.7399402e-10  100367.59      100361.2       102840.65      2.6019083e-06  5.1710507e-07  2.0848032e-06  1.068121e+08 
   2414000   3.7414901e-10  100354.32      100348.4       102671.05      2.6019121e-06  5.1738447e-07  2.0845277e-06  1.0680755e+08
   2415000   3.74304e-10    100369.76      100364.05      102615.23      2.6018865e-06  5.1703821e-07  2.0848483e-06  1.0681161e+08
   2416000   3.7445899e-10  100354.76      100348.85      102668.68      2.6018984e-06  5.1736154e-07  2.0845369e-06  1.0680865e+08
   2417000   3.7461398e-10  100367.46      100363.3       102094.69      2.6019185e-06  5.1711798e-07  2.0848006e-06  1.068137e+08 
   2418000   3.7476897e-10  100350.75      100345.5       102443.49      2.6018952e-06  5.1744167e-07  2.0844536e-06  1.068065e+08 
   2419000   3.7492397e-10  100340.11      100335.44      102235.29      2.6018929e-06  5.1766045e-07  2.0842324e-06  1.0680182e+08
   2420000   3.7507896e-10  100367.97      100366.74      101114.12      2.6019112e-06  5.1710006e-07  2.0848111e-06  1.0681225e+08
   2421000   3.7523395e-10  100361.83      100360.93      101001.48      2.6019089e-06  5.1722513e-07  2.0846837e-06  1.0681076e+08
   2422000   3.7538894e-10  100373.15      100372.05      101076.89      2.6019032e-06  5.1698434e-07  2.0849188e-06  1.0681385e+08
   2423000   3.7554393e-10  100359.62      100359.29      100804.75      2.6018981e-06  5.1726037e-07  2.0846377e-06  1.068079e+08 
   2424000   3.7569892e-10  100348.01      100345.95      101371.3       2.601903e-06   5.1750651e-07  2.0843965e-06  1.0680521e+08
   2425000   3.7585391e-10  100372.81      100371.75      101063.55      2.6019024e-06  5.169907e-07   2.0849117e-06  1.0681435e+08
   2426000   3.760089e-10   100381.6       100382.09      100550.35      2.6019053e-06  5.1681113e-07  2.0850942e-06  1.06815e+08  
   2427000   3.761639e-10   100374.44      100376.21      100118.86      2.6018931e-06  5.1694748e-07  2.0849456e-06  1.0681083e+08
   2428000   3.7631889e-10  100366.47      100369.65      99637.789      2.6019023e-06  5.1712233e-07  2.0847799e-06  1.0681229e+08
   2429000   3.7647388e-10  100365.52      100368.08      99844.039      2.6019007e-06  5.1714045e-07  2.0847603e-06  1.0681189e+08
   2430000   3.7662887e-10  100362.74      100365.16      99889.514      2.6019037e-06  5.1720121e-07  2.0847025e-06  1.0680992e+08
   2431000   3.7678386e-10  100366.51      100369.35      99749.897      2.6019129e-06  5.1713216e-07  2.0847808e-06  1.0681115e+08
   2432000   3.7693885e-10  100368.16      100372.23      99344.534      2.6018872e-06  5.1707195e-07  2.0848152e-06  1.0680947e+08
   2433000   3.7709384e-10  100366.2       100370.87      99138.858      2.6018894e-06  5.1711501e-07  2.0847744e-06  1.06808e+08  
   2434000   3.7724884e-10  100363.38      100367.97      99165.902      2.6018845e-06  5.1716856e-07  2.0847159e-06  1.0680538e+08
   2435000   3.7740383e-10  100370.21      100376.28      98675.623      2.6018818e-06  5.1702407e-07  2.0848577e-06  1.0680782e+08
   2436000   3.7755882e-10  100370.22      100377.41      98303.433      2.6018788e-06  5.1702082e-07  2.084858e-06   1.0680864e+08
   2437000   3.7771381e-10  100354.31      100362.18      98055.931      2.6018743e-06  5.1734692e-07  2.0845274e-06  1.0680379e+08
   2438000   3.778688e-10   100353.99      100362.45      97859.592      2.601885e-06   5.1736415e-07  2.0845208e-06  1.0680369e+08
   2439000   3.7802379e-10  100378.5       100387.09      97840.419      2.601882e-06   5.1685215e-07  2.0850299e-06  1.0681312e+08
   2440000   3.7817878e-10  100371.02      100379.88      97745.767      2.601916e-06   5.1704139e-07  2.0848746e-06  1.0681293e+08
   2441000   3.7833377e-10  100380.88      100389.89      97704.054      2.601937e-06   5.1685758e-07  2.0850794e-06  1.0681947e+08
   2442000   3.7848877e-10  100349.86      100358.77      97708.404      2.6019325e-06  5.1749746e-07  2.0844351e-06  1.0680759e+08
   2443000   3.7864376e-10  100369.5       100377.17      98139.659      2.6019038e-06  5.1706091e-07  2.0848429e-06  1.0681175e+08
   2444000   3.7879875e-10  100365.22      100372.95      98114.493      2.6018926e-06  5.171387e-07   2.084754e-06   1.0680744e+08
   2445000   3.7895374e-10  100374.52      100380.41      98740.376      2.6018978e-06  5.1695055e-07  2.0849473e-06  1.0681236e+08
   2446000   3.7910873e-10  100365.48      100370.55      99003.838      2.6018995e-06  5.1714013e-07  2.0847594e-06  1.0680985e+08
   2447000   3.7926372e-10  100362.66      100368.07      98888.777      2.6018817e-06  5.1718078e-07  2.0847009e-06  1.0680852e+08
   2448000   3.7941871e-10  100365.5       100371.4       98730.472      2.6018852e-06  5.171252e-07   2.08476e-06    1.068074e+08 
   2449000   3.795737e-10   100362.55      100370.99      97875.017      2.6018789e-06  5.1718029e-07  2.0846986e-06  1.0680636e+08
   2450000   3.797287e-10   100364.51      100373.03      97851.324      2.6018736e-06  5.1713433e-07  2.0847393e-06  1.0680714e+08
   2451000   3.7988369e-10  100376.59      100384.9       97930.734      2.6018729e-06  5.1688281e-07  2.0849901e-06  1.0680919e+08
   2452000   3.8003868e-10  100365.45      100373.66      97954.415      2.6018764e-06  5.1711767e-07  2.0847588e-06  1.0680764e+08
   2453000   3.8019367e-10  100356.56      100364.05      98184.497      2.6018859e-06  5.1731187e-07  2.0845741e-06  1.0680582e+08
   2454000   3.8034866e-10  100359.18      100367.93      97769.281      2.6018831e-06  5.1725446e-07  2.0846286e-06  1.0680819e+08
   2455000   3.8050365e-10  100376.22      100384.47      97955.123      2.6018885e-06  5.1690593e-07  2.0849826e-06  1.0681162e+08
   2456000   3.8065864e-10  100366.36      100376.63      97267.201      2.6018768e-06  5.1709911e-07  2.0847777e-06  1.0680526e+08
   2457000   3.8081364e-10  100375.18      100386.13      97049.877      2.6018836e-06  5.1692267e-07  2.084961e-06   1.0680912e+08
   2458000   3.8096863e-10  100372.9       100382.86      97376.959      2.6019014e-06  5.1698779e-07  2.0849136e-06  1.0681111e+08
   2459000   3.8112362e-10  100367.05      100376.98      97381.341      2.6018951e-06  5.1710302e-07  2.0847921e-06  1.0681166e+08
   2460000   3.8127861e-10  100357.19      100367.52      97237.016      2.6019117e-06  5.1732447e-07  2.0845872e-06  1.0680893e+08
   2461000   3.814336e-10   100351.36      100360.54      97615.85       2.6018994e-06  5.174333e-07   2.0844661e-06  1.0680569e+08
   2462000   3.8158859e-10  100353.99      100362.91      97707.618      2.6018921e-06  5.1737133e-07  2.0845208e-06  1.0680656e+08
   2463000   3.8174358e-10  100378.31      100386.28      98050.187      2.6018945e-06  5.1686847e-07  2.085026e-06   1.0681357e+08
   2464000   3.8189857e-10  100370.02      100377.34      98259.002      2.6019099e-06  5.1705617e-07  2.0848538e-06  1.0680963e+08
   2465000   3.8205357e-10  100371.53      100379.8       97941.424      2.6019005e-06  5.1701537e-07  2.0848851e-06  1.0681147e+08
   2466000   3.8220856e-10  100363.18      100370.02      98412.575      2.6019022e-06  5.1719051e-07  2.0847117e-06  1.0681001e+08
   2467000   3.8236355e-10  100373.13      100379.04      98732.071      2.6019006e-06  5.1698215e-07  2.0849184e-06  1.0681392e+08
   2468000   3.8251854e-10  100367.86      100373.58      98791.77       2.6019004e-06  5.1709146e-07  2.084809e-06   1.0681094e+08
   2469000   3.8267353e-10  100356.31      100360.93      99147.165      2.6018903e-06  5.1732133e-07  2.084569e-06   1.0680557e+08
   2470000   3.8282852e-10  100387.38      100391.06      99491.743      2.6019008e-06  5.1668644e-07  2.0852144e-06  1.0681821e+08
   2471000   3.8298351e-10  100353.45      100357.07      99479.848      2.6019015e-06  5.1739188e-07  2.0845096e-06  1.0680647e+08
   2472000   3.831385e-10   100372.68      100377.19      99198.95       2.601915e-06   5.1700603e-07  2.084909e-06   1.0681669e+08
   2473000   3.832935e-10   100359.48      100363.89      99219.723      2.6018962e-06  5.1726135e-07  2.0846349e-06  1.0681101e+08
   2474000   3.8344849e-10  100353.78      100357.17      99556.778      2.6019119e-06  5.173955e-07   2.0845164e-06  1.0680895e+08
   2475000   3.8360348e-10  100362.37      100363.03      100479.66      2.6018895e-06  5.1719458e-07  2.0846949e-06  1.0680897e+08
   2476000   3.8375847e-10  100368.98      100368.44      100887.35      2.6018987e-06  5.1706651e-07  2.0848322e-06  1.0681192e+08
   2477000   3.8391346e-10  100352.45      100352.28      100746.63      2.6018962e-06  5.1740733e-07  2.0844889e-06  1.0680502e+08
   2478000   3.8406845e-10  100368.75      100368.21      100887.04      2.6018912e-06  5.170638e-07   2.0848274e-06  1.068093e+08 
   2479000   3.8422344e-10  100363.98      100361.74      101448.79      2.6018924e-06  5.1716408e-07  2.0847283e-06  1.0680849e+08
   2480000   3.8437844e-10  100356.33      100354.03      101460.29      2.601911e-06   5.1734165e-07  2.0845694e-06  1.0680718e+08
   2481000   3.8453343e-10  100356.05      100354.4       101242.17      2.6018901e-06  5.1732658e-07  2.0845635e-06  1.0680781e+08
   2482000   3.8468842e-10  100380.69      100381.03      100605.21      2.6018933e-06  5.1681787e-07  2.0850755e-06  1.0681588e+08
   2483000   3.8484341e-10  100372.67      100372.84      100651.12      2.6019038e-06  5.1699497e-07  2.0849088e-06  1.0681262e+08
   2484000   3.849984e-10   100366.86      100366.03      100981.02      2.6018904e-06  5.1710225e-07  2.0847882e-06  1.0680852e+08
   2485000   3.8515339e-10  100372.11      100369.12      101707.89      2.6018992e-06  5.1700211e-07  2.0848971e-06  1.0681084e+08
   2486000   3.8530838e-10  100370.91      100366.82      102075.48      2.6018971e-06  5.1702484e-07  2.0848723e-06  1.0681126e+08
   2487000   3.8546337e-10  100371.67      100366.33      102495.86      2.6018921e-06  5.1700399e-07  2.0848881e-06  1.0681166e+08
   2488000   3.8561837e-10  100351.51      100342.8       103600.72      2.6018898e-06  5.1742051e-07  2.0844693e-06  1.0680563e+08
   2489000   3.8577336e-10  100357.57      100347.94      103914.02      2.6018884e-06  5.1729331e-07  2.0845951e-06  1.0680707e+08
   2490000   3.8592835e-10  100361.62      100351.4       104112.91      2.6019015e-06  5.1722233e-07  2.0846792e-06  1.0680914e+08
   2491000   3.8608334e-10  100374.98      100365.21      103978.81      2.6018932e-06  5.1693647e-07  2.0849567e-06  1.0681451e+08
   2492000   3.8623833e-10  100357.12      100348.4       103607.16      2.6019053e-06  5.1731956e-07  2.0845858e-06  1.0681016e+08
   2493000   3.8639332e-10  100350.44      100340.82      103901.73      2.6018956e-06  5.1744855e-07  2.084447e-06   1.0680778e+08
   2494000   3.8654831e-10  100363.67      100352.55      104418.96      2.6018932e-06  5.1717132e-07  2.0847219e-06  1.068105e+08 
   2495000   3.867033e-10   100367.48      100354.42      105070.3       2.6018869e-06  5.1708593e-07  2.084801e-06   1.0681013e+08
   2496000   3.868583e-10   100365.06      100349.54      105890.35      2.6018897e-06  5.1713901e-07  2.0847507e-06  1.0680834e+08
   2497000   3.8701329e-10  100356.34      100337.05      107140.42      2.6018963e-06  5.1732682e-07  2.0845695e-06  1.0680717e+08
   2498000   3.8716828e-10  100350.44      100331.51      107017.06      2.6019144e-06  5.1746743e-07  2.0844469e-06  1.0680817e+08
   2499000   3.8732327e-10  100357.08      100341.59      105875.7       2.6019058e-06  5.1732075e-07  2.084585e-06   1.0680946e+08
   2500000   3.8747826e-10  100355.57      100341.35      105446.72      2.6018893e-06  5.1733576e-07  2.0845536e-06  1.0680778e+08
   2501000   3.8763325e-10  100372.7       100358.21      105554.44      2.6018995e-06  5.1699005e-07  2.0849095e-06  1.068118e+08 
   2502000   3.8778824e-10  100371.17      100356.5       105612.05      2.6019112e-06  5.1703352e-07  2.0848777e-06  1.0681205e+08
   2503000   3.8794324e-10  100367.57      100350.63      106366.72      2.6018885e-06  5.1708565e-07  2.0848028e-06  1.0680953e+08
   2504000   3.8809823e-10  100381.45      100366.16      105831.31      2.6018769e-06  5.1678566e-07  2.0850912e-06  1.0681265e+08
   2505000   3.8825322e-10  100366.39      100351.43      105707.52      2.6018913e-06  5.1711289e-07  2.0847784e-06  1.0680731e+08
   2506000   3.8840821e-10  100371.77      100354.96      106331.33      2.6018868e-06  5.1699658e-07  2.0848902e-06  1.0680938e+08
   2507000   3.885632e-10   100375.07      100359.03      106075.7       2.6018871e-06  5.1692841e-07  2.0849587e-06  1.0681018e+08
   2508000   3.8871819e-10  100372.39      100353.89      106895.16      2.6018969e-06  5.1699383e-07  2.0849031e-06  1.068104e+08 
   2509000   3.8887318e-10  100357.49      100338.72      106970.1       2.6019074e-06  5.1731398e-07  2.0845934e-06  1.0680941e+08
   2510000   3.8902817e-10  100363.4       100345.33      106740.41      2.6018951e-06  5.1717888e-07  2.0847162e-06  1.0681003e+08
   2511000   3.8918317e-10  100367.44      100349.22      106796.64      2.6018929e-06  5.1709274e-07  2.0848002e-06  1.0680987e+08
   2512000   3.8933816e-10  100374.75      100356.64      106768.59      2.6018854e-06  5.1693346e-07  2.084952e-06   1.0681031e+08
   2513000   3.8949315e-10  100371.85      100355.06      106323.65      2.6018915e-06  5.1699966e-07  2.0848918e-06  1.0680895e+08
   2514000   3.8964814e-10  100375.52      100360.81      105632.59      2.6018827e-06  5.1691466e-07  2.084968e-06   1.0681135e+08
   2515000   3.8980313e-10  100359.16      100346.54      104914.12      2.6018854e-06  5.1725732e-07  2.0846281e-06  1.0680737e+08
   2516000   3.8995812e-10  100386.28      100372.94      105180.44      2.6018926e-06  5.1670117e-07  2.0851914e-06  1.0681507e+08
   2517000   3.9011311e-10  100365.22      100352.12      105082.53      2.6018946e-06  5.1714056e-07  2.0847541e-06  1.068086e+08 
   2518000   3.902681e-10   100364.94      100351.87      105069.73      2.601909e-06   5.1716088e-07  2.0847482e-06  1.0681161e+08
   2519000   3.904231e-10   100360.03      100349.13      104338.56      2.6019103e-06  5.1726414e-07  2.0846461e-06  1.0680986e+08
   2520000   3.9057809e-10  100362.27      100353.25      103717         2.6018937e-06  5.1720084e-07  2.0846928e-06  1.0680904e+08
   2521000   3.9073308e-10  100355.81      100347.52      103462.93      2.6018912e-06  5.1733266e-07  2.0845586e-06  1.0680495e+08
   2522000   3.9088807e-10  100393.3       100386.4       103035.56      2.6018926e-06  5.1655537e-07  2.0853372e-06  1.0681554e+08
   2523000   3.9104306e-10  100367.89      100359.65      103459.36      2.6018664e-06  5.1705693e-07  2.0848095e-06  1.068067e+08 
   2524000   3.9119805e-10  100350.34      100341.99      103478.25      2.6018639e-06  5.1741897e-07  2.084445e-06   1.0680134e+08
   2525000   3.9135304e-10  100363.42      100353.3       104081.8       2.6018859e-06  5.1716931e-07  2.0847166e-06  1.0680945e+08
   2526000   3.9150804e-10  100354.86      100344.75      104071.39      2.6018694e-06  5.1733056e-07  2.0845388e-06  1.068059e+08 
   2527000   3.9166303e-10  100363.92      100351.85      104736.47      2.601908e-06   5.1718102e-07  2.084727e-06   1.068101e+08 
   2528000   3.9181802e-10  100356.79      100344.42      104830.94      2.6018957e-06  5.1731672e-07  2.084579e-06   1.0680782e+08
   2529000   3.9197301e-10  100359.93      100347.83      104741.14      2.6019007e-06  5.1725659e-07  2.0846441e-06  1.0681068e+08
   2530000   3.92128e-10    100362.56      100350.13      104855.95      2.6019052e-06  5.1720648e-07  2.0846988e-06  1.0681163e+08
   2531000   3.9228299e-10  100382.82      100368.85      105392.38      2.6019059e-06  5.1678625e-07  2.0851197e-06  1.0681681e+08
   2532000   3.9243798e-10  100351.48      100336.98      105536.11      2.6018842e-06  5.1741561e-07  2.0844686e-06  1.0680535e+08
   2533000   3.9259297e-10  100358.96      100343.25      105947.5       2.6018822e-06  5.1725814e-07  2.084624e-06   1.0680933e+08
   2534000   3.9274797e-10  100373.13      100356.23      106362.42      2.6018789e-06  5.1696053e-07  2.0849184e-06  1.0681067e+08
   2535000   3.9290296e-10  100369.35      100355.29      105408.57      2.6018914e-06  5.170515e-07   2.0848399e-06  1.0680916e+08
   2536000   3.9305795e-10  100386.37      100373.51      105025.57      2.6018982e-06  5.1670474e-07  2.0851935e-06  1.0681358e+08
   2537000   3.9321294e-10  100371.82      100357.67      105439.66      2.6018906e-06  5.1699946e-07  2.0848912e-06  1.0680993e+08
   2538000   3.9336793e-10  100379.66      100366.41      105144.79      2.6019002e-06  5.1684628e-07  2.0850539e-06  1.0681426e+08
   2539000   3.9352292e-10  100376.52      100364.01      104895.96      2.6019016e-06  5.1691286e-07  2.0849888e-06  1.0681266e+08
   2540000   3.9367791e-10  100386.35      100373.1       105155.73      2.6018967e-06  5.1670371e-07  2.085193e-06   1.068147e+08 
   2541000   3.938329e-10   100378.45      100365.04      105197.77      2.6018961e-06  5.1686738e-07  2.0850288e-06  1.0681218e+08
   2542000   3.939879e-10   100353.77      100340.51      105123.38      2.6019082e-06  5.1739201e-07  2.0845162e-06  1.0680662e+08
   2543000   3.9414289e-10  100363.33      100349.63      105282.51      2.6019164e-06  5.1720157e-07  2.0847148e-06  1.0681187e+08
   2544000   3.9429788e-10  100372.92      100360.9       104727.87      2.6019205e-06  5.1700654e-07  2.084914e-06   1.0681484e+08
   2545000   3.9445287e-10  100356.88      100344.8       104735.12      2.6019219e-06  5.1734104e-07  2.0845809e-06  1.0680967e+08
   2546000   3.9460786e-10  100357.19      100344.69      104873.5       2.6018989e-06  5.1731167e-07  2.0845873e-06  1.0680801e+08
   2547000   3.9476285e-10  100363.84      100351.46      104840.31      2.6019056e-06  5.1718024e-07  2.0847253e-06  1.0681074e+08
   2548000   3.9491784e-10  100355.28      100341.23      105388.12      2.6019052e-06  5.1735768e-07  2.0845475e-06  1.068077e+08 
   2549000   3.9507284e-10  100366.62      100350.64      106046.28      2.6019087e-06  5.1712572e-07  2.084783e-06   1.068112e+08 
   2550000   3.9522783e-10  100345.33      100326.57      106954.82      2.6018885e-06  5.1754755e-07  2.0843409e-06  1.0680259e+08
   2551000   3.9538282e-10  100364.33      100343.79      107570.75      2.6018968e-06  5.1716121e-07  2.0847355e-06  1.0681147e+08
   2552000   3.9553781e-10  100365.81      100341.15      108948.93      2.6018877e-06  5.1712131e-07  2.0847664e-06  1.0681179e+08
   2553000   3.956928e-10   100351.39      100326.56      108989.24      2.6018889e-06  5.1742219e-07  2.0844667e-06  1.0680558e+08
   2554000   3.9584779e-10  100359.83      100337.19      108264.31      2.6018839e-06  5.1724192e-07  2.084642e-06   1.0680667e+08
   2555000   3.9600278e-10  100374.88      100352.95      108045.5       2.6018912e-06  5.1693651e-07  2.0849547e-06  1.0681212e+08
   2556000   3.9615777e-10  100351.27      100331.95      107150.5       2.6018933e-06  5.1742893e-07  2.0844643e-06  1.0680595e+08
   2557000   3.9631277e-10  100341.29      100320.78      107538.68      2.601881e-06   5.1762394e-07  2.0842571e-06  1.0680323e+08
   2558000   3.9646776e-10  100359.77      100338.16      107923.82      2.6019056e-06  5.1726462e-07  2.0846409e-06  1.0681191e+08
   2559000   3.9662275e-10  100354.19      100333.2       107709.37      2.6018982e-06  5.1737329e-07  2.0845249e-06  1.0680825e+08
   2560000   3.9677774e-10  100379.89      100358.36      107914.41      2.6019065e-06  5.1684778e-07  2.0850588e-06  1.06817e+08  
   2561000   3.9693273e-10  100362.75      100340.76      108052.93      2.6018947e-06  5.1719195e-07  2.0847028e-06  1.0680804e+08
   2562000   3.9708772e-10  100375.05      100352.72      108180.79      2.6019037e-06  5.1694539e-07  2.0849583e-06  1.0681305e+08
   2563000   3.9724271e-10  100363.71      100342.67      107736.29      2.6018955e-06  5.1717275e-07  2.0847227e-06  1.0680977e+08
   2564000   3.973977e-10   100367.29      100347.64      107275.63      2.6018895e-06  5.1709243e-07  2.0847971e-06  1.0681067e+08
   2565000   3.975527e-10   100363.05      100342.76      107485.98      2.6018875e-06  5.1717854e-07  2.084709e-06   1.0680844e+08
   2566000   3.9770769e-10  100375.8       100354.8       107734.1       2.6018859e-06  5.1691206e-07  2.0849739e-06  1.0681096e+08
   2567000   3.9786268e-10  100365.51      100345         107560.67      2.6018688e-06  5.1710875e-07  2.08476e-06    1.0680685e+08
   2568000   3.9801767e-10  100356.58      100338.83      106629.23      2.6018954e-06  5.1732088e-07  2.0845745e-06  1.068086e+08 
   2569000   3.9817266e-10  100361.03      100344.23      106313.19      2.6019052e-06  5.172383e-07   2.084667e-06   1.068106e+08 
   2570000   3.9832765e-10  100370.62      100351.82      106995.16      2.6018693e-06  5.1700296e-07  2.0848663e-06  1.0680947e+08
   2571000   3.9848264e-10  100376.29      100356.91      107193.58      2.6018888e-06  5.1690481e-07  2.084984e-06   1.0681145e+08
   2572000   3.9863764e-10  100373.14      100354.93      106797.03      2.6018763e-06  5.1695784e-07  2.0849185e-06  1.0680928e+08
   2573000   3.9879263e-10  100383.86      100364.74      107114.43      2.6019056e-06  5.1676431e-07  2.0851413e-06  1.0681683e+08
   2574000   3.9894762e-10  100345.97      100327.08      106999.12      2.6018804e-06  5.1752623e-07  2.0843542e-06  1.0680174e+08
   2575000   3.9910261e-10  100368.54      100350.53      106727.6       2.6018792e-06  5.1705621e-07  2.084823e-06   1.0680723e+08
   2576000   3.992576e-10   100369.57      100350.94      106933.63      2.6018747e-06  5.1703038e-07  2.0848443e-06  1.0680737e+08
   2577000   3.9941259e-10  100367.03      100348.97      106744.73      2.6018861e-06  5.1709434e-07  2.0847917e-06  1.0680826e+08
   2578000   3.9956758e-10  100374.06      100357.77      106158.32      2.6018849e-06  5.1694713e-07  2.0849377e-06  1.0680969e+08
   2579000   3.9972257e-10  100387.68      100370.05      106620.87      2.6018915e-06  5.1667085e-07  2.0852206e-06  1.0681397e+08
   2580000   3.9987757e-10  100374.6       100356.52      106757.3       2.6018908e-06  5.1694193e-07  2.0849489e-06  1.0681009e+08
   2581000   4.0003256e-10  100391.36      100371.86      107248.58      2.6019017e-06  5.1660466e-07  2.0852971e-06  1.0681539e+08
   2582000   4.0018755e-10  100370.19      100347.93      108152.15      2.6018927e-06  5.170354e-07   2.0848573e-06  1.0681031e+08
   2583000   4.0034254e-10  100363.9       100338.79      109097.02      2.60189e-06    5.1716343e-07  2.0847266e-06  1.0680842e+08
   2584000   4.0049753e-10  100364.7       100337.05      109948.77      2.6018907e-06  5.1714749e-07  2.0847433e-06  1.0680997e+08
   2585000   4.0065252e-10  100375.28      100346.99      110172.93      2.601894e-06   5.1693098e-07  2.084963e-06   1.068116e+08 
   2586000   4.0080751e-10  100369.41      100341.99      109878.01      2.6018778e-06  5.1703665e-07  2.0848412e-06  1.0680601e+08
   2587000   4.009625e-10   100365.37      100339.02      109513.19      2.6018715e-06  5.1711431e-07  2.0847572e-06  1.0680567e+08
   2588000   4.011175e-10   100378.82      100351.84      109739.98      2.6018757e-06  5.1683911e-07  2.0850366e-06  1.0681282e+08
   2589000   4.0127249e-10  100375.69      100349.89      109338.59      2.6018985e-06  5.1692703e-07  2.0849715e-06  1.0681318e+08
   2590000   4.0142748e-10  100376.9       100352.7       108807.49      2.601896e-06   5.1689921e-07  2.0849968e-06  1.0681283e+08
   2591000   4.0158247e-10  100373.72      100348.88      109015.35      2.6018987e-06  5.1696809e-07  2.0849306e-06  1.0681185e+08
   2592000   4.0173746e-10  100389.24      100365.08      108802.2       2.6019035e-06  5.1665064e-07  2.0852529e-06  1.0681821e+08
   2593000   4.0189245e-10  100366.6       100343.16      108541.38      2.6018992e-06  5.1711649e-07  2.0847827e-06  1.0681173e+08
   2594000   4.0204744e-10  100340.52      100316.54      108694.46      2.6019055e-06  5.1766464e-07  2.0842409e-06  1.0680569e+08
   2595000   4.0220244e-10  100352.96      100328.26      108950.31      2.6019107e-06  5.174113e-07   2.0844994e-06  1.0681126e+08
   2596000   4.0235743e-10  100359.36      100335.06      108821.61      2.6019079e-06  5.1727552e-07  2.0846324e-06  1.0681085e+08
   2597000   4.0251242e-10  100338.16      100313.88      108793.44      2.6019108e-06  5.1771892e-07  2.0841919e-06  1.0680271e+08
   2598000   4.0266741e-10  100373.65      100348.63      109077.54      2.6019093e-06  5.1698016e-07  2.0849291e-06  1.0681524e+08
   2599000   4.028224e-10   100362.92      100338.18      108972.28      2.6019025e-06  5.1719636e-07  2.0847062e-06  1.0681016e+08
   2600000   4.0297739e-10  100364.24      100338.89      109180.82      2.6019188e-06  5.1718501e-07  2.0847338e-06  1.0681102e+08
   2601000   4.0313238e-10  100343.69      100319.54      108754.52      2.6018781e-06  5.1757122e-07  2.0843068e-06  1.0680105e+08
   2602000   4.0328737e-10  100360.56      100336.78      108646.45      2.6018899e-06  5.1723271e-07  2.0846572e-06  1.0680815e+08
   2603000   4.0344237e-10  100366.87      100343.8       108418.39      2.6018955e-06  5.1710724e-07  2.0847882e-06  1.068094e+08 
   2604000   4.0359736e-10  100369.3       100346.15      108447.66      2.6018881e-06  5.1704924e-07  2.0848388e-06  1.0680832e+08
   2605000   4.0375235e-10  100382.5       100360.27      108154.3       2.6019068e-06  5.167938e-07   2.085113e-06   1.0681367e+08
   2606000   4.0390734e-10  100377.81      100354.35      108561.19      2.6018967e-06  5.1688106e-07  2.0850156e-06  1.0681435e+08
   2607000   4.0406233e-10  100381.5       100357.93      108597.35      2.601878e-06   5.1678585e-07  2.0850921e-06  1.0681321e+08
   2608000   4.0421732e-10  100354.54      100328.41      109430.88      2.6018839e-06  5.1735164e-07  2.0845323e-06  1.0680272e+08
   2609000   4.0437231e-10  100374.86      100345.64      110484.63      2.6018817e-06  5.1692742e-07  2.0849543e-06  1.0681016e+08
   2610000   4.045273e-10   100384.74      100354.25      110920.05      2.6018863e-06  5.1672674e-07  2.0851596e-06  1.0681349e+08
   2611000   4.046823e-10   100380.75      100348.61      111466.48      2.6018834e-06  5.1680679e-07  2.0850766e-06  1.0681086e+08
   2612000   4.0483729e-10  100377.37      100345.3       111437.44      2.6018971e-06  5.1689073e-07  2.0850063e-06  1.0681262e+08
   2613000   4.0499228e-10  100365.64      100332.76      111695.16      2.6019042e-06  5.1714149e-07  2.0847627e-06  1.0681123e+08
   2614000   4.0514727e-10  100370.09      100338.2       111371.64      2.6019039e-06  5.1704861e-07  2.0848553e-06  1.0681373e+08
   2615000   4.0530226e-10  100370.89      100339.43      111226.43      2.6019141e-06  5.1704239e-07  2.0848717e-06  1.0681284e+08
   2616000   4.0545725e-10  100370.42      100339.35      111099.31      2.6019106e-06  5.1704844e-07  2.0848621e-06  1.0681192e+08
   2617000   4.0561224e-10  100367.75      100340         109985.95      2.601907e-06   5.1710032e-07  2.0848066e-06  1.0681322e+08
   2618000   4.0576724e-10  100367.34      100341.3       109412.93      2.601907e-06   5.1710896e-07  2.0847981e-06  1.0681172e+08
   2619000   4.0592223e-10  100359.29      100334.02      109146.33      2.6019114e-06  5.1728058e-07  2.0846308e-06  1.0680611e+08
   2620000   4.0607722e-10  100384.3       100358.67      109290.22      2.6019007e-06  5.1675034e-07  2.0851503e-06  1.0681556e+08
   2621000   4.0623221e-10  100369.9       100344.88      109073.99      2.6018983e-06  5.1704712e-07  2.0848512e-06  1.0681071e+08
   2622000   4.063872e-10   100354.26      100329.35      109021.51      2.6018787e-06  5.1735231e-07  2.0845264e-06  1.0680452e+08
   2623000   4.0654219e-10  100348.6       100323.56      109057.95      2.6018956e-06  5.1748677e-07  2.0844088e-06  1.0680604e+08
   2624000   4.0669718e-10  100366.39      100341.76      108937.89      2.6018971e-06  5.1711878e-07  2.0847783e-06  1.0681158e+08
   2625000   4.0685217e-10  100355.35      100330.65      108952.05      2.6018998e-06  5.1735068e-07  2.0845491e-06  1.0680703e+08
   2626000   4.0700717e-10  100351.3       100324.49      109653.74      2.6019058e-06  5.1744095e-07  2.0844649e-06  1.0680608e+08
   2627000   4.0716216e-10  100366.08      100337.81      110159         2.6018949e-06  5.1712289e-07  2.084772e-06   1.068118e+08 
   2628000   4.0731715e-10  100347.59      100317.44      110765.35      2.6019126e-06  5.1752472e-07  2.0843879e-06  1.068063e+08 
   2629000   4.0747214e-10  100373.67      100341.7       111401.37      2.6018914e-06  5.1696179e-07  2.0849296e-06  1.0681196e+08
   2630000   4.0762713e-10  100361.19      100327.89      111831.73      2.6018824e-06  5.1721215e-07  2.0846703e-06  1.0680629e+08
   2631000   4.0778212e-10  100376.04      100342.21      112025.19      2.6018843e-06  5.1690563e-07  2.0849787e-06  1.0681025e+08
   2632000   4.0793711e-10  100370.63      100338.43      111476.55      2.6018976e-06  5.1703111e-07  2.0848665e-06  1.068102e+08 
   2633000   4.080921e-10   100349.18      100320.63      110232.59      2.6018996e-06  5.174788e-07   2.0844208e-06  1.0680531e+08
   2634000   4.082471e-10   100353.1       100324.12      110381         2.6018822e-06  5.1738001e-07  2.0845022e-06  1.0680429e+08
   2635000   4.0840209e-10  100362.76      100332.39      110857.16      2.6018773e-06  5.1717435e-07  2.084703e-06   1.0680533e+08
   2636000   4.0855708e-10  100365.76      100336.07      110630.4       2.6018838e-06  5.171185e-07   2.0847653e-06  1.0680754e+08
   2637000   4.0871207e-10  100368.63      100339.08      110586.2       2.601871e-06   5.1704615e-07  2.0848249e-06  1.0680644e+08
   2638000   4.0886706e-10  100365.03      100334.61      110873.92      2.6018768e-06  5.1712678e-07  2.08475e-06    1.0680604e+08
   2639000   4.0902205e-10  100359.32      100329.28      110739.97      2.6019069e-06  5.1727544e-07  2.0846314e-06  1.0680783e+08
   2640000   4.0917704e-10  100360.77      100330.54      110808.24      2.6019136e-06  5.1725189e-07  2.0846617e-06  1.0681025e+08
   2641000   4.0933204e-10  100365.66      100335.89      110656.53      2.60191e-06    5.1714686e-07  2.0847631e-06  1.0681076e+08
   2642000   4.0948703e-10  100363.88      100335.2       110291.89      2.6018932e-06  5.1716683e-07  2.0847263e-06  1.0680792e+08
   2643000   4.0964202e-10  100367.53      100340.73      109669.07      2.60187e-06    5.1706786e-07  2.0848021e-06  1.0680704e+08
   2644000   4.0979701e-10  100383.85      100360.09      108665.18      2.6018664e-06  5.1672539e-07  2.085141e-06   1.0681176e+08
   2645000   4.09952e-10    100375.14      100352.74      108201.47      2.601873e-06   5.1691289e-07  2.0849601e-06  1.068081e+08 
   2646000   4.1010699e-10  100370.42      100349.27      107779.24      2.6018986e-06  5.170366e-07   2.084862e-06   1.0681017e+08
   2647000   4.1026198e-10  100370.75      100349.31      107876.08      2.6018895e-06  5.1702067e-07  2.0848689e-06  1.0681113e+08
   2648000   4.1041697e-10  100345.98      100325.4       107564.54      2.6018903e-06  5.1753603e-07  2.0843543e-06  1.0680434e+08
   2649000   4.1057197e-10  100356.63      100334.49      108096.86      2.6018883e-06  5.1731277e-07  2.0845756e-06  1.0680661e+08
   2650000   4.1072696e-10  100366.48      100344.16      108167.08      2.6019056e-06  5.1712528e-07  2.0847803e-06  1.0681071e+08
   2651000   4.1088195e-10  100367.18      100343.66      108568.52      2.6018836e-06  5.1708882e-07  2.0847948e-06  1.0680834e+08
   2652000   4.1103694e-10  100367.82      100343.27      108914.53      2.6019136e-06  5.1710562e-07  2.084808e-06   1.068116e+08 
   2653000   4.1119193e-10  100366.74      100341.47      109154.57      2.6018952e-06  5.1710946e-07  2.0847857e-06  1.0681049e+08
   2654000   4.1134692e-10  100365.15      100340.5       108944.74      2.6019048e-06  5.1715211e-07  2.0847527e-06  1.0681184e+08
   2655000   4.1150191e-10  100357.71      100334.14      108576.23      2.6019107e-06  5.1731267e-07  2.084598e-06   1.0680984e+08
   2656000   4.116569e-10   100368.35      100346.06      108159.09      2.6019004e-06  5.1708129e-07  2.0848191e-06  1.0681078e+08
   2657000   4.118119e-10   100358.46      100338.68      107308.01      2.6018847e-06  5.1727105e-07  2.0846136e-06  1.0680503e+08
   2658000   4.1196689e-10  100374.91      100358.5       106200.85      2.6018975e-06  5.1694209e-07  2.0849554e-06  1.0681299e+08
   2659000   4.1212188e-10  100369         100355         105386         2.6018966e-06  5.1706409e-07  2.0848325e-06  1.0681091e+08
   2660000   4.1227687e-10  100367.27      100352.33      105699.18      2.6018717e-06  5.1707521e-07  2.0847965e-06  1.0680921e+08
   2661000   4.1243186e-10  100370.59      100354.83      105977.95      2.6018698e-06  5.1700414e-07  2.0848657e-06  1.0680896e+08
   2662000   4.1258685e-10  100373.72      100358.24      105886.33      2.6018771e-06  5.1694646e-07  2.0849307e-06  1.0681093e+08
   2663000   4.1274184e-10  100366.81      100349.4       106524.54      2.6019183e-06  5.1713128e-07  2.084787e-06   1.0681063e+08
   2664000   4.1289684e-10  100384.07      100365.48      106938.76      2.6019174e-06  5.1677175e-07  2.0851456e-06  1.068154e+08 
   2665000   4.1305183e-10  100371.55      100351.9       107281.08      2.6019102e-06  5.1702464e-07  2.0848856e-06  1.0681271e+08
   2666000   4.1320682e-10  100368.79      100349.09      107292.01      2.6019062e-06  5.1707802e-07  2.0848282e-06  1.0681088e+08
   2667000   4.1336181e-10  100353.3       100331.8       107880.29      2.6018948e-06  5.1738836e-07  2.0845065e-06  1.068054e+08 
   2668000   4.135168e-10   100359.48      100335.86      108594.89      2.6018965e-06  5.172618e-07   2.0846347e-06  1.0680925e+08
   2669000   4.1367179e-10  100363.92      100337.61      109499.41      2.6019219e-06  5.1719489e-07  2.084727e-06   1.0681253e+08
   2670000   4.1382678e-10  100353.54      100322.42      111097.67      2.6019097e-06  5.1739818e-07  2.0845115e-06  1.0680906e+08
   2671000   4.1398177e-10  100365.37      100332.83      111582.55      2.6019022e-06  5.171451e-07   2.0847571e-06  1.0681331e+08
   2672000   4.1413677e-10  100375.45      100343.06      111543.87      2.6018829e-06  5.1691643e-07  2.0849665e-06  1.0681308e+08
   2673000   4.1429176e-10  100369.71      100337.52      111472.05      2.6018842e-06  5.1703678e-07  2.0848474e-06  1.0680841e+08
   2674000   4.1444675e-10  100360.19      100328.12      111422.19      2.6019039e-06  5.1725423e-07  2.0846496e-06  1.0680848e+08
   2675000   4.1460174e-10  100370.31      100336.84      111900.35      2.6019128e-06  5.1705301e-07  2.0848598e-06  1.0681585e+08
   2676000   4.1475673e-10  100346.4       100312.4       112054.2       2.6019069e-06  5.1754381e-07  2.0843631e-06  1.0680504e+08
   2677000   4.1491172e-10  100370.09      100337.25      111688.86      2.6018875e-06  5.1703239e-07  2.0848551e-06  1.068091e+08 
   2678000   4.1506671e-10  100393.5       100361.35      111482.31      2.6019135e-06  5.1657193e-07  2.0853415e-06  1.068172e+08 
   2679000   4.152217e-10   100373.34      100341.28      111431.66      2.601909e-06   5.1698629e-07  2.0849228e-06  1.0681274e+08
   2680000   4.153767e-10   100363.48      100330.79      111629.6       2.6018928e-06  5.1717494e-07  2.0847178e-06  1.068101e+08 
   2681000   4.1553169e-10  100388.4       100356.19      111496.47      2.6018943e-06  5.1665884e-07  2.0852355e-06  1.0681561e+08
   2682000   4.1568668e-10  100372.63      100341.93      110975.99      2.6018981e-06  5.169901e-07   2.084908e-06   1.0681007e+08
   2683000   4.1584167e-10  100378.35      100347.1       111165.18      2.6019083e-06  5.1688154e-07  2.0850267e-06  1.0681522e+08
   2684000   4.1599666e-10  100381.12      100349.03      111446.25      2.6019073e-06  5.168231e-07   2.0850842e-06  1.0681705e+08
   2685000   4.1615165e-10  100351.01      100318.52      111552.52      2.6019092e-06  5.1745028e-07  2.0844589e-06  1.0680839e+08
   2686000   4.1630664e-10  100343.46      100311.91      111231.12      2.6018901e-06  5.1758812e-07  2.084302e-06   1.0680332e+08
   2687000   4.1646164e-10  100384.25      100353.72      110932.27      2.6018911e-06  5.1674173e-07  2.0851493e-06  1.0681518e+08
   2688000   4.1661663e-10  100376.04      100346.46      110604.35      2.6018825e-06  5.1690378e-07  2.0849787e-06  1.0681134e+08
   2689000   4.1677162e-10  100365.33      100337.28      110084.1       2.6018831e-06  5.1712675e-07  2.0847564e-06  1.0680781e+08
   2690000   4.1692661e-10  100351.57      100322.13      110534.94      2.6018788e-06  5.174082e-07   2.0844706e-06  1.0680281e+08
   2691000   4.170816e-10   100372.63      100343.63      110407.06      2.6019017e-06  5.1699373e-07  2.0849079e-06  1.0681172e+08
   2692000   4.1723659e-10  100358.22      100328.8       110531.07      2.6019052e-06  5.1729658e-07  2.0846086e-06  1.0680497e+08
   2693000   4.1739158e-10  100375.45      100345.37      110770.46      2.6018802e-06  5.1691371e-07  2.0849665e-06  1.0680816e+08
   2694000   4.1754657e-10  100378.55      100348.27      110844.26      2.6018831e-06  5.1685209e-07  2.085031e-06   1.0681099e+08
   2695000   4.1770157e-10  100360.85      100332.19      110281.61      2.6018731e-06  5.1720986e-07  2.0846633e-06  1.0680699e+08
   2696000   4.1785656e-10  100360.55      100330.19      110849.75      2.6018741e-06  5.172171e-07   2.084657e-06   1.0680719e+08
   2697000   4.1801155e-10  100372.13      100340.73      111210.12      2.601867e-06   5.1696929e-07  2.0848977e-06  1.0680819e+08
   2698000   4.1816654e-10  100357.09      100325.34      111313.1       2.6018732e-06  5.1728795e-07  2.0845852e-06  1.0680337e+08
   2699000   4.1832153e-10  100359.6       100328.28      111167.82      2.6018669e-06  5.172297e-07   2.0846372e-06  1.0680398e+08
   2700000   4.1847652e-10  100363.87      100332.8       111091.17      2.6018856e-06  5.1715969e-07  2.0847259e-06  1.0680601e+08
   2701000   4.1863151e-10  100375.18      100346.06      110452.15      2.6018866e-06  5.1692564e-07  2.084961e-06   1.0681191e+08
   2702000   4.187865e-10   100381.92      100354.4       109922.26      2.6018885e-06  5.1678751e-07  2.085101e-06   1.0681528e+08
   2703000   4.189415e-10   100362.12      100333.03      110426.28      2.6019127e-06  5.1722301e-07  2.0846897e-06  1.0681039e+08
   2704000   4.1909649e-10  100349.74      100317.94      111322.6       2.6019126e-06  5.1748007e-07  2.0844325e-06  1.0680595e+08
   2705000   4.1925148e-10  100373.33      100342.81      110916.03      2.6018946e-06  5.1697213e-07  2.0849225e-06  1.0681246e+08
   2706000   4.1940647e-10  100372.21      100339.68      111587.57      2.6018876e-06  5.1698836e-07  2.0848993e-06  1.0680858e+08
   2707000   4.1956146e-10  100369.15      100334.83      112182.32      2.6018895e-06  5.1705392e-07  2.0848356e-06  1.0680811e+08
   2708000   4.1971645e-10  100354.83      100321.71      111768.37      2.6018956e-06  5.1735732e-07  2.0845383e-06  1.0680605e+08
   2709000   4.1987144e-10  100353.71      100320.12      111922.27      2.601894e-06   5.1737907e-07  2.0845149e-06  1.0680773e+08
   2710000   4.2002644e-10  100354.73      100321.29      111874.06      2.6019117e-06  5.1737563e-07  2.0845361e-06  1.0680816e+08
   2711000   4.2018143e-10  100362.65      100331.26      111195.43      2.6019147e-06  5.1721403e-07  2.0847007e-06  1.0681278e+08
   2712000   4.2033642e-10  100367.12      100336.49      110947.95      2.6019191e-06  5.171256e-07   2.0847935e-06  1.0681541e+08
   2713000   4.2049141e-10  100347.11      100314.64      111540.27      2.6019081e-06  5.1753034e-07  2.0843778e-06  1.0680627e+08
   2714000   4.206464e-10   100356.25      100322.61      111940.69      2.6018974e-06  5.1732973e-07  2.0845676e-06  1.0680653e+08
   2715000   4.2080139e-10  100371.9       100336.54      112534.36      2.6018876e-06  5.1699477e-07  2.0848929e-06  1.0681032e+08
   2716000   4.2095638e-10  100368.83      100332.88      112726.99      2.6018856e-06  5.1705663e-07  2.0848289e-06  1.0680931e+08
   2717000   4.2111137e-10  100395.11      100360.58      112280.75      2.6018817e-06  5.165067e-07   2.085375e-06   1.0681818e+08
   2718000   4.2126637e-10  100365.86      100331.69      112130.39      2.6018842e-06  5.1711678e-07  2.0847674e-06  1.0680665e+08
   2719000   4.2142136e-10  100367.52      100333.29      112152.38      2.6018828e-06  5.1708096e-07  2.0848019e-06  1.0680856e+08
   2720000   4.2157635e-10  100372.57      100336.93      112627.58      2.601892e-06   5.1698526e-07  2.0849067e-06  1.0681422e+08
   2721000   4.2173134e-10  100362.28      100326.28      112738.21      2.601893e-06   5.1719994e-07  2.084693e-06   1.0681157e+08
   2722000   4.2188633e-10  100346.3       100309.58      112965.21      2.6019016e-06  5.1754045e-07  2.0843611e-06  1.0680681e+08
   2723000   4.2204132e-10  100371.94      100334.15      113346.77      2.6018912e-06  5.169976e-07   2.0848936e-06  1.0681109e+08
   2724000   4.2219631e-10  100398.75      100360.74      113444.85      2.6018855e-06  5.1643501e-07  2.0854504e-06  1.0681832e+08
   2725000   4.223513e-10   100378.35      100342.07      112845.79      2.6018598e-06  5.1683306e-07  2.0850267e-06  1.0680942e+08
   2726000   4.225063e-10   100369.32      100335.03      112171.37      2.6018932e-06  5.1705403e-07  2.0848392e-06  1.0681145e+08
   2727000   4.2266129e-10  100361.96      100325.98      112731.34      2.6019072e-06  5.1722082e-07  2.0846863e-06  1.068101e+08 
   2728000   4.2281628e-10  100374.23      100337.51      112990.03      2.6018837e-06  5.1694247e-07  2.0849412e-06  1.0681041e+08
   2729000   4.2297127e-10  100374.95      100338.12      113027.74      2.6018953e-06  5.1693923e-07  2.0849561e-06  1.0681322e+08
   2730000   4.2312626e-10  100346.93      100312.72      112124.53      2.6019166e-06  5.1754255e-07  2.0843741e-06  1.068077e+08 
   2731000   4.2328125e-10  100351.28      100318.73      111575.22      2.6018905e-06  5.1742589e-07  2.0844646e-06  1.0680714e+08
   2732000   4.2343624e-10  100367.64      100335.41      111481.86      2.6018806e-06  5.1707629e-07  2.0848043e-06  1.0680938e+08
   2733000   4.2359124e-10  100372.02      100340.04      111403.07      2.6018976e-06  5.1700232e-07  2.0848953e-06  1.0681209e+08
   2734000   4.2374623e-10  100359.84      100329.86      110723.76      2.6019031e-06  5.172608e-07   2.0846423e-06  1.0680815e+08
   2735000   4.2390122e-10  100362.34      100333.91      110204.96      2.601908e-06   5.172138e-07   2.0846942e-06  1.0680988e+08
   2736000   4.2405621e-10  100366.13      100335.66      110891.14      2.6019037e-06  5.1713072e-07  2.0847729e-06  1.0681028e+08
   2737000   4.242112e-10   100367.05      100336.69      110855.36      2.6018832e-06  5.1709113e-07  2.0847921e-06  1.0680913e+08
   2738000   4.2436619e-10  100369.29      100338.59      110972.67      2.6018963e-06  5.1705768e-07  2.0848386e-06  1.0681037e+08
   2739000   4.2452118e-10  100385.72      100353.58      111470.79      2.6019138e-06  5.16734e-07    2.0851798e-06  1.0681718e+08
   2740000   4.2467617e-10  100367.79      100335.35      111553.37      2.6019096e-06  5.1710213e-07  2.0848075e-06  1.0681242e+08
   2741000   4.2483117e-10  100376.25      100341.93      112191.43      2.6019075e-06  5.1692424e-07  2.0849832e-06  1.0681485e+08
   2742000   4.2498616e-10  100356.39      100321.93      112215.9       2.6018867e-06  5.1731603e-07  2.0845707e-06  1.0680588e+08
   2743000   4.2514115e-10  100349.48      100313.41      112748.43      2.6019015e-06  5.1747436e-07  2.0844271e-06  1.0680502e+08
   2744000   4.2529614e-10  100369.25      100331.59      113300.1       2.6019111e-06  5.1707321e-07  2.0848378e-06  1.0681298e+08
   2745000   4.2545113e-10  100369.2       100333         112812.68      2.6019152e-06  5.1707853e-07  2.0848367e-06  1.0681242e+08
   2746000   4.2560612e-10  100355.31      100321.13      112123.9       2.6019092e-06  5.1736098e-07  2.0845482e-06  1.0680841e+08
   2747000   4.2576111e-10  100363.82      100330.95      111691.11      2.601908e-06   5.1718315e-07  2.0847249e-06  1.0681104e+08
   2748000   4.259161e-10   100377.74      100344.78      111735.69      2.6018965e-06  5.1688241e-07  2.085014e-06   1.0681186e+08
   2749000   4.260711e-10   100373.05      100339.08      112069.66      2.60189e-06    5.1697331e-07  2.0849167e-06  1.0680938e+08
   2750000   4.2622609e-10  100373.76      100341.64      111451.26      2.6018853e-06  5.1695378e-07  2.0849315e-06  1.0681054e+08
   2751000   4.2638108e-10  100366.92      100336.37      110921.71      2.6018924e-06  5.1710297e-07  2.0847894e-06  1.0680984e+08
   2752000   4.2653607e-10  100358.52      100326.57      111379.31      2.6018869e-06  5.1727208e-07  2.0846148e-06  1.0680859e+08
   2753000   4.2669106e-10  100344.29      100311.76      111559.19      2.601906e-06   5.1758673e-07  2.0843192e-06  1.0680577e+08
   2754000   4.2684605e-10  100374.47      100341.12      111863.88      2.601906e-06   5.1695989e-07  2.0849462e-06  1.0681435e+08
   2755000   4.2700104e-10  100377.47      100342.33      112464.25      2.6018911e-06  5.1688272e-07  2.0850084e-06  1.068132e+08 
   2756000   4.2715604e-10  100350.44      100316.42      112066.05      2.6019041e-06  5.1745699e-07  2.0844471e-06  1.0680662e+08
   2757000   4.2731103e-10  100365.97      100331.3       112295.88      2.6018938e-06  5.1712426e-07  2.0847695e-06  1.0681149e+08
   2758000   4.2746602e-10  100343.4       100309.72      111944.08      2.6018844e-06  5.1758354e-07  2.0843009e-06  1.0680217e+08
   2759000   4.2762101e-10  100377.68      100343.99      111979.69      2.6018915e-06  5.1687862e-07  2.0850129e-06  1.068145e+08 
   2760000   4.27776e-10    100375.28      100340.18      112447.94      2.6018812e-06  5.1691818e-07  2.084963e-06   1.0681099e+08
   2761000   4.2793099e-10  100398.51      100361.94      112967.83      2.6018701e-06  5.1642445e-07  2.0854456e-06  1.0681657e+08
   2762000   4.2808598e-10  100366.34      100328.94      113208.34      2.6018836e-06  5.1710635e-07  2.0847773e-06  1.0680473e+08
   2763000   4.2824097e-10  100372.14      100334.22      113389.48      2.6018677e-06  5.1696997e-07  2.0848977e-06  1.0680547e+08
   2764000   4.2839597e-10  100381.67      100344.15      113267.28      2.6018858e-06  5.1678997e-07  2.0850958e-06  1.0681374e+08
   2765000   4.2855096e-10  100378.16      100340.92      113168.07      2.6018956e-06  5.1687284e-07  2.0850227e-06  1.0681381e+08
   2766000   4.2870595e-10  100388.13      100353.27      112384.33      2.6018928e-06  5.1666277e-07  2.08523e-06    1.0681481e+08
   2767000   4.2886094e-10  100360.13      100326.31      112008.25      2.6018924e-06  5.1724405e-07  2.0846484e-06  1.0680805e+08
   2768000   4.2901593e-10  100372.04      100338.23      112016.48      2.6019012e-06  5.1700546e-07  2.0848957e-06  1.0681382e+08
   2769000   4.2917092e-10  100357.42      100321.24      112795.27      2.6019046e-06  5.1731249e-07  2.0845921e-06  1.0680764e+08
   2770000   4.2932591e-10  100376.24      100339.28      113074.07      2.601893e-06   5.1690997e-07  2.084983e-06   1.0681237e+08
   2771000   4.294809e-10   100368.31      100333.08      112486.32      2.6019047e-06  5.1708652e-07  2.0848182e-06  1.0681219e+08
   2772000   4.296359e-10   100374.8       100340.3       112248.05      2.6019072e-06  5.1695422e-07  2.0849529e-06  1.0681484e+08
   2773000   4.2979089e-10  100354.98      100321.51      111882.69      2.601905e-06   5.1736374e-07  2.0845413e-06  1.0680834e+08
   2774000   4.2994588e-10  100362.98      100328.97      112073.21      2.6018932e-06  5.1718558e-07  2.0847076e-06  1.068096e+08 
   2775000   4.3010087e-10  100372.7       100337.3       112548.99      2.6018913e-06  5.169818e-07   2.0849095e-06  1.0681031e+08
   2776000   4.3025586e-10  100352.48      100315.09      113194.36      2.6018835e-06  5.173941e-07   2.0844894e-06  1.0680556e+08
   2777000   4.3041085e-10  100365.54      100329.04      112907.19      2.6018975e-06  5.1713687e-07  2.0847606e-06  1.0681101e+08
   2778000   4.3056584e-10  100350.95      100311.58      113851.38      2.6018944e-06  5.1743679e-07  2.0844576e-06  1.0680372e+08
   2779000   4.3072084e-10  100373.74      100334.48      113838.12      2.6018905e-06  5.1695952e-07  2.084931e-06   1.0681317e+08
   2780000   4.3087583e-10  100364.28      100324.96      113850.65      2.6018945e-06  5.1715999e-07  2.0847345e-06  1.06809e+08  
   2781000   4.3103082e-10  100383.22      100344.34      113724.27      2.601887e-06   5.1675904e-07  2.085128e-06   1.0681331e+08
   2782000   4.3118581e-10  100380.62      100341.23      113888.15      2.6018739e-06  5.1680006e-07  2.0850739e-06  1.0681153e+08
   2783000   4.313408e-10   100369.49      100329.61      114043.51      2.6018808e-06  5.1703798e-07  2.0848428e-06  1.0680695e+08
   2784000   4.3149579e-10  100365.15      100324.73      114218.95      2.6018705e-06  5.1711799e-07  2.0847526e-06  1.0680446e+08
   2785000   4.3165078e-10  100370.84      100329.18      114638.45      2.6018824e-06  5.1701173e-07  2.0848707e-06  1.068069e+08 
   2786000   4.3180577e-10  100382.87      100342.22      114315.66      2.6018848e-06  5.1676405e-07  2.0851207e-06  1.0681352e+08
   2787000   4.3196077e-10  100360.07      100318.36      114643.53      2.6018977e-06  5.172507e-07   2.084647e-06   1.0680901e+08
   2788000   4.3211576e-10  100360.64      100322.18      113559.27      2.6018906e-06  5.1723166e-07  2.0846589e-06  1.0681021e+08
   2789000   4.3227075e-10  100357.91      100320.9       113072.64      2.6019004e-06  5.1729809e-07  2.0846023e-06  1.0680925e+08
   2790000   4.3242574e-10  100361.92      100325.8       112777.89      2.6018941e-06  5.1720857e-07  2.0846855e-06  1.0680772e+08
   2791000   4.3258073e-10  100376.81      100341.69      112455.67      2.6018862e-06  5.1689152e-07  2.0849947e-06  1.0681136e+08
   2792000   4.3273572e-10  100370.22      100335.42      112345.79      2.6018774e-06  5.1701944e-07  2.0848579e-06  1.068069e+08 
   2793000   4.3289071e-10  100389.58      100353.33      112849.59      2.6018928e-06  5.1663272e-07  2.08526e-06    1.0681632e+08
   2794000   4.330457e-10   100370.49      100333.13      113202.42      2.6018832e-06  5.1701967e-07  2.0848635e-06  1.0680895e+08
   2795000   4.332007e-10   100372.97      100336.24      112991.47      2.6018817e-06  5.169667e-07   2.084915e-06   1.0681099e+08
   2796000   4.3335569e-10  100344.89      100310.45      112197.09      2.601879e-06   5.1754733e-07  2.0843317e-06  1.0680114e+08
   2797000   4.3351068e-10  100357.54      100323.01      112241.04      2.6018972e-06  5.1730274e-07  2.0845945e-06  1.0680578e+08
   2798000   4.3366567e-10  100379         100345.04      112073.49      2.6019031e-06  5.1686271e-07  2.0850403e-06  1.068147e+08 
   2799000   4.3382066e-10  100360.39      100325.96      112211.97      2.60191e-06    5.172563e-07   2.0846537e-06  1.06811e+08  
   2800000   4.3397565e-10  100358.03      100320.48      113252.8       2.601906e-06   5.1730127e-07  2.0846047e-06  1.0681083e+08
   2801000   4.3413064e-10  100373.55      100333.93      113961.21      2.6018943e-06  5.1696718e-07  2.0849271e-06  1.0681439e+08
   2802000   4.3428564e-10  100361.85      100321.73      114113.29      2.6018959e-06  5.1721189e-07  2.084684e-06   1.068078e+08 
   2803000   4.3444063e-10  100369.93      100328.78      114470.07      2.6018822e-06  5.1703018e-07  2.084852e-06   1.0681134e+08
   2804000   4.3459562e-10  100370.76      100329.02      114667.67      2.6018937e-06  5.1702462e-07  2.0848691e-06  1.0681277e+08
   2805000   4.3475061e-10  100359.97      100319.13      114353.85      2.6019019e-06  5.1725681e-07  2.0846451e-06  1.0680869e+08
   2806000   4.349056e-10   100366.31      100324.48      114689.61      2.6018984e-06  5.171218e-07   2.0847766e-06  1.068108e+08 
   2807000   4.3506059e-10  100370.53      100329.48      114432.96      2.6018982e-06  5.1703395e-07  2.0848643e-06  1.068131e+08 
   2808000   4.3521558e-10  100358.24      100318.9       113849.95      2.6018825e-06  5.1727344e-07  2.084609e-06   1.0680777e+08
   2809000   4.3537057e-10  100361.58      100323.19      113534.55      2.6019096e-06  5.1723119e-07  2.0846784e-06  1.068102e+08 
   2810000   4.3552557e-10  100363.87      100325.17      113642.35      2.6018955e-06  5.1716951e-07  2.084726e-06   1.0680881e+08
   2811000   4.3568056e-10  100356.43      100317.44      113731.94      2.6018942e-06  5.1732279e-07  2.0845714e-06  1.0680565e+08
   2812000   4.3583555e-10  100370.65      100332.46      113476.38      2.6018897e-06  5.1702291e-07  2.0848668e-06  1.0681175e+08
   2813000   4.3599054e-10  100355.46      100317.08      113526.93      2.6019002e-06  5.1734882e-07  2.0845514e-06  1.0680835e+08
   2814000   4.3614553e-10  100355.37      100319.19      112792.57      2.6019131e-06  5.1736353e-07  2.0845495e-06  1.068087e+08 
   2815000   4.3630052e-10  100363.87      100328.74      112446.79      2.6019246e-06  5.1719868e-07  2.0847259e-06  1.0681153e+08
   2816000   4.3645551e-10  100368.63      100334.34      112171.04      2.601901e-06   5.1707619e-07  2.0848248e-06  1.0681218e+08
   2817000   4.366105e-10   100363.68      100331.11      111594.42      2.6019062e-06  5.17184e-07    2.0847222e-06  1.0681269e+08
   2818000   4.367655e-10   100365.59      100335.37      110808.69      2.6018966e-06  5.1713487e-07  2.0847618e-06  1.068133e+08 
   2819000   4.3692049e-10  100351.63      100322.28      110501.27      2.6019221e-06  5.1745038e-07  2.0844717e-06  1.0681035e+08
   2820000   4.3707548e-10  100372.09      100342.77      110515.01      2.6019092e-06  5.1701237e-07  2.0848968e-06  1.0681483e+08
   2821000   4.3723047e-10  100362.13      100333.12      110399.63      2.6019139e-06  5.1722409e-07  2.0846898e-06  1.0681253e+08
   2822000   4.3738546e-10  100357.81      100330.67      109772.08      2.601911e-06   5.1731078e-07  2.0846002e-06  1.068108e+08 
   2823000   4.3754045e-10  100375.17      100347.22      110060.53      2.601911e-06   5.1695025e-07  2.0849608e-06  1.0681385e+08
   2824000   4.3769544e-10  100365.52      100338.03      109894.11      2.6018996e-06  5.1713943e-07  2.0847602e-06  1.0681011e+08
   2825000   4.3785044e-10  100368.15      100339.99      110121         2.6019155e-06  5.171006e-07   2.0848149e-06  1.0681474e+08
   2826000   4.3800543e-10  100370.09      100341.6       110231.97      2.6019117e-06  5.1705649e-07  2.0848552e-06  1.0681419e+08
   2827000   4.3816042e-10  100373.09      100344.71      110201.22      2.6019008e-06  5.1698326e-07  2.0849175e-06  1.0681342e+08
   2828000   4.3831541e-10  100370.64      100341.56      110432.48      2.6019066e-06  5.1703998e-07  2.0848666e-06  1.0681273e+08
   2829000   4.384704e-10   100365.23      100339.37      109348.54      2.6019074e-06  5.1715317e-07  2.0847543e-06  1.0680974e+08
   2830000   4.3862539e-10  100360.19      100336.12      108743.9       2.6018953e-06  5.1724582e-07  2.0846495e-06  1.068069e+08 
   2831000   4.3878038e-10  100375.12      100350.95      108796.12      2.6018961e-06  5.169363e-07   2.0849598e-06  1.0681484e+08
   2832000   4.3893537e-10  100360.51      100337.93      108249.8       2.6019047e-06  5.1724843e-07  2.0846563e-06  1.0680911e+08
   2833000   4.3909037e-10  100365.03      100343.54      107889.61      2.6018988e-06  5.1714864e-07  2.0847501e-06  1.0680871e+08
   2834000   4.3924536e-10  100356.42      100334.88      107897.05      2.6018996e-06  5.1732831e-07  2.0845713e-06  1.0680738e+08
   2835000   4.3940035e-10  100355.43      100330.74      108950.57      2.6018848e-06  5.1733408e-07  2.0845507e-06  1.0680769e+08
   2836000   4.3955534e-10  100363.91      100340.04      108683.35      2.601883e-06   5.1715608e-07  2.0847269e-06  1.0680663e+08
   2837000   4.3971033e-10  100358.99      100335.17      108661.57      2.6018868e-06  5.1726209e-07  2.0846247e-06  1.0680529e+08
   2838000   4.3986532e-10  100353.69      100329.24      108866.22      2.6018762e-06  5.1736159e-07  2.0845146e-06  1.0680384e+08
   2839000   4.4002031e-10  100374.09      100349.61      108894.8       2.6018766e-06  5.1693844e-07  2.0849382e-06  1.0680924e+08
   2840000   4.401753e-10   100362.01      100338.19      108662.08      2.6018691e-06  5.1718179e-07  2.0846873e-06  1.06805e+08  
   2841000   4.403303e-10   100383.69      100359.18      108916.4       2.6018758e-06  5.167381e-07   2.0851377e-06  1.0681286e+08
   2842000   4.4048529e-10  100353.66      100328.28      109178.33      2.6018984e-06  5.1738454e-07  2.0845139e-06  1.0680493e+08
   2843000   4.4064028e-10  100352.31      100326.67      109263.12      2.6018833e-06  5.1739738e-07  2.0844859e-06  1.0680408e+08
   2844000   4.4079527e-10  100380.99      100353.76      109826.27      2.6019076e-06  5.1682588e-07  2.0850817e-06  1.0681659e+08
   2845000   4.4095026e-10  100374.78      100345.18      110609.7       2.60189e-06    5.1693744e-07  2.0849526e-06  1.0681295e+08
   2846000   4.4110525e-10  100349.67      100322.23      109860.46      2.6018836e-06  5.1745264e-07  2.084431e-06   1.0680371e+08
   2847000   4.4126024e-10  100377.3       100350.46      109691.92      2.601893e-06   5.16888e-07    2.0850051e-06  1.0681232e+08
   2848000   4.4141524e-10  100371.85      100344.14      109974.61      2.6018919e-06  5.1700016e-07  2.0848917e-06  1.0681066e+08
   2849000   4.4157023e-10  100381.5       100353.64      110036.72      2.6018955e-06  5.1680321e-07  2.0850923e-06  1.0681565e+08
   2850000   4.4172522e-10  100368.58      100342.27      109506.25      2.6019157e-06  5.1709179e-07  2.0848239e-06  1.0681327e+08
   2851000   4.4188021e-10  100351.61      100325.4       109452.76      2.601896e-06   5.1742465e-07  2.0844714e-06  1.0680666e+08
   2852000   4.420352e-10   100365.09      100339.49      109263.56      2.601889e-06   5.1713752e-07  2.0847514e-06  1.0680976e+08
   2853000   4.4219019e-10  100364.21      100339.59      108936.83      2.6018942e-06  5.1716106e-07  2.0847332e-06  1.0680907e+08
   2854000   4.4234518e-10  100366.65      100340.94      109300.18      2.6018997e-06  5.1711601e-07  2.0847837e-06  1.0681074e+08
   2855000   4.4250017e-10  100365.58      100339.35      109472.94      2.6019037e-06  5.171421e-07   2.0847616e-06  1.0681128e+08
   2856000   4.4265517e-10  100347.85      100320.52      109821.93      2.6019083e-06  5.1751506e-07  2.0843932e-06  1.0680711e+08
   2857000   4.4281016e-10  100337.21      100309.68      109883.03      2.6019056e-06  5.1773324e-07  2.0841723e-06  1.0680415e+08
   2858000   4.4296515e-10  100366.55      100339.54      109737         2.6019098e-06  5.1712814e-07  2.0847817e-06  1.0681351e+08
   2859000   4.4312014e-10  100363.13      100339.32      108663.41      2.6019067e-06  5.1719602e-07  2.0847107e-06  1.0680974e+08
   2860000   4.4327513e-10  100363.25      100338.8       108876.65      2.6019016e-06  5.1718846e-07  2.0847132e-06  1.0680829e+08
   2861000   4.4343012e-10  100372.21      100346.15      109424.95      2.6018792e-06  5.1697993e-07  2.0848993e-06  1.0680839e+08
   2862000   4.4358511e-10  100391.05      100363.97      109784.79      2.6018805e-06  5.1658989e-07  2.0852906e-06  1.0681485e+08
   2863000   4.437401e-10   100379.8       100351.43      110204.94      2.6018904e-06  5.1683345e-07  2.085057e-06   1.0681164e+08
   2864000   4.438951e-10   100363.19      100334.26      110373.37      2.6018953e-06  5.1718352e-07  2.0847118e-06  1.0680895e+08
   2865000   4.4405009e-10  100372.9       100344.88      110079.55      2.6019011e-06  5.1698755e-07  2.0849135e-06  1.0681442e+08
   2866000   4.4420508e-10  100362.47      100335.89      109588.03      2.601918e-06   5.1722103e-07  2.084697e-06   1.068118e+08 
   2867000   4.4436007e-10  100367.29      100339.77      109907.03      2.6018971e-06  5.1710002e-07  2.0847971e-06  1.0681144e+08
   2868000   4.4451506e-10  100355.63      100326.52      110427.91      2.6018888e-06  5.1733382e-07  2.084555e-06   1.0680427e+08
   2869000   4.4467005e-10  100379.39      100348.85      110929.53      2.6019013e-06  5.1685302e-07  2.0850483e-06  1.0681224e+08
   2870000   4.4482504e-10  100397.58      100365.5       111463.5       2.6019085e-06  5.1648228e-07  2.0854262e-06  1.0682093e+08
   2871000   4.4498004e-10  100365.66      100335.49      110791.24      2.6019165e-06  5.1715322e-07  2.0847633e-06  1.06814e+08  
   2872000   4.4513503e-10  100355.31      100326.8       110227.09      2.6019106e-06  5.1736234e-07  2.0845483e-06  1.0681208e+08
   2873000   4.4529002e-10  100364.28      100336.84      109876.31      2.6019182e-06  5.1718369e-07  2.0847345e-06  1.0681403e+08
   2874000   4.4544501e-10  100349.72      100321.54      110109.72      2.6019084e-06  5.1747626e-07  2.0844321e-06  1.0680735e+08
   2875000   4.456e-10      100364.07      100335.63      110210.61      2.6018953e-06  5.1716517e-07  2.0847301e-06  1.0680912e+08
   2876000   4.4575499e-10  100378         100349.01      110408.7       2.6018695e-06  5.1685e-07     2.0850195e-06  1.0680909e+08
   2877000   4.4590998e-10  100363.35      100334.91      110211.37      2.6018713e-06  5.1715602e-07  2.0847153e-06  1.0680529e+08
   2878000   4.4606497e-10  100378.24      100351.3       109721.74      2.6018678e-06  5.1684339e-07  2.0850244e-06  1.0681038e+08
   2879000   4.4621997e-10  100392.38      100367.77      108958.39      2.6018725e-06  5.1655438e-07  2.0853181e-06  1.0681549e+08
   2880000   4.4637496e-10  100379.53      100356.37      108461.09      2.6018632e-06  5.1681187e-07  2.0850513e-06  1.068098e+08 
   2881000   4.4652995e-10  100362.62      100339.83      108321.93      2.6018838e-06  5.1718371e-07  2.0847001e-06  1.0680574e+08
   2882000   4.4668494e-10  100366.14      100344.1       108074.31      2.6019071e-06  5.171339e-07   2.0847731e-06  1.0680887e+08
   2883000   4.4683993e-10  100349.71      100328.28      107851.88      2.6018899e-06  5.1745801e-07  2.0844319e-06  1.0680275e+08
   2884000   4.4699492e-10  100361.05      100341.24      107323.24      2.6018927e-06  5.1722527e-07  2.0846674e-06  1.0680746e+08
   2885000   4.4714991e-10  100380.64      100361.97      106960.12      2.6018878e-06  5.1681344e-07  2.0850744e-06  1.0681379e+08
   2886000   4.473049e-10   100370.94      100350.22      107636.93      2.6018913e-06  5.1701832e-07  2.0848729e-06  1.0681039e+08
   2887000   4.474599e-10   100383.07      100359.75      108517.73      2.6018784e-06  5.1675349e-07  2.0851249e-06  1.0681223e+08
   2888000   4.4761489e-10  100377.65      100351.81      109355.82      2.6018761e-06  5.1686389e-07  2.0850122e-06  1.0680903e+08
   2889000   4.4776988e-10  100367.54      100344.44      108430.8       2.6018797e-06  5.1707736e-07  2.0848023e-06  1.0680607e+08
   2890000   4.4792487e-10  100395.1       100371.57      108599.47      2.6018734e-06  5.1649869e-07  2.0853747e-06  1.0681739e+08
   2891000   4.4807986e-10  100362         100336.37      109268.43      2.6018738e-06  5.1718667e-07  2.0846871e-06  1.0680644e+08
   2892000   4.4823485e-10  100382.49      100357         109243.28      2.6018844e-06  5.1677163e-07  2.0851128e-06  1.0681056e+08
   2893000   4.4838984e-10  100369.86      100345.19      108955.56      2.6018607e-06  5.1701031e-07  2.0848504e-06  1.0680388e+08
   2894000   4.4854484e-10  100372.56      100348.06      108903.54      2.6018543e-06  5.1694781e-07  2.0849065e-06  1.0680709e+08
   2895000   4.4869983e-10  100367.26      100343.46      108662.05      2.6018629e-06  5.1706648e-07  2.0847964e-06  1.0680491e+08
   2896000   4.4885482e-10  100381.72      100359.52      108142.93      2.6018835e-06  5.167867e-07   2.0850968e-06  1.0681214e+08
   2897000   4.4900981e-10  100367.1       100344.64      108214.3       2.6018954e-06  5.1710241e-07  2.084793e-06   1.0680989e+08
   2898000   4.491648e-10   100369.18      100346.12      108416.61      2.6018732e-06  5.1703689e-07  2.0848363e-06  1.0680959e+08
   2899000   4.4931979e-10  100366.46      100343.1       108516.77      2.6018896e-06  5.1710969e-07  2.0847799e-06  1.0680986e+08
   2900000   4.4947478e-10  100365.65      100342.29      108514.16      2.6018838e-06  5.1712086e-07  2.084763e-06   1.0680807e+08
   2901000   4.4962977e-10  100361.94      100339         108370.5       2.6018919e-06  5.1720587e-07  2.084686e-06   1.0680882e+08
   2902000   4.4978477e-10  100370.47      100349.18      107827.1       2.6018874e-06  5.1702427e-07  2.0848631e-06  1.0681073e+08
   2903000   4.4993976e-10  100364.02      100342.36      107943.16      2.6018649e-06  5.1713575e-07  2.0847291e-06  1.0680539e+08
   2904000   4.5009475e-10  100367.28      100347.2       107419.44      2.6018693e-06  5.1707249e-07  2.0847968e-06  1.0680835e+08
   2905000   4.5024974e-10  100371.78      100353.99      106658.26      2.6018966e-06  5.170063e-07   2.0848903e-06  1.0681167e+08
   2906000   4.5040473e-10  100362.53      100344.74      106648.39      2.6018794e-06  5.1718116e-07  2.0846982e-06  1.068085e+08 
   2907000   4.5055972e-10  100356.6       100338.58      106718.37      2.6019029e-06  5.1732796e-07  2.084575e-06   1.0680963e+08
   2908000   4.5071471e-10  100355.75      100335.74      107382.67      2.6019252e-06  5.1736798e-07  2.0845573e-06  1.0680999e+08
   2909000   4.508697e-10   100361.48      100341.06      107527.49      2.6019161e-06  5.1723969e-07  2.0846764e-06  1.0681099e+08
   2910000   4.510247e-10   100377.8       100357         107671.05      2.601907e-06   5.1689162e-07  2.0850153e-06  1.0681543e+08
   2911000   4.5117969e-10  100371.27      100351.37      107361.4       2.6018786e-06  5.1699891e-07  2.0848797e-06  1.0681067e+08
   2912000   4.5133468e-10  100374.45      100353.29      107784.13      2.6018964e-06  5.1695074e-07  2.0849457e-06  1.0681311e+08
   2913000   4.5148967e-10  100354.73      100333.63      107744.54      2.6019044e-06  5.1736829e-07  2.0845361e-06  1.0680646e+08
   2914000   4.5164466e-10  100359.51      100339.74      107307.89      2.6019189e-06  5.1728348e-07  2.0846355e-06  1.0681165e+08
   2915000   4.5179965e-10  100358.03      100337.29      107628.64      2.6018984e-06  5.1729371e-07  2.0846047e-06  1.0680851e+08
   2916000   4.5195464e-10  100366.83      100345.51      107833.82      2.6019007e-06  5.171132e-07   2.0847875e-06  1.0680952e+08
   2917000   4.5210964e-10  100367.91      100346.77      107774.31      2.6018744e-06  5.1706451e-07  2.0848099e-06  1.0680651e+08
   2918000   4.5226463e-10  100389.92      100368.56      107870.46      2.6018813e-06  5.1661416e-07  2.0852671e-06  1.0681491e+08
   2919000   4.5241962e-10  100367.09      100345.06      108071.24      2.6018883e-06  5.1709532e-07  2.084793e-06   1.068075e+08 
   2920000   4.5257461e-10  100363.47      100340.55      108364.75      2.6018817e-06  5.1716409e-07  2.0847176e-06  1.0680536e+08
   2921000   4.527296e-10   100362.63      100339.9       108298.09      2.6018892e-06  5.1718896e-07  2.0847002e-06  1.0680491e+08
   2922000   4.5288459e-10  100371.19      100347.88      108502.81      2.6018847e-06  5.1700666e-07  2.0848781e-06  1.0680974e+08
   2923000   4.5303958e-10  100358.55      100336.03      108227.99      2.6018742e-06  5.1725867e-07  2.0846156e-06  1.0680386e+08
   2924000   4.5319457e-10  100360.97      100337.57      108525.2       2.6018657e-06  5.1719981e-07  2.0846659e-06  1.0680346e+08
   2925000   4.5334957e-10  100360.27      100335.16      109095.09      2.6018748e-06  5.1722355e-07  2.0846513e-06  1.0680562e+08
   2926000   4.5350456e-10  100357.03      100331.74      109148.44      2.6019154e-06  5.1733151e-07  2.0845839e-06  1.0680943e+08
   2927000   4.5365955e-10  100365.42      100339.55      109353.11      2.6019061e-06  5.1714783e-07  2.0847582e-06  1.0681347e+08
   2928000   4.5381454e-10  100368.67      100341.34      109845.14      2.6019264e-06  5.1710067e-07  2.0848258e-06  1.0681658e+08
   2929000   4.5396953e-10  100343.69      100316.13      109896.27      2.6019327e-06  5.176259e-07   2.0843068e-06  1.0680808e+08
   2930000   4.5412452e-10  100370.93      100344.32      109606.73      2.6019356e-06  5.1706301e-07  2.0848726e-06  1.0681732e+08
   2931000   4.5427951e-10  100348.94      100323.32      109252.44      2.6019301e-06  5.1751419e-07  2.0844159e-06  1.068099e+08 
   2932000   4.544345e-10   100364.88      100338.32      109584.1       2.6019047e-06  5.1715775e-07  2.084747e-06   1.0681168e+08
   2933000   4.545895e-10   100383.07      100356.98      109445.97      2.6018912e-06  5.1676639e-07  2.0851248e-06  1.0681476e+08
   2934000   4.5474449e-10  100361.82      100333.77      110080.96      2.60189e-06    5.172065e-07   2.0846835e-06  1.068068e+08 
   2935000   4.5489948e-10  100381.2       100353.41      110010.61      2.6018747e-06  5.1678874e-07  2.085086e-06   1.0681241e+08
   2936000   4.5505447e-10  100379.95      100352.98      109735.12      2.6018792e-06  5.1681925e-07  2.0850599e-06  1.0681009e+08
   2937000   4.5520946e-10  100376.37      100351.67      108972         2.6018697e-06  5.1688405e-07  2.0849857e-06  1.0681009e+08
   2938000   4.5536445e-10  100362.08      100336.9       109119.17      2.6018556e-06  5.1716669e-07  2.0846889e-06  1.0680378e+08
   2939000   4.5551944e-10  100384.09      100358.94      109129.16      2.601869e-06   5.1672305e-07  2.0851459e-06  1.0681036e+08
   2940000   4.5567444e-10  100382.94      100355.17      110006.68      2.6018871e-06  5.1676495e-07  2.0851222e-06  1.0681244e+08
   2941000   4.5582943e-10  100366.29      100338.56      109975.69      2.6018897e-06  5.1711344e-07  2.0847763e-06  1.0680772e+08
   2942000   4.5598442e-10  100352.14      100324.6       109896.45      2.601907e-06   5.1742472e-07  2.0844823e-06  1.0680539e+08
   2943000   4.5613941e-10  100355.05      100327.5       109906.53      2.6018955e-06  5.1735269e-07  2.0845428e-06  1.0680634e+08
   2944000   4.562944e-10   100359.63      100332.84      109654         2.601889e-06   5.1725112e-07  2.0846379e-06  1.0680585e+08
   2945000   4.5644939e-10  100373.27      100346.77      109570.89      2.6018848e-06  5.169636e-07   2.0849212e-06  1.068095e+08 
   2946000   4.5660438e-10  100359.37      100332.13      109804.94      2.6018708e-06  5.1723828e-07  2.0846325e-06  1.0680253e+08
   2947000   4.5675937e-10  100367.54      100339.66      110026.95      2.601865e-06   5.1706278e-07  2.0848022e-06  1.0680649e+08
   2948000   4.5691437e-10  100346.85      100320.17      109604.17      2.6018769e-06  5.1750449e-07  2.0843724e-06  1.0680258e+08
   2949000   4.5706936e-10  100361.5       100336.95      108909.86      2.601907e-06   5.1723011e-07  2.0846769e-06  1.0681001e+08
   2950000   4.5722435e-10  100351.49      100327.89      108579.12      2.6019131e-06  5.1744429e-07  2.0844688e-06  1.0680483e+08
   2951000   4.5737934e-10  100379.57      100356.25      108513.43      2.6018904e-06  5.1683836e-07  2.085052e-06   1.0681242e+08
   2952000   4.5753433e-10  100379.94      100357.18      108326.17      2.6018808e-06  5.1682102e-07  2.0850598e-06  1.0681309e+08
   2953000   4.5768932e-10  100384.56      100359.95      108951.26      2.601896e-06   5.1674019e-07  2.0851558e-06  1.0681471e+08
   2954000   4.5784431e-10  100376.98      100351.35      109283.84      2.6019079e-06  5.1690964e-07  2.0849983e-06  1.0681164e+08
   2955000   4.579993e-10   100371.27      100343.76      109909.54      2.6018892e-06  5.1700943e-07  2.0848798e-06  1.0680902e+08
   2956000   4.581543e-10   100373.5       100343.92      110599.93      2.6018913e-06  5.1696534e-07  2.0849259e-06  1.0681156e+08
   2957000   4.5830929e-10  100367.06      100336.95      110774.91      2.6019037e-06  5.1711138e-07  2.0847924e-06  1.0680922e+08
   2958000   4.5846428e-10  100374.06      100343.52      110923         2.6018938e-06  5.1695614e-07  2.0849377e-06  1.0681114e+08
   2959000   4.5861927e-10  100335.72      100306.9       110310.24      2.6018894e-06  5.1774806e-07  2.0841414e-06  1.0679875e+08
   2960000   4.5877426e-10  100374.86      100347.41      109893.85      2.6019172e-06  5.1696283e-07  2.0849544e-06  1.0681699e+08
   2961000   4.5892925e-10  100346.04      100320.67      109164.54      2.601931e-06   5.1757545e-07  2.0843556e-06  1.0680954e+08
   2962000   4.5908424e-10  100339.07      100313.23      109318.63      2.6019044e-06  5.1769351e-07  2.0842109e-06  1.0680461e+08
   2963000   4.5923924e-10  100355.66      100330.01      109269.93      2.6019048e-06  5.1734941e-07  2.0845554e-06  1.0680767e+08
   2964000   4.5939423e-10  100365.19      100340.67      108898.86      2.6018908e-06  5.1713746e-07  2.0847533e-06  1.0680949e+08
   2965000   4.5954922e-10  100363.74      100339.91      108670.24      2.6019003e-06  5.1717696e-07  2.0847233e-06  1.0680973e+08
   2966000   4.5970421e-10  100360.02      100335.22      108991.13      2.6019114e-06  5.1726533e-07  2.0846461e-06  1.0681112e+08
   2967000   4.598592e-10   100351.5       100325.7       109315.18      2.6019016e-06  5.1743261e-07  2.084469e-06   1.0680863e+08
   2968000   4.6001419e-10  100377.08      100351.87      109144.69      2.6018902e-06  5.1688968e-07  2.0850005e-06  1.0681263e+08
   2969000   4.6016918e-10  100382.38      100357.35      109089.2       2.6018955e-06  5.1678492e-07  2.0851106e-06  1.0681358e+08
   2970000   4.6032417e-10  100373.15      100347.29      109355.9       2.6018903e-06  5.1697164e-07  2.0849187e-06  1.06809e+08  
   2971000   4.6047917e-10  100375.55      100349.55      109406.59      2.6018981e-06  5.1692949e-07  2.0849686e-06  1.0681231e+08
   2972000   4.6063416e-10  100369.24      100343.73      109238.17      2.6019046e-06  5.17067e-07    2.0848376e-06  1.0681328e+08
   2973000   4.6078915e-10  100370.35      100344.42      109378.11      2.6018914e-06  5.1703086e-07  2.0848606e-06  1.0681331e+08
   2974000   4.6094414e-10  100345.95      100318.25      109944.39      2.6019059e-06  5.1755221e-07  2.0843537e-06  1.0680489e+08
   2975000   4.6109913e-10  100375.98      100347.82      110131.95      2.6018992e-06  5.169216e-07   2.0849776e-06  1.0681402e+08
   2976000   4.6125412e-10  100369.62      100341.27      110188.18      2.6018956e-06  5.1705008e-07  2.0848455e-06  1.0680986e+08
   2977000   4.6140911e-10  100384.86      100357.91      109733.31      2.6018835e-06  5.1672159e-07  2.085162e-06   1.0681477e+08
   2978000   4.615641e-10   100359.31      100332.72      109586.58      2.6018797e-06  5.1724839e-07  2.0846313e-06  1.0680687e+08
   2979000   4.617191e-10   100377.25      100351.88      109199.01      2.6019015e-06  5.1689756e-07  2.085004e-06   1.0681428e+08
   2980000   4.6187409e-10  100374.02      100346.65      109862.64      2.6018902e-06  5.1695349e-07  2.0849367e-06  1.0680983e+08
   2981000   4.6202908e-10  100371.06      100342.19      110361.14      2.6018978e-06  5.1702248e-07  2.0848754e-06  1.068097e+08 
   2982000   4.6218407e-10  100369.7       100340.7       110404.72      2.60189e-06    5.1704284e-07  2.0848471e-06  1.0681036e+08
   2983000   4.6233906e-10  100355.66      100327.05      110259.22      2.6019023e-06  5.173468e-07   2.0845555e-06  1.0680708e+08
   2984000   4.6249405e-10  100368.42      100342.47      109382.26      2.6018848e-06  5.170643e-07   2.0848205e-06  1.0681064e+08
   2985000   4.6264904e-10  100349.44      100323.54      109348.67      2.6019176e-06  5.1749126e-07  2.0844264e-06  1.0680748e+08
   2986000   4.6280404e-10  100362.05      100337.27      108985.85      2.6019105e-06  5.1722239e-07  2.0846882e-06  1.068116e+08 
   2987000   4.6295903e-10  100369.17      100344.76      108868.03      2.6018919e-06  5.1705576e-07  2.0848361e-06  1.0681272e+08
   2988000   4.6311402e-10  100372.24      100346.81      109211.54      2.6018865e-06  5.1698668e-07  2.0848998e-06  1.0681156e+08
   2989000   4.6326901e-10  100382.38      100356.83      109264.47      2.6018965e-06  5.1678595e-07  2.0851106e-06  1.0681464e+08
   2990000   4.63424e-10    100364.92      100339.02      109361.42      2.6018894e-06  5.1714163e-07  2.0847478e-06  1.068082e+08 
   2991000   4.6357899e-10  100366.78      100340.92      109351.02      2.6018972e-06  5.1711064e-07  2.0847865e-06  1.0680955e+08
   2992000   4.6373398e-10  100353.23      100327.72      109221.52      2.6019078e-06  5.1740279e-07  2.084505e-06   1.0680596e+08
   2993000   4.6388897e-10  100344.27      100319.98      108803.66      2.6019022e-06  5.175833e-07   2.0843189e-06  1.0680317e+08
   2994000   4.6404397e-10  100351.75      100328.48      108468.23      2.6019333e-06  5.1745911e-07  2.0844742e-06  1.0681047e+08
   2995000   4.6419896e-10  100352.48      100327.98      108882.78      2.6019244e-06  5.1743502e-07  2.0844894e-06  1.0681195e+08
   2996000   4.6435395e-10  100336.38      100311.87      108869.35      2.6019224e-06  5.1776739e-07  2.084155e-06   1.0680666e+08
   2997000   4.6450894e-10  100360.35      100334.44      109363.69      2.6019156e-06  5.1726269e-07  2.0846529e-06  1.0681174e+08
   2998000   4.6466393e-10  100373.77      100347.89      109363.07      2.6019072e-06  5.1697564e-07  2.0849316e-06  1.0681349e+08
   2999000   4.6481892e-10  100355.78      100329.91      109345.01      2.6018959e-06  5.1733786e-07  2.084558e-06   1.068069e+08 
   3000000   4.6497391e-10  100388.02      100362.04      109413.01      2.6018948e-06  5.1666714e-07  2.0852277e-06  1.0681669e+08
   3001000   4.651289e-10   100361.27      100336.27      109057.49      2.6018825e-06  5.1721057e-07  2.0846719e-06  1.0680508e+08
   3002000   4.652839e-10   100375.87      100350.26      109277.75      2.601882e-06   5.1690671e-07  2.0849752e-06  1.0681042e+08
   3003000   4.6543889e-10  100356.99      100333.12      108675.07      2.6019041e-06  5.1732106e-07  2.084583e-06   1.0680729e+08
   3004000   4.6559388e-10  100378.64      100353.89      108990.23      2.6018844e-06  5.1685161e-07  2.0850328e-06  1.0681384e+08
   3005000   4.6574887e-10  100372.43      100348.3       108779.32      2.6019224e-06  5.170185e-07   2.0849039e-06  1.0681475e+08
   3006000   4.6590386e-10  100376.74      100353.57      108461.66      2.6019125e-06  5.1691922e-07  2.0849933e-06  1.0681691e+08
   3007000   4.6605885e-10  100377.1       100354.96      108118.78      2.6019107e-06  5.1690981e-07  2.0850009e-06  1.0681623e+08
   3008000   4.6621384e-10  100376.42      100355.73      107631.9       2.6018922e-06  5.1690556e-07  2.0849866e-06  1.0681289e+08
   3009000   4.6636884e-10  100364.14      100342.45      107954.17      2.6018852e-06  5.1715351e-07  2.0847317e-06  1.0680689e+08
   3010000   4.6652383e-10  100366.16      100345.41      107642.43      2.601865e-06   5.1709143e-07  2.0847736e-06  1.0680621e+08
   3011000   4.6667882e-10  100374.3       100355.64      106948.86      2.6018714e-06  5.1692882e-07  2.0849426e-06  1.0680883e+08
   3012000   4.6683381e-10  100358.59      100340.23      106834.5       2.6018858e-06  5.1726951e-07  2.0846163e-06  1.0680533e+08
   3013000   4.669888e-10   100373.61      100356.25      106515.4       2.6019003e-06  5.16972e-07    2.0849283e-06  1.0681311e+08
   3014000   4.6714379e-10  100358.86      100341.85      106384.72      2.6019043e-06  5.1728229e-07  2.084622e-06   1.0680767e+08
   3015000   4.6729878e-10  100370.18      100353.31      106346.26      2.6018749e-06  5.1701779e-07  2.0848571e-06  1.0680892e+08
   3016000   4.6745377e-10  100371.2       100352.43      106984.33      2.6018839e-06  5.1700564e-07  2.0848783e-06  1.06809e+08  
   3017000   4.6760877e-10  100357.7       100339.43      106805.92      2.601901e-06   5.1730313e-07  2.0845979e-06  1.0680695e+08
   3018000   4.6776376e-10  100359.71      100342.1       106584.65      2.6018953e-06  5.1725572e-07  2.0846396e-06  1.0680727e+08
   3019000   4.6791875e-10  100364.38      100348.31      106076.23      2.6019041e-06  5.1716745e-07  2.0847366e-06  1.0680964e+08
   3020000   4.6807374e-10  100363.61      100347.15      106205.79      2.6018834e-06  5.1716266e-07  2.0847207e-06  1.0680566e+08
   3021000   4.6822873e-10  100374.62      100359.66      105716.29      2.6018909e-06  5.1694148e-07  2.0849494e-06  1.0681043e+08
   3022000   4.6838372e-10  100372.02      100358.4       105263.71      2.6018928e-06  5.1699739e-07  2.0848954e-06  1.0680969e+08
   3023000   4.6853871e-10  100366.12      100353.9       104788.82      2.6018958e-06  5.1712309e-07  2.0847727e-06  1.0680975e+08
   3024000   4.686937e-10   100362.27      100351.49      104304.03      2.601926e-06   5.1723317e-07  2.0846928e-06  1.0681259e+08
   3025000   4.688487e-10   100351.47      100340.37      104397.71      2.6018972e-06  5.1742878e-07  2.0844684e-06  1.068068e+08 
   3026000   4.6900369e-10  100359.12      100349.16      104023.81      2.6019088e-06  5.1728149e-07  2.0846273e-06  1.0681347e+08
   3027000   4.6915868e-10  100360.15      100350.4       103956.85      2.6019276e-06  5.1727892e-07  2.0846487e-06  1.0681488e+08
   3028000   4.6931367e-10  100379.08      100370.75      103498.77      2.6019087e-06  5.1686684e-07  2.0850419e-06  1.0681578e+08
   3029000   4.6946866e-10  100373.56      100365.64      103359.27      2.601899e-06   5.1697165e-07  2.0849273e-06  1.0681179e+08
   3030000   4.6962365e-10  100371.57      100363.35      103454.16      2.6018935e-06  5.1700767e-07  2.0848859e-06  1.068103e+08 
   3031000   4.6977864e-10  100357.91      100350.41      103200.49      2.6019048e-06  5.1730273e-07  2.0846021e-06  1.0680919e+08
   3032000   4.6993364e-10  100345         100337.99      103025.39      2.6018979e-06  5.1756391e-07  2.084334e-06   1.0680521e+08
   3033000   4.7008863e-10  100350.13      100342.65      103189.46      2.6019007e-06  5.1746007e-07  2.0844407e-06  1.0680723e+08
   3034000   4.7024362e-10  100362.59      100355.74      102986.2       2.6019004e-06  5.1720107e-07  2.0846993e-06  1.0681092e+08
   3035000   4.7039861e-10  100368.23      100363.46      102299.92      2.6019032e-06  5.1708667e-07  2.0848166e-06  1.068116e+08 
   3036000   4.705536e-10   100367.17      100362.86      102146.29      2.6018925e-06  5.1709788e-07  2.0847946e-06  1.068103e+08 
   3037000   4.7070859e-10  100378.6       100374.77      101995.01      2.6019121e-06  5.1688027e-07  2.0850319e-06  1.0681599e+08
   3038000   4.7086358e-10  100349.62      100349.34      100780.82      2.6018989e-06  5.1746886e-07  2.0844301e-06  1.0680606e+08
   3039000   4.7101857e-10  100364.77      100365.04      100607.64      2.6018909e-06  5.1714628e-07  2.0847446e-06  1.0680923e+08
   3040000   4.7117357e-10  100367.94      100369.89      100049.59      2.6018838e-06  5.1707332e-07  2.0848105e-06  1.0680879e+08
   3041000   4.7132856e-10  100377.78      100378.06      100619.11      2.6018946e-06  5.1687964e-07  2.085015e-06   1.0681433e+08
   3042000   4.7148355e-10  100360.8       100359.83      101021.32      2.6018767e-06  5.1721446e-07  2.0846623e-06  1.0680692e+08
   3043000   4.7163854e-10  100372.85      100372.34      100880.49      2.6018871e-06  5.1697448e-07  2.0849126e-06  1.0681018e+08
   3044000   4.7179353e-10  100360.44      100357.62      101640.94      2.60188e-06    5.1722511e-07  2.0846548e-06  1.0680535e+08
   3045000   4.7194852e-10  100357.55      100352.66      102330.12      2.6018919e-06  5.1729715e-07  2.0845947e-06  1.068081e+08 
   3046000   4.7210351e-10  100368.65      100362.3       102826.82      2.6019104e-06  5.1708519e-07  2.0848253e-06  1.0681399e+08
   3047000   4.722585e-10   100348.39      100342.83      102542.62      2.6019132e-06  5.1750876e-07  2.0844044e-06  1.0680737e+08
   3048000   4.724135e-10   100361.37      100353.65      103276.95      2.6018995e-06  5.1722548e-07  2.084674e-06   1.0681014e+08
   3049000   4.7256849e-10  100353.36      100345.12      103446.06      2.6019123e-06  5.174045e-07   2.0845078e-06  1.0680978e+08
   3050000   4.7272348e-10  100357.43      100350.21      103110.5       2.6019171e-06  5.1732476e-07  2.0845923e-06  1.0681253e+08
   3051000   4.7287847e-10  100365.57      100357.64      103352.91      2.6019225e-06  5.1716121e-07  2.0847613e-06  1.0681294e+08
   3052000   4.7303346e-10  100366.13      100359.02      103081.77      2.6018916e-06  5.1711858e-07  2.084773e-06   1.0680914e+08
   3053000   4.7318845e-10  100359.25      100351.55      103269.75      2.6018831e-06  5.1725307e-07  2.08463e-06    1.0680629e+08
   3054000   4.7334344e-10  100371.45      100364.04      103183.58      2.6018954e-06  5.1701198e-07  2.0848834e-06  1.0681129e+08
   3055000   4.7349844e-10  100364.44      100356.14      103475.51      2.6018901e-06  5.1715231e-07  2.0847378e-06  1.068084e+08 
   3056000   4.7365343e-10  100375.23      100364.51      104295.98      2.6018748e-06  5.1691278e-07  2.084962e-06   1.0681035e+08
   3057000   4.7380842e-10  100373.57      100362         104576.72      2.6018788e-06  5.1695132e-07  2.0849275e-06  1.0680829e+08
   3058000   4.7396341e-10  100379.79      100369.04      104309.37      2.6018865e-06  5.168298e-07   2.0850567e-06  1.0681115e+08
   3059000   4.741184e-10   100354.67      100344.74      104010.58      2.6018872e-06  5.173523e-07   2.0845349e-06  1.068063e+08 
   3060000   4.7427339e-10  100365.09      100355.82      103801.9       2.601899e-06   5.1714767e-07  2.0847513e-06  1.0681206e+08
   3061000   4.7442838e-10  100353.7       100343.28      104177.27      2.6018839e-06  5.1736904e-07  2.0845149e-06  1.0680517e+08
   3062000   4.7458337e-10  100371.49      100360.7       104316.55      2.6019001e-06  5.1701579e-07  2.0848843e-06  1.0681298e+08
   3063000   4.7473837e-10  100351.69      100339.95      104613.74      2.6018919e-06  5.1741889e-07  2.084473e-06   1.0680602e+08
   3064000   4.7489336e-10  100378.67      100366.71      104713.19      2.6018858e-06  5.1685245e-07  2.0850333e-06  1.0681419e+08
   3065000   4.7504835e-10  100391.23      100379.88      104523.1       2.6018849e-06  5.1659061e-07  2.0852943e-06  1.0681717e+08
   3066000   4.7520334e-10  100374.54      100364.56      104050.46      2.6018793e-06  5.1693161e-07  2.0849477e-06  1.0681043e+08
   3067000   4.7535833e-10  100355.44      100346.04      103835.3       2.601882e-06   5.1733115e-07  2.0845509e-06  1.0680497e+08
   3068000   4.7551332e-10  100353.9       100344.26      103910.85      2.6018921e-06  5.1737326e-07  2.0845188e-06  1.068056e+08 
   3069000   4.7566831e-10  100382.38      100373.91      103551.13      2.6018955e-06  5.1678514e-07  2.0851104e-06  1.0681541e+08
   3070000   4.758233e-10   100382.94      100373.17      103986.7       2.6019153e-06  5.1679324e-07  2.0851221e-06  1.0681602e+08
   3071000   4.759783e-10   100379.33      100370         103837.72      2.601891e-06   5.1684376e-07  2.0850472e-06  1.0681281e+08
   3072000   4.7613329e-10  100379.37      100371.22      103440.84      2.6018969e-06  5.16849e-07    2.0850479e-06  1.0681367e+08
   3073000   4.7628828e-10  100367.54      100358.36      103773.82      2.6018805e-06  5.1707816e-07  2.0848023e-06  1.0680959e+08
   3074000   4.7644327e-10  100359.42      100350.88      103552.66      2.6018873e-06  5.1725366e-07  2.0846337e-06  1.0680731e+08
   3075000   4.7659826e-10  100358.89      100351.22      103259.62      2.6018817e-06  5.1725915e-07  2.0846225e-06  1.0680744e+08
   3076000   4.7675325e-10  100354.32      100346.05      103454.04      2.6018839e-06  5.1735634e-07  2.0845275e-06  1.0680627e+08
   3077000   4.7690824e-10  100394.55      100386.43      103447.51      2.6018838e-06  5.1652051e-07  2.0853633e-06  1.0681805e+08
   3078000   4.7706324e-10  100380.86      100372.41      103542.19      2.6018847e-06  5.1680572e-07  2.085079e-06   1.0681211e+08
   3079000   4.7721823e-10  100361.2       100355.24      102689.03      2.6018929e-06  5.172224e-07   2.0846705e-06  1.0680857e+08
   3080000   4.7737322e-10  100357.18      100351.69      102529.46      2.6019134e-06  5.1732636e-07  2.0845871e-06  1.0680902e+08
   3081000   4.7752821e-10  100361.74      100359.45      101464.27      2.6019166e-06  5.1723485e-07  2.0846818e-06  1.068113e+08 
   3082000   4.776832e-10   100364.54      100366.09      100183.12      2.6018972e-06  5.1715715e-07  2.08474e-06    1.068105e+08 
   3083000   4.7783819e-10  100371.08      100373.52      99891.534      2.6019083e-06  5.1703258e-07  2.0848758e-06  1.0681262e+08
   3084000   4.7799318e-10  100378.54      100380.82      99952.323      2.6018952e-06  5.1686454e-07  2.0850307e-06  1.0681292e+08
   3085000   4.7814817e-10  100370.58      100370.27      100809.73      2.6019112e-06  5.1704572e-07  2.0848655e-06  1.0681493e+08
   3086000   4.7830317e-10  100354.5       100354.48      100695.13      2.6019208e-06  5.1738949e-07  2.0845313e-06  1.0681042e+08
   3087000   4.7845816e-10  100360.56      100360.84      100602.07      2.6019088e-06  5.1725164e-07  2.0846572e-06  1.0680772e+08
   3088000   4.7861315e-10  100391.27      100391.57      100625.96      2.6018914e-06  5.1659626e-07  2.0852951e-06  1.0681612e+08
   3089000   4.7876814e-10  100369.25      100370.61      100249.55      2.601893e-06   5.1705517e-07  2.0848378e-06  1.0680724e+08
   3090000   4.7892313e-10  100377.08      100378.18      100345.1       2.6018705e-06  5.1687004e-07  2.0850005e-06  1.0680847e+08
   3091000   4.7907812e-10  100382.11      100383.11      100380.43      2.6018626e-06  5.1675779e-07  2.0851048e-06  1.0681162e+08
   3092000   4.7923311e-10  100366.89      100367.8       100398.41      2.6018734e-06  5.1708461e-07  2.0847888e-06  1.0680751e+08
   3093000   4.793881e-10   100373.94      100374.67      100466.67      2.6018672e-06  5.1693197e-07  2.0849352e-06  1.068084e+08 
   3094000   4.795431e-10   100374.31      100375.64      100265.51      2.6018845e-06  5.1694169e-07  2.0849428e-06  1.0680976e+08
   3095000   4.7969809e-10  100388.47      100389.31      100443.81      2.6018875e-06  5.1665043e-07  2.0852371e-06  1.0681483e+08
   3096000   4.7985308e-10  100380.45      100381.72      100290.45      2.6018986e-06  5.1682829e-07  2.0850703e-06  1.0681435e+08
   3097000   4.8000807e-10  100363.86      100365.82      100042.11      2.6018867e-06  5.1716093e-07  2.0847257e-06  1.06809e+08  
   3098000   4.8016306e-10  100377.71      100379.39      100151.3       2.601899e-06   5.1688549e-07  2.0850135e-06  1.0681393e+08
   3099000   4.8031805e-10  100363.41      100363.99      100504.86      2.601879e-06   5.1716243e-07  2.0847165e-06  1.0680596e+08
   3100000   4.8047304e-10  100367.72      100368.16      100557.86      2.6018865e-06  5.1708049e-07  2.0848061e-06  1.068064e+08 
   3101000   4.8062804e-10  100371.87      100371.47      100839.62      2.6018914e-06  5.1699925e-07  2.0848922e-06  1.0680989e+08
   3102000   4.8078303e-10  100377.73      100376.16      101240.86      2.6018831e-06  5.1686918e-07  2.0850139e-06  1.0681245e+08
   3103000   4.8093802e-10  100385.04      100384.28      100975.22      2.6018875e-06  5.1672167e-07  2.0851658e-06  1.0681179e+08
   3104000   4.8109301e-10  100374.05      100374.15      100674.97      2.6018719e-06  5.1693444e-07  2.0849374e-06  1.0680845e+08
   3105000   4.81248e-10    100372.59      100372.75      100655.78      2.6018867e-06  5.1697947e-07  2.0849072e-06  1.0681074e+08
   3106000   4.8140299e-10  100371.95      100372.5       100525.57      2.6019068e-06  5.1701292e-07  2.0848939e-06  1.0681313e+08
   3107000   4.8155798e-10  100364.34      100365.61      100274.99      2.6019181e-06  5.1718229e-07  2.0847358e-06  1.0681202e+08
   3108000   4.8171297e-10  100367.21      100362.83      102168.69      2.6018999e-06  5.1710452e-07  2.0847954e-06  1.0681311e+08
   3109000   4.8186797e-10  100343.53      100337.23      102786.89      2.6019038e-06  5.176003e-07   2.0843035e-06  1.0680639e+08
   3110000   4.8202296e-10  100363.36      100355.88      103200.61      2.6019071e-06  5.1719183e-07  2.0847153e-06  1.0681183e+08
   3111000   4.8217795e-10  100347.01      100336.8       104095.56      2.6019373e-06  5.175615e-07   2.0843758e-06  1.0680797e+08
   3112000   4.8233294e-10  100370         100358.86      104432.15      2.6019041e-06  5.170507e-07   2.0848534e-06  1.0681254e+08
   3113000   4.8248793e-10  100381.59      100370.58      104399.95      2.6018959e-06  5.1680181e-07  2.0850941e-06  1.068146e+08 
   3114000   4.8264292e-10  100387.14      100375.53      104604.9       2.6018823e-06  5.1667291e-07  2.0852094e-06  1.0681464e+08
   3115000   4.8279791e-10  100374.53      100362.55      104716.93      2.6018901e-06  5.1694271e-07  2.0849474e-06  1.0680811e+08
   3116000   4.829529e-10   100391.5       100377.83      105298.5       2.6018732e-06  5.1657334e-07  2.0852999e-06  1.0681355e+08
   3117000   4.831079e-10   100385.67      100371.49      105464.48      2.6018872e-06  5.1670827e-07  2.0851789e-06  1.0681569e+08
   3118000   4.8326289e-10  100365.74      100350.99      105634.84      2.6018861e-06  5.171213e-07   2.0847648e-06  1.0680929e+08
   3119000   4.8341788e-10  100365.51      100353.01      104880.1       2.6019018e-06  5.1714183e-07  2.08476e-06    1.0680902e+08
   3120000   4.8357287e-10  100384.1       100370.83      105159.74      2.6018943e-06  5.1674806e-07  2.0851462e-06  1.0681659e+08
   3121000   4.8372786e-10  100377.81      100365.36      104878.8       2.6019014e-06  5.1688579e-07  2.0850156e-06  1.068147e+08 
   3122000   4.8388285e-10  100380.69      100369.65      104408.8       2.6019005e-06  5.1682511e-07  2.0850754e-06  1.0681431e+08
   3123000   4.8403784e-10  100368.8       100357.47      104495.42      2.6018971e-06  5.1706859e-07  2.0848285e-06  1.0681032e+08
   3124000   4.8419284e-10  100368.55      100355.76      104981.14      2.6018977e-06  5.1707463e-07  2.0848231e-06  1.0681091e+08
   3125000   4.8434783e-10  100348.38      100335.4       105027.21      2.6018962e-06  5.1749187e-07  2.0844043e-06  1.068052e+08 
   3126000   4.8450282e-10  100359.72      100343.4       106153.33      2.6018761e-06  5.1723626e-07  2.0846398e-06  1.0680629e+08
   3127000   4.8465781e-10  100375.33      100359.55      105988.61      2.60188e-06    5.1691599e-07  2.084964e-06   1.0681355e+08
   3128000   4.848128e-10   100378.05      100363.27      105657.27      2.6018695e-06  5.1684881e-07  2.0850207e-06  1.068121e+08 
   3129000   4.8496779e-10  100368.56      100351.5       106411.01      2.6018776e-06  5.1705414e-07  2.0848234e-06  1.068077e+08 
   3130000   4.8512278e-10  100379.25      100361.52      106644.89      2.6018753e-06  5.1682978e-07  2.0850455e-06  1.0681102e+08
   3131000   4.8527777e-10  100368.17      100351.3       106345.7       2.6018771e-06  5.1706187e-07  2.0848153e-06  1.0680673e+08
   3132000   4.8543277e-10  100368.06      100352.96      105753.24      2.6018824e-06  5.1706939e-07  2.0848131e-06  1.0680661e+08
   3133000   4.8558776e-10  100347.02      100332.77      105447.13      2.6018708e-06  5.1749494e-07  2.0843759e-06  1.0680019e+08
   3134000   4.8574275e-10  100372.24      100357.75      105553.66      2.6018835e-06  5.1698366e-07  2.0848999e-06  1.0680871e+08
   3135000   4.8589774e-10  100377.4       100363.23      105451.71      2.6018902e-06  5.1688318e-07  2.085007e-06   1.0681268e+08
   3136000   4.8605273e-10  100377.2       100362.64      105583.29      2.6018973e-06  5.1689449e-07  2.0850028e-06  1.0681326e+08
   3137000   4.8620772e-10  100365.76      100354.03      104622.19      2.6018768e-06  5.1711164e-07  2.0847652e-06  1.0680734e+08
   3138000   4.8636271e-10  100366.49      100355.16      104491.03      2.6018955e-06  5.1711516e-07  2.0847804e-06  1.0681082e+08
   3139000   4.865177e-10   100362.42      100349.1       105152.09      2.6019181e-06  5.1722222e-07  2.0846959e-06  1.0681118e+08
   3140000   4.866727e-10   100363.78      100350.64      105096.4       2.6018973e-06  5.1717306e-07  2.0847242e-06  1.0681004e+08
   3141000   4.8682769e-10  100383.45      100369.71      105313.63      2.6018998e-06  5.1676712e-07  2.0851327e-06  1.068164e+08 
   3142000   4.8698268e-10  100372.81      100358.33      105550.98      2.6019019e-06  5.1699024e-07  2.0849117e-06  1.0681109e+08
   3143000   4.8713767e-10  100384.47      100371.46      105071.71      2.6018852e-06  5.1673126e-07  2.0851539e-06  1.0681426e+08
   3144000   4.8729266e-10  100366.04      100354.91      104426.48      2.6018865e-06  5.1711528e-07  2.0847712e-06  1.0680834e+08
   3145000   4.8744765e-10  100373.66      100361.84      104664.01      2.601881e-06   5.1695163e-07  2.0849294e-06  1.0680984e+08
   3146000   4.8760264e-10  100355.78      100345.03      104287.38      2.6018992e-06  5.1734127e-07  2.0845579e-06  1.0680577e+08
   3147000   4.8775764e-10  100374.69      100365.09      103919.98      2.6019083e-06  5.1695765e-07  2.0849507e-06  1.0681309e+08
   3148000   4.8791263e-10  100370.56      100361.65      103686.11      2.6018862e-06  5.1702118e-07  2.084865e-06   1.068103e+08 
   3149000   4.8806762e-10  100391.36      100384.06      103170.03      2.6018984e-06  5.1660139e-07  2.085297e-06   1.0681699e+08
   3150000   4.8822261e-10  100377.7       100369.25      103539.62      2.6018962e-06  5.1688295e-07  2.0850133e-06  1.0681251e+08
   3151000   4.883776e-10   100370.44      100361.73      103617.58      2.6019009e-06  5.1703848e-07  2.0848624e-06  1.068117e+08 
   3152000   4.8853259e-10  100374.26      100365.5       103642.43      2.6019025e-06  5.169606e-07   2.0849419e-06  1.0681413e+08
   3153000   4.8868758e-10  100364.17      100354.01      104097.47      2.6018902e-06  5.1715792e-07  2.0847322e-06  1.0680961e+08
   3154000   4.8884257e-10  100353.56      100342.09      104526.37      2.6018965e-06  5.173846e-07   2.0845119e-06  1.0680616e+08
   3155000   4.8899757e-10  100370.26      100359.7       104235.44      2.6019086e-06  5.1704995e-07  2.0848586e-06  1.0681344e+08
   3156000   4.8915256e-10  100353.27      100342.53      104280.06      2.601899e-06   5.1739329e-07  2.0845057e-06  1.0680934e+08
   3157000   4.8930755e-10  100363.6       100353.72      104002.89      2.6019092e-06  5.171887e-07   2.0847205e-06  1.068134e+08 
   3158000   4.8946254e-10  100357.66      100347.86      103972.51      2.6019106e-06  5.1731348e-07  2.0845971e-06  1.06811e+08  
   3159000   4.8961753e-10  100358.61      100346.05      104894.07      2.6019243e-06  5.1730748e-07  2.0846168e-06  1.0681258e+08
   3160000   4.8977252e-10  100353.91      100340.92      105034.04      2.6019015e-06  5.1738232e-07  2.0845192e-06  1.0680872e+08
   3161000   4.8992751e-10  100343.05      100329.26      105290.8       2.601911e-06   5.1761754e-07  2.0842935e-06  1.0680769e+08
   3162000   4.900825e-10   100355.86      100342.39      105197.37      2.6019124e-06  5.1735284e-07  2.0845596e-06  1.0681058e+08
   3163000   4.902375e-10   100375.01      100362.15      105010.59      2.6019018e-06  5.1694445e-07  2.0849573e-06  1.0681569e+08
   3164000   4.9039249e-10  100349.78      100336.62      105088.62      2.6018996e-06  5.1746625e-07  2.0844334e-06  1.0680609e+08
   3165000   4.9054748e-10  100360.08      100347.9       104769.56      2.6018941e-06  5.1724687e-07  2.0846472e-06  1.0680808e+08
   3166000   4.9070247e-10  100358.11      100345.48      104915.02      2.6018887e-06  5.1728239e-07  2.0846063e-06  1.0680846e+08
   3167000   4.9085746e-10  100357.02      100342.87      105426.17      2.6019216e-06  5.1733784e-07  2.0845837e-06  1.0681154e+08
   3168000   4.9101245e-10  100359.5       100345.09      105512.81      2.601895e-06   5.1725975e-07  2.0846352e-06  1.0680834e+08
   3169000   4.9116744e-10  100377.67      100364.83      105008.67      2.6018868e-06  5.1687411e-07  2.0850127e-06  1.0681302e+08
   3170000   4.9132244e-10  100381.26      100368.46      105000.02      2.6018855e-06  5.1679816e-07  2.0850873e-06  1.0681293e+08
   3171000   4.9147743e-10  100389.5       100377.2       104841.73      2.6018747e-06  5.1661625e-07  2.0852585e-06  1.0681405e+08
   3172000   4.9163242e-10  100354.8       100341.16      105250.48      2.6018998e-06  5.1736223e-07  2.0845375e-06  1.0680675e+08
   3173000   4.9178741e-10  100350.49      100336.52      105358.7       2.6019081e-06  5.1746007e-07  2.084448e-06   1.0680682e+08
   3174000   4.919424e-10   100369.25      100353.05      106123.18      2.6018823e-06  5.170445e-07   2.0848378e-06  1.0680938e+08
   3175000   4.9209739e-10  100374.83      100355.48      107180.23      2.6018851e-06  5.1693154e-07  2.0849536e-06  1.068098e+08 
   3176000   4.9225238e-10  100386.82      100365.86      107731.21      2.6018841e-06  5.1668142e-07  2.0852027e-06  1.0681549e+08
   3177000   4.9240737e-10  100367.98      100345.46      108235.25      2.6018764e-06  5.1706501e-07  2.0848113e-06  1.0680749e+08
   3178000   4.9256237e-10  100376.84      100353.93      108377.24      2.601887e-06   5.168915e-07   2.0849955e-06  1.0681149e+08
   3179000   4.9271736e-10  100360.97      100340.37      107584.2       2.6018728e-06  5.172071e-07   2.0846657e-06  1.0680588e+08
   3180000   4.9287235e-10  100367.13      100345.91      107799.81      2.6018855e-06  5.1709178e-07  2.0847937e-06  1.0680947e+08
   3181000   4.9302734e-10  100360.42      100340.28      107430.34      2.6018949e-06  5.172406e-07   2.0846543e-06  1.0680809e+08
   3182000   4.9318233e-10  100353.41      100332.33      107739.47      2.6018959e-06  5.1738723e-07  2.0845087e-06  1.0680551e+08
   3183000   4.9333732e-10  100374.91      100352.57      108182.26      2.6018863e-06  5.1693106e-07  2.0849553e-06  1.0681249e+08
   3184000   4.9349231e-10  100387.27      100362.11      109138.01      2.6018841e-06  5.1667207e-07  2.085212e-06   1.0681537e+08
   3185000   4.936473e-10   100374.82      100350.94      108698.25      2.6018801e-06  5.1692669e-07  2.0849534e-06  1.0681078e+08
   3186000   4.938023e-10   100374.68      100349.22      109225.66      2.60189e-06    5.1693953e-07  2.0849505e-06  1.0681358e+08
   3187000   4.9395729e-10  100367.95      100341.6       109517.77      2.6018875e-06  5.1707668e-07  2.0848108e-06  1.0681078e+08
   3188000   4.9411228e-10  100354.54      100328.47      109409.27      2.6019069e-06  5.1737475e-07  2.0845321e-06  1.068067e+08 
   3189000   4.9426727e-10  100364.31      100339.38      109036.65      2.6018956e-06  5.1716055e-07  2.0847351e-06  1.068107e+08 
   3190000   4.9442226e-10  100344.26      100320.38      108666.91      2.6019033e-06  5.1758454e-07  2.0843188e-06  1.0680387e+08
   3191000   4.9457725e-10  100357.5       100333.69      108658.87      2.6018891e-06  5.1729532e-07  2.0845938e-06  1.0680826e+08
   3192000   4.9473224e-10  100383.09      100358.24      109030.56      2.6019063e-06  5.1678105e-07  2.0851253e-06  1.0681467e+08
   3193000   4.9488724e-10  100372.57      100347.22      109184.97      2.6018708e-06  5.1696416e-07  2.0849067e-06  1.0680825e+08
   3194000   4.9504223e-10  100366.49      100340.82      109285.57      2.601875e-06   5.1709463e-07  2.0847803e-06  1.0680718e+08
   3195000   4.9519722e-10  100356.69      100330.65      109400.98      2.6018757e-06  5.1729891e-07  2.0845768e-06  1.068054e+08 
   3196000   4.9535221e-10  100370.15      100345.1       109083.56      2.6018779e-06  5.1702145e-07  2.0848565e-06  1.0681025e+08
   3197000   4.955072e-10   100364.6       100341.23      108515.97      2.6018964e-06  5.1715512e-07  2.0847412e-06  1.0680875e+08
   3198000   4.9566219e-10  100360.02      100337.78      108134.91      2.6019119e-06  5.1726588e-07  2.084646e-06   1.0680883e+08
   3199000   4.9581718e-10  100358.99      100336.79      108119.96      2.6018979e-06  5.1727329e-07  2.0846247e-06  1.0680708e+08
   3200000   4.9597217e-10  100369.96      100347.52      108207.7       2.6018873e-06  5.1703483e-07  2.0848524e-06  1.0681022e+08
   3201000   4.9612717e-10  100375.37      100352.43      108381.42      2.6019007e-06  5.1693587e-07  2.0849649e-06  1.0681361e+08
   3202000   4.9628216e-10  100380.46      100356.88      108601.85      2.6018933e-06  5.1682264e-07  2.0850706e-06  1.0681531e+08
   3203000   4.9643715e-10  100355.54      100329.91      109261.4       2.6019005e-06  5.1734756e-07  2.0845529e-06  1.0680551e+08
   3204000   4.9659214e-10  100369.69      100344.98      108968.73      2.6019027e-06  5.1705581e-07  2.0848469e-06  1.0681221e+08
   3205000   4.9674713e-10  100356.62      100333.41      108452.58      2.6018999e-06  5.1732457e-07  2.0845754e-06  1.0680857e+08
   3206000   4.9690212e-10  100353.76      100329.63      108760.09      2.6019052e-06  5.1738919e-07  2.084516e-06   1.0680793e+08
   3207000   4.9705711e-10  100366.67      100343.62      108412.63      2.6019055e-06  5.1712122e-07  2.0847843e-06  1.0681168e+08
   3208000   4.972121e-10   100353.42      100330.4       108385.35      2.6018902e-06  5.1738133e-07  2.0845088e-06  1.0680558e+08
   3209000   4.973671e-10   100359.68      100337.71      108043.92      2.6019038e-06  5.1726472e-07  2.084639e-06   1.0680819e+08
   3210000   4.9752209e-10  100364.35      100343.26      107754.13      2.6019085e-06  5.1717253e-07  2.084736e-06   1.0681295e+08
   3211000   4.9767708e-10  100365.11      100344.74      107512.82      2.6018981e-06  5.1714627e-07  2.0847518e-06  1.0681298e+08
   3212000   4.9783207e-10  100369.76      100349.04      107633.91      2.6019024e-06  5.1705408e-07  2.0848484e-06  1.068141e+08 
   3213000   4.9798706e-10  100370.81      100351.59      107135.25      2.6019027e-06  5.1703248e-07  2.0848702e-06  1.0681496e+08
   3214000   4.9814205e-10  100362.88      100344.08      106987.01      2.6019144e-06  5.1720884e-07  2.0847055e-06  1.0681411e+08
   3215000   4.9829704e-10  100351.58      100332.66      107016.28      2.6019059e-06  5.1743519e-07  2.0844707e-06  1.0680882e+08
   3216000   4.9845204e-10  100348.71      100329.36      107158.05      2.6019009e-06  5.1748966e-07  2.0844112e-06  1.0680622e+08
   3217000   4.9860703e-10  100344.34      100324.95      107165.38      2.6019079e-06  5.1758752e-07  2.0843203e-06  1.0680618e+08
   3218000   4.9876202e-10  100353         100332.99      107383.03      2.6019072e-06  5.1740687e-07  2.0845003e-06  1.0681022e+08
   3219000   4.9891701e-10  100353.63      100333.4       107455.54      2.6019158e-06  5.1740252e-07  2.0845133e-06  1.0680974e+08
   3220000   4.99072e-10    100366.31      100346.2       107427.87      2.6019023e-06  5.1712552e-07  2.0847768e-06  1.0681244e+08
   3221000   4.9922699e-10  100361.53      100340.24      107819.05      2.6018958e-06  5.1721839e-07  2.0846775e-06  1.068101e+08 
   3222000   4.9938198e-10  100345.4       100323.5       108005.49      2.601896e-06   5.1755365e-07  2.0843424e-06  1.0680556e+08
   3223000   4.9953697e-10  100345.32      100323.11      108111.72      2.6018852e-06  5.1754444e-07  2.0843408e-06  1.0680429e+08
   3224000   4.9969197e-10  100366.16      100344.4       107976.3       2.6018922e-06  5.1711871e-07  2.0847735e-06  1.0681115e+08
   3225000   4.9984696e-10  100362.34      100341.61      107632.35      2.601908e-06   5.1721369e-07  2.0846943e-06  1.0681072e+08
   3226000   5.0000195e-10  100371.65      100350.96      107628.03      2.6019192e-06  5.1703157e-07  2.0848876e-06  1.0681422e+08
   3227000   5.0015694e-10  100377.06      100358.24      107005.32      2.6018989e-06  5.16899e-07    2.0849999e-06  1.0681471e+08
   3228000   5.0031193e-10  100367.46      100349.05      106861.25      2.6018791e-06  5.1707852e-07  2.0848006e-06  1.0680804e+08
   3229000   5.0046692e-10  100372.45      100355.5       106377.92      2.6018998e-06  5.1699552e-07  2.0849043e-06  1.0681158e+08
   3230000   5.0062191e-10  100359.65      100346.01      105257.76      2.6018923e-06  5.1725398e-07  2.0846383e-06  1.0680979e+08
   3231000   5.007769e-10   100357.91      100346.08      104650.71      2.6018967e-06  5.1729449e-07  2.0846022e-06  1.0680806e+08
   3232000   5.009319e-10   100371.86      100361.63      104128.81      2.6018819e-06  5.169898e-07   2.0848921e-06  1.0681059e+08
   3233000   5.0108689e-10  100369.94      100361.44      103549.32      2.6018777e-06  5.1702559e-07  2.0848521e-06  1.0680932e+08
   3234000   5.0124188e-10  100367.74      100359.07      103604.05      2.6018798e-06  5.1707344e-07  2.0848064e-06  1.068085e+08 
   3235000   5.0139687e-10  100355.41      100345.09      104142.1       2.6018801e-06  5.1732982e-07  2.0845503e-06  1.0680387e+08
   3236000   5.0155186e-10  100357.03      100348.53      103537         2.6018951e-06  5.1731121e-07  2.0845839e-06  1.0680739e+08
   3237000   5.0170685e-10  100352.73      100345.1       103238.86      2.6019144e-06  5.1741977e-07  2.0844946e-06  1.0680761e+08
   3238000   5.0186184e-10  100353.06      100345.47      103227.07      2.6019006e-06  5.1739913e-07  2.0845015e-06  1.0680763e+08
   3239000   5.0201684e-10  100358.25      100351.4       102985.32      2.6018905e-06  5.1728118e-07  2.0846093e-06  1.0680889e+08
   3240000   5.0217183e-10  100365.11      100358.74      102831.86      2.6018846e-06  5.1713271e-07  2.0847519e-06  1.0681177e+08
   3241000   5.0232682e-10  100374.03      100370.64      101843.36      2.6018951e-06  5.1695807e-07  2.0849371e-06  1.0681186e+08
   3242000   5.0248181e-10  100371.86      100368.48      101838.19      2.6019111e-06  5.1701913e-07  2.084892e-06   1.0681246e+08
   3243000   5.026368e-10   100376.84      100372.67      102107.11      2.601904e-06   5.1690866e-07  2.0849953e-06  1.0681426e+08
   3244000   5.0279179e-10  100369.63      100364.23      102511.19      2.6019035e-06  5.1705787e-07  2.0848456e-06  1.0681119e+08
   3245000   5.0294678e-10  100363.95      100359.89      102059.15      2.6019131e-06  5.1718535e-07  2.0847277e-06  1.0680925e+08
   3246000   5.0310177e-10  100370.26      100365.14      102415.97      2.6019023e-06  5.1704363e-07  2.0848587e-06  1.0681315e+08
   3247000   5.0325677e-10  100375.66      100369.6       102738.71      2.6019114e-06  5.1694049e-07  2.0849709e-06  1.0681552e+08
   3248000   5.0341176e-10  100376.02      100369.13      103017.44      2.6019026e-06  5.1692416e-07  2.0849784e-06  1.0681296e+08
   3249000   5.0356675e-10  100373.23      100366.08      103100.25      2.6018883e-06  5.1696781e-07  2.0849205e-06  1.0681018e+08
   3250000   5.0372174e-10  100386.97      100379.29      103293.29      2.6019031e-06  5.1669715e-07  2.0852059e-06  1.0681526e+08
   3251000   5.0387673e-10  100371.31      100362.32      103713.05      2.6018782e-06  5.1699776e-07  2.0848805e-06  1.06809e+08  
   3252000   5.0403172e-10  100378.4       100368.01      104186.58      2.6018962e-06  5.1686849e-07  2.0850278e-06  1.06814e+08  
   3253000   5.0418671e-10  100358.55      100348.89      103925.55      2.6018898e-06  5.1727428e-07  2.0846155e-06  1.0680569e+08
   3254000   5.043417e-10   100364.8       100356.54      103464.43      2.6018805e-06  5.1713517e-07  2.0847453e-06  1.0680908e+08
   3255000   5.044967e-10   100362.03      100355.8       102781.24      2.6019e-06     5.1721228e-07  2.0846877e-06  1.0680976e+08
   3256000   5.0465169e-10  100360.46      100353.46      103037.56      2.6018995e-06  5.172444e-07   2.0846551e-06  1.0680767e+08
   3257000   5.0480668e-10  100368.73      100361.68      103063.61      2.6018825e-06  5.1705549e-07  2.0848271e-06  1.0681177e+08
   3258000   5.0496167e-10  100364.57      100358.62      102691.17      2.6018695e-06  5.1712888e-07  2.0847406e-06  1.0680699e+08
   3259000   5.0511666e-10  100371.79      100365.25      102893.81      2.6018572e-06  5.1696674e-07  2.0848904e-06  1.0680614e+08
   3260000   5.0527165e-10  100378.76      100371.96      102989.29      2.6018732e-06  5.1683793e-07  2.0850352e-06  1.0680913e+08
   3261000   5.0542664e-10  100357.28      100351.95      102475.57      2.6018772e-06  5.17288e-07    2.0845892e-06  1.0680324e+08
   3262000   5.0558164e-10  100358.74      100353.81      102341.38      2.601893e-06   5.1727366e-07  2.0846194e-06  1.0680882e+08
   3263000   5.0573663e-10  100371.06      100365.33      102623.15      2.601887e-06   5.1701158e-07  2.0848754e-06  1.0681101e+08
   3264000   5.0589162e-10  100360.84      100356.03      102305.66      2.6018985e-06  5.1723535e-07  2.0846631e-06  1.0680769e+08
   3265000   5.0604661e-10  100366.89      100361.44      102523.85      2.6018905e-06  5.1710176e-07  2.0847887e-06  1.0680964e+08
   3266000   5.062016e-10   100369.54      100361.12      103520.72      2.6018872e-06  5.1704347e-07  2.0848437e-06  1.0680854e+08
   3267000   5.0635659e-10  100374.37      100362.86      104559.23      2.6018832e-06  5.16939e-07    2.0849442e-06  1.0681102e+08
   3268000   5.0651158e-10  100371.79      100360.85      104366.44      2.6019013e-06  5.1701074e-07  2.0848906e-06  1.0680966e+08
   3269000   5.0666657e-10  100382.11      100373.91      103460.44      2.6018944e-06  5.1678947e-07  2.085105e-06   1.0681359e+08
   3270000   5.0682157e-10  100373.77      100366.87      103018.71      2.6018902e-06  5.1695851e-07  2.0849317e-06  1.068135e+08 
   3271000   5.0697656e-10  100368.83      100361.83      103044.48      2.6019025e-06  5.1707354e-07  2.084829e-06   1.0681175e+08
   3272000   5.0713155e-10  100360.51      100353.61      103005.13      2.6018733e-06  5.1721708e-07  2.0846563e-06  1.0680552e+08
   3273000   5.0728654e-10  100349.57      100342         103217.46      2.6018758e-06  5.1744677e-07  2.084429e-06   1.0680161e+08
   3274000   5.0744153e-10  100349.31      100340.5       103630.53      2.6018814e-06  5.1745786e-07  2.0844235e-06  1.0680108e+08
   3275000   5.0759652e-10  100354.53      100347.82      102936.21      2.6018939e-06  5.1736188e-07  2.084532e-06   1.0680495e+08
   3276000   5.0775151e-10  100371.7       100366.72      102373.34      2.6019012e-06  5.1701261e-07  2.0848886e-06  1.0681142e+08
   3277000   5.079065e-10   100357.93      100352.28      102585.5       2.6018917e-06  5.1728897e-07  2.0846027e-06  1.0680678e+08
   3278000   5.080615e-10   100362.06      100356.26      102638.09      2.6018976e-06  5.1720919e-07  2.0846884e-06  1.0680785e+08
   3279000   5.0821649e-10  100370.22      100363.6       102922.39      2.60189e-06    5.1703204e-07  2.084858e-06   1.0681039e+08
   3280000   5.0837148e-10  100363.78      100355.67      103412.98      2.6018989e-06  5.1717476e-07  2.0847241e-06  1.0680837e+08
   3281000   5.0852647e-10  100362.18      100355.05      103082.41      2.601879e-06   5.1718802e-07  2.084691e-06   1.0680517e+08
   3282000   5.0868146e-10  100374.69      100370.04      102266.41      2.6018927e-06  5.1694185e-07  2.0849508e-06  1.0681087e+08
   3283000   5.0883645e-10  100371.11      100366.99      102085.33      2.601881e-06   5.1700462e-07  2.0848764e-06  1.0681011e+08
   3284000   5.0899144e-10  100363.33      100358.65      102263.94      2.6019081e-06  5.1719327e-07  2.0847148e-06  1.0680987e+08
   3285000   5.0914644e-10  100369.34      100365.62      101947.56      2.601897e-06   5.1705744e-07  2.0848396e-06  1.0680973e+08
   3286000   5.0930143e-10  100361.89      100358.58      101802.6       2.6018855e-06  5.1720069e-07  2.0846848e-06  1.0680587e+08
   3287000   5.0945642e-10  100363.19      100360.18      101702.78      2.601898e-06   5.1718622e-07  2.0847118e-06  1.0681052e+08
   3288000   5.0961141e-10  100364.79      100363.52      101122.62      2.6019172e-06  5.1717216e-07  2.084745e-06   1.0681344e+08
   3289000   5.097664e-10   100351.58      100350.9       100913.2       2.60189e-06    5.1741934e-07  2.0844707e-06  1.0680593e+08
   3290000   5.0992139e-10  100363.16      100362.68      100859.59      2.6018781e-06  5.1716684e-07  2.0847113e-06  1.0680676e+08
   3291000   5.1007638e-10  100363.41      100362.6       100969.44      2.6018837e-06  5.1716725e-07  2.0847165e-06  1.068073e+08 
   3292000   5.1023137e-10  100379.21      100379.66      100562.54      2.6019052e-06  5.1686061e-07  2.0850445e-06  1.0681461e+08
   3293000   5.1038637e-10  100376.41      100379.14      99798.424      2.6019007e-06  5.1691415e-07  2.0849865e-06  1.0681462e+08
   3294000   5.1054136e-10  100384.98      100385.07      100690.23      2.601901e-06   5.167366e-07   2.0851644e-06  1.0681696e+08
   3295000   5.1069635e-10  100379.39      100377.02      101509.08      2.6019092e-06  5.1686079e-07  2.0850485e-06  1.0681419e+08
   3296000   5.1085134e-10  100369.88      100368.36      101213.79      2.6018819e-06  5.1703097e-07  2.0848509e-06  1.068086e+08 
   3297000   5.1100633e-10  100391.07      100389.61      101213.27      2.6018728e-06  5.1658193e-07  2.0852909e-06  1.0681195e+08
   3298000   5.1116132e-10  100372.81      100371.58      101117.66      2.6018781e-06  5.1696649e-07  2.0849116e-06  1.0680879e+08
   3299000   5.1131631e-10  100380.85      100380.27      100911.67      2.6019e-06     5.1682124e-07  2.0850787e-06  1.068165e+08 
   3300000   5.114713e-10   100362.33      100361.22      101067.54      2.6019149e-06  5.1722095e-07  2.084694e-06   1.0681144e+08
   3301000   5.116263e-10   100389.77      100388.29      101219.75      2.6018864e-06  5.1662243e-07  2.085264e-06   1.0681767e+08
   3302000   5.1178129e-10  100367.41      100366.63      100964.62      2.6018978e-06  5.1709822e-07  2.0847996e-06  1.0680802e+08
   3303000   5.1193628e-10  100387.93      100386.72      101128.65      2.6018966e-06  5.166708e-07   2.0852258e-06  1.0681636e+08
   3304000   5.1209127e-10  100363.17      100362.31      100986.49      2.6018721e-06  5.1716055e-07  2.0847115e-06  1.0680562e+08
   3305000   5.1224626e-10  100362.18      100361.55      100910.33      2.6019049e-06  5.1721392e-07  2.0846909e-06  1.0680804e+08
   3306000   5.1240125e-10  100369.44      100367.55      101335.48      2.6018962e-06  5.1705453e-07  2.0848417e-06  1.0681077e+08
   3307000   5.1255624e-10  100353.29      100349.39      101994.64      2.6019093e-06  5.17403e-07    2.0845063e-06  1.0680721e+08
   3308000   5.1271124e-10  100361.75      100358.87      101660.2       2.6018997e-06  5.1721782e-07  2.0846819e-06  1.0680907e+08
   3309000   5.1286623e-10  100383.04      100381.23      101325.51      2.6019033e-06  5.1677901e-07  2.0851242e-06  1.0681584e+08
   3310000   5.1302122e-10  100365.56      100363.26      101471.11      2.6019064e-06  5.1714524e-07  2.0847612e-06  1.0680987e+08
   3311000   5.1317621e-10  100360.12      100357.67      101516.64      2.6018889e-06  5.1724075e-07  2.0846481e-06  1.0680819e+08
   3312000   5.133312e-10   100356.56      100354.32      101439.57      2.601917e-06   5.1734285e-07  2.0845741e-06  1.0681002e+08
   3313000   5.1348619e-10  100345.74      100343.82      101323.74      2.6019179e-06  5.1756847e-07  2.0843495e-06  1.068061e+08 
   3314000   5.1364118e-10  100362.74      100361.25      101198.1       2.6019099e-06  5.1720728e-07  2.0847026e-06  1.0681164e+08
   3315000   5.1379617e-10  100374.71      100375.04      100601.79      2.6019076e-06  5.1695631e-07  2.0849513e-06  1.0681588e+08
   3316000   5.1395117e-10  100357.78      100358.65      100400.81      2.6019072e-06  5.1730777e-07  2.0845994e-06  1.0681148e+08
   3317000   5.1410616e-10  100364.27      100364.8       100523.59      2.6019095e-06  5.171751e-07   2.0847344e-06  1.068119e+08 
   3318000   5.1426115e-10  100370.47      100372.17      100138.69      2.6019069e-06  5.1704378e-07  2.0848631e-06  1.0681355e+08
   3319000   5.1441614e-10  100347.21      100349.4       99947.611      2.6018975e-06  5.1751764e-07  2.0843799e-06  1.0680523e+08
   3320000   5.1457113e-10  100366.02      100367.66      100151.91      2.6019036e-06  5.1713303e-07  2.0847706e-06  1.0681311e+08
   3321000   5.1472612e-10  100369.45      100371.95      99869.174      2.6019081e-06  5.1706612e-07  2.0848419e-06  1.0681373e+08
   3322000   5.1488111e-10  100368.97      100370.54      100178.97      2.6019034e-06  5.1707136e-07  2.084832e-06   1.0681117e+08
   3323000   5.150361e-10   100367.57      100367.47      100736.44      2.6019053e-06  5.1710245e-07  2.0848029e-06  1.0681128e+08
   3324000   5.151911e-10   100370.63      100370.05      100900.25      2.6019233e-06  5.1705697e-07  2.0848664e-06  1.0681457e+08
   3325000   5.1534609e-10  100360.06      100358.72      101145.98      2.6019009e-06  5.1725399e-07  2.0846469e-06  1.0680941e+08
   3326000   5.1550108e-10  100359.54      100357.12      101503.63      2.601898e-06   5.1726204e-07  2.084636e-06   1.068096e+08 
   3327000   5.1565607e-10  100372         100368.25      101960.94      2.6018877e-06  5.1699288e-07  2.0848948e-06  1.0681147e+08
   3328000   5.1581106e-10  100358.28      100352.92      102488.98      2.6019086e-06  5.1729863e-07  2.08461e-06    1.0680901e+08
   3329000   5.1596605e-10  100352.69      100347.22      102514.9       2.6019019e-06  5.1740817e-07  2.0844937e-06  1.0680641e+08
   3330000   5.1612104e-10  100355.48      100349.18      102798.54      2.6019184e-06  5.173667e-07   2.0845517e-06  1.0680834e+08
   3331000   5.1627604e-10  100365.76      100359.71      102725.42      2.60191e-06    5.171447e-07   2.0847653e-06  1.0681194e+08
   3332000   5.1643103e-10  100356.45      100349.77      102928.37      2.6018937e-06  5.1732168e-07  2.084572e-06   1.0680883e+08
   3333000   5.1658602e-10  100373.1       100369.03      102069.1       2.6019081e-06  5.1699038e-07  2.0849177e-06  1.0681474e+08
   3334000   5.1674101e-10  100364.44      100359.13      102475.05      2.6018913e-06  5.1715349e-07  2.0847378e-06  1.0680946e+08
   3335000   5.16896e-10    100355.24      100348.54      102931.11      2.6018882e-06  5.1734144e-07  2.0845467e-06  1.0680617e+08
   3336000   5.1705099e-10  100368.93      100361.64      103141.89      2.601893e-06   5.1706187e-07  2.0848311e-06  1.0681257e+08
   3337000   5.1720598e-10  100380.2       100372.84      103177.11      2.6018695e-06  5.1680439e-07  2.0850651e-06  1.0681175e+08
   3338000   5.1736097e-10  100386.98      100379.06      103370.83      2.6018681e-06  5.1666211e-07  2.085206e-06   1.0681251e+08
   3339000   5.1751597e-10  100370.83      100361.02      103989.95      2.6018557e-06  5.1698502e-07  2.0848706e-06  1.0680614e+08
   3340000   5.1767096e-10  100362.88      100352.48      104178.42      2.6018601e-06  5.1715458e-07  2.0847055e-06  1.068016e+08 
   3341000   5.1782595e-10  100387.94      100378.15      103997.72      2.6018674e-06  5.1664149e-07  2.0852259e-06  1.0681218e+08
   3342000   5.1798094e-10  100391.17      100382.1       103758.16      2.6018719e-06  5.1657887e-07  2.085293e-06   1.0681414e+08
   3343000   5.1813593e-10  100360.2       100351.6       103574.21      2.6018741e-06  5.172243e-07   2.0846498e-06  1.068043e+08 
   3344000   5.1829092e-10  100361.96      100352.56      103841.55      2.601866e-06   5.1717962e-07  2.0846864e-06  1.068052e+08 
   3345000   5.1844591e-10  100349.58      100340.03      103878.14      2.601873e-06   5.1744388e-07  2.0844291e-06  1.0680169e+08
   3346000   5.186009e-10   100358.37      100348.69      103934.09      2.6018992e-06  5.1728733e-07  2.0846118e-06  1.0680876e+08
   3347000   5.187559e-10   100372.23      100363.34      103679.78      2.6019006e-06  5.1700094e-07  2.0848997e-06  1.0681458e+08
   3348000   5.1891089e-10  100378.5       100371.75      102971.06      2.6018832e-06  5.1685344e-07  2.0850298e-06  1.0681268e+08
   3349000   5.1906588e-10  100380.66      100375.12      102568.54      2.6018859e-06  5.168112e-07   2.0850747e-06  1.0681257e+08
   3350000   5.1922087e-10  100381.72      100378.07      101936.94      2.6018923e-06  5.1679564e-07  2.0850967e-06  1.0681401e+08
   3351000   5.1937586e-10  100363.97      100361.53      101513.98      2.6018885e-06  5.1716044e-07  2.084728e-06   1.0680841e+08
   3352000   5.1953085e-10  100377         100374.1       101680.85      2.6018728e-06  5.168741e-07   2.0849987e-06  1.068114e+08 
   3353000   5.1968584e-10  100357.54      100355.53      101365.63      2.6018802e-06  5.1728575e-07  2.0845945e-06  1.068046e+08 
   3354000   5.1984084e-10  100383.03      100380.75      101483.64      2.6018739e-06  5.1674977e-07  2.0851241e-06  1.0681425e+08
   3355000   5.1999583e-10  100358.97      100357.87      101061.99      2.6018801e-06  5.1725587e-07  2.0846242e-06  1.0680633e+08
   3356000   5.2015082e-10  100371.18      100370.86      100813.16      2.6018696e-06  5.169918e-07   2.0848778e-06  1.0680986e+08
   3357000   5.2030581e-10  100370.06      100370.73      100481.11      2.601907e-06   5.1705245e-07  2.0848545e-06  1.068108e+08 
   3358000   5.204608e-10   100379.72      100378.98      100964.5       2.6019029e-06  5.1684759e-07  2.0850553e-06  1.0681493e+08
   3359000   5.2061579e-10  100377.57      100375.77      101314.8       2.6019026e-06  5.1689199e-07  2.0850106e-06  1.0681358e+08
   3360000   5.2077078e-10  100386.54      100385.61      101032.77      2.6019048e-06  5.1670801e-07  2.0851968e-06  1.0681558e+08
   3361000   5.2092577e-10  100368.36      100370.49      99993.045      2.6019148e-06  5.1709549e-07  2.0848194e-06  1.0681152e+08
   3362000   5.2108077e-10  100371.13      100370.31      100982.36      2.6019108e-06  5.1703394e-07  2.0848769e-06  1.0681313e+08
   3363000   5.2123576e-10  100363.63      100361.38      101452.74      2.6019077e-06  5.1718668e-07  2.084721e-06   1.0680932e+08
   3364000   5.2139075e-10  100371.58      100365.34      102793.74      2.6019136e-06  5.1702735e-07  2.0848862e-06  1.0681307e+08
   3365000   5.2154574e-10  100375.18      100365.92      103807.3       2.6019154e-06  5.1695448e-07  2.0849609e-06  1.0681474e+08
   3366000   5.2170073e-10  100366.08      100357.57      103547.02      2.6019e-06     5.1712811e-07  2.0847719e-06  1.0681209e+08
   3367000   5.2185572e-10  100358.58      100349.76      103643.84      2.6019053e-06  5.1728926e-07  2.084616e-06   1.0680981e+08
   3368000   5.2201071e-10  100343.67      100334.63      103701.99      2.601903e-06   5.1759652e-07  2.0843065e-06  1.0680396e+08
   3369000   5.221657e-10   100357.14      100345.03      104741.89      2.6018993e-06  5.1731313e-07  2.0845861e-06  1.068084e+08 
   3370000   5.223207e-10   100368.97      100355.55      105192.8       2.6018906e-06  5.1705854e-07  2.084832e-06   1.0681242e+08
   3371000   5.2247569e-10  100366.34      100352.87      105208.29      2.60191e-06    5.1713262e-07  2.0847774e-06  1.0681398e+08
   3372000   5.2263068e-10  100365.8       100350.92      105678.12      2.6019052e-06  5.1713904e-07  2.0847662e-06  1.0681188e+08
   3373000   5.2278567e-10  100377.97      100361.04      106373.13      2.6018872e-06  5.1686842e-07  2.0850188e-06  1.0681298e+08
   3374000   5.2294066e-10  100372.46      100354.13      106838.94      2.6018798e-06  5.1697532e-07  2.0849045e-06  1.0680943e+08
   3375000   5.2309565e-10  100365.55      100347.24      106824.84      2.6018772e-06  5.1711642e-07  2.0847608e-06  1.0680746e+08
   3376000   5.2325064e-10  100368.66      100350.71      106710.03      2.6018773e-06  5.1705174e-07  2.0848256e-06  1.0680862e+08
   3377000   5.2340564e-10  100363.48      100345.81      106609.62      2.6018753e-06  5.1715744e-07  2.0847179e-06  1.0680582e+08
   3378000   5.2356063e-10  100359         100343.73      105801.66      2.6018786e-06  5.1725369e-07  2.0846249e-06  1.0680415e+08
   3379000   5.2371562e-10  100373.46      100359.47      105388.5       2.6018766e-06  5.1695143e-07  2.0849251e-06  1.0681019e+08
   3380000   5.2387061e-10  100363.92      100349.18      105630.29      2.6018729e-06  5.1714586e-07  2.084727e-06   1.0680697e+08
   3381000   5.240256e-10   100355.81      100338.53      106469.13      2.6018882e-06  5.1732962e-07  2.0845586e-06  1.0680557e+08
   3382000   5.2418059e-10  100360.22      100344.31      106015.52      2.6018876e-06  5.1723743e-07  2.0846502e-06  1.0680712e+08
   3383000   5.2433558e-10  100378.9       100362.4       106233.56      2.6018759e-06  5.1683774e-07  2.0850382e-06  1.0681182e+08
   3384000   5.2449057e-10  100354.34      100339.16      105767         2.6018853e-06  5.1735725e-07  2.084528e-06   1.0680512e+08
   3385000   5.2464557e-10  100367.85      100353.6       105470.68      2.6018779e-06  5.1706912e-07  2.0848087e-06  1.0680954e+08
   3386000   5.2480056e-10  100357.36      100342.51      105662.45      2.6018867e-06  5.1729582e-07  2.0845909e-06  1.0680517e+08
   3387000   5.2495555e-10  100357.16      100341.2       106028.14      2.6019082e-06  5.1732163e-07  2.0845865e-06  1.0680866e+08
   3388000   5.2511054e-10  100359.56      100343.19      106169.3       2.6018895e-06  5.1725304e-07  2.0846365e-06  1.0680819e+08
   3389000   5.2526553e-10  100371.44      100353.83      106597.85      2.601904e-06   5.1702074e-07  2.0848832e-06  1.0681148e+08
   3390000   5.2542052e-10  100367.99      100350.42      106578.31      2.6018791e-06  5.1706753e-07  2.0848116e-06  1.068078e+08 
   3391000   5.2557551e-10  100383.16      100366.62      106252.56      2.6018879e-06  5.1676114e-07  2.0851268e-06  1.0681461e+08
   3392000   5.257305e-10   100372.72      100355.76      106380.73      2.6018887e-06  5.1697898e-07  2.0849098e-06  1.0681009e+08
   3393000   5.258855e-10   100370.22      100352.35      106682.98      2.6018817e-06  5.1702371e-07  2.084858e-06   1.0680857e+08
   3394000   5.2604049e-10  100377.89      100361.96      106039.65      2.6018899e-06  5.168728e-07   2.0850171e-06  1.0681242e+08
   3395000   5.2619548e-10  100357.01      100341.75      105795.09      2.6018923e-06  5.1730885e-07  2.0845835e-06  1.0680633e+08
   3396000   5.2635047e-10  100363.57      100349.03      105563.84      2.6018764e-06  5.1715662e-07  2.0847198e-06  1.0680592e+08
   3397000   5.2650546e-10  100361.06      100344.48      106239.48      2.6018779e-06  5.1721035e-07  2.0846676e-06  1.0680377e+08
   3398000   5.2666045e-10  100374.79      100358.74      106078.16      2.6018756e-06  5.1692287e-07  2.0849528e-06  1.0681003e+08
   3399000   5.2681544e-10  100359.32      100344.52      105646.06      2.6018889e-06  5.1725727e-07  2.0846316e-06  1.068072e+08 
   3400000   5.2697044e-10  100368.09      100353.66      105529.6       2.6018918e-06  5.1707809e-07  2.0848137e-06  1.0680937e+08
   3401000   5.2712543e-10  100357.6       100342.43      105766.46      2.6018988e-06  5.1730315e-07  2.0845957e-06  1.0680729e+08
   3402000   5.2728042e-10  100373.41      100360.3       105093.76      2.6018918e-06  5.1696771e-07  2.0849241e-06  1.0681383e+08
   3403000   5.2743541e-10  100361.49      100349.29      104778.15      2.6018905e-06  5.1721392e-07  2.0846766e-06  1.0680819e+08
   3404000   5.275904e-10   100369.4       100358.62      104308.64      2.6019001e-06  5.170592e-07   2.0848409e-06  1.068088e+08 
   3405000   5.2774539e-10  100365.76      100355.02      104292.41      2.6018919e-06  5.1712664e-07  2.0847653e-06  1.0680847e+08
   3406000   5.2790038e-10  100371.19      100359.07      104760.95      2.6019e-06     5.1702184e-07  2.0848782e-06  1.0681385e+08
   3407000   5.2805537e-10  100372.66      100360.67      104720.37      2.6019046e-06  5.16996e-07    2.0849086e-06  1.0681512e+08
   3408000   5.2821037e-10  100353.48      100341.39      104731.63      2.6019165e-06  5.174063e-07   2.0845102e-06  1.0680943e+08
   3409000   5.2836536e-10  100352.19      100341.48      104271.74      2.6019266e-06  5.1744323e-07  2.0844834e-06  1.0681098e+08
   3410000   5.2852035e-10  100372.06      100362.54      103891.82      2.6019328e-06  5.1703663e-07  2.0848961e-06  1.0681622e+08
   3411000   5.2867534e-10  100379.7       100370.75      103709.13      2.6019091e-06  5.1685422e-07  2.0850549e-06  1.0681506e+08
   3412000   5.2883033e-10  100371.72      100362.56      103771.42      2.6019044e-06  5.1701534e-07  2.0848891e-06  1.0681252e+08
   3413000   5.2898532e-10  100361.41      100350.41      104375.55      2.6019177e-06  5.1724267e-07  2.084675e-06   1.0681164e+08
   3414000   5.2914031e-10  100361.37      100350.05      104481.32      2.6019084e-06  5.1723439e-07  2.084674e-06   1.0681058e+08
   3415000   5.292953e-10   100360.29      100347.66      104919.13      2.601883e-06   5.1723142e-07  2.0846516e-06  1.0680744e+08
   3416000   5.294503e-10   100376.92      100364.43      104890.44      2.6018885e-06  5.1689136e-07  2.0849971e-06  1.0681338e+08
   3417000   5.2960529e-10  100370.09      100358.59      104551.22      2.6018884e-06  5.1703314e-07  2.0848553e-06  1.0680882e+08
   3418000   5.2976028e-10  100369.24      100356.32      105027.93      2.6018836e-06  5.1704598e-07  2.0848376e-06  1.0680985e+08
   3419000   5.2991527e-10  100372.44      100360.38      104741.03      2.601894e-06   5.1698993e-07  2.0849041e-06  1.068106e+08 
   3420000   5.3007026e-10  100365.73      100354.4       104489.98      2.6018921e-06  5.1712745e-07  2.0847647e-06  1.068087e+08 
   3421000   5.3022525e-10  100357.92      100347.5       104178.89      2.6018894e-06  5.1728698e-07  2.0846024e-06  1.0680623e+08
   3422000   5.3038024e-10  100372.89      100362.27      104259.92      2.6018935e-06  5.1698014e-07  2.0849134e-06  1.0680901e+08
   3423000   5.3053524e-10  100384.18      100374.43      103978.48      2.601891e-06   5.1674319e-07  2.0851478e-06  1.0681322e+08
   3424000   5.3069023e-10  100358.22      100348.99      103779.18      2.60189e-06    5.1728147e-07  2.0846086e-06  1.0680716e+08
   3425000   5.3084522e-10  100371.2       100360.62      104244.81      2.6019081e-06  5.1702987e-07  2.0848782e-06  1.0681438e+08
   3426000   5.3100021e-10  100362.08      100354.42      103256.93      2.6019131e-06  5.1722437e-07  2.0846887e-06  1.0681045e+08
   3427000   5.311552e-10   100361.49      100355.03      102857.5       2.6018946e-06  5.1721812e-07  2.0846765e-06  1.0680806e+08
   3428000   5.3131019e-10  100356.35      100349.72      102907.88      2.6018919e-06  5.173222e-07   2.0845697e-06  1.0680668e+08
   3429000   5.3146518e-10  100358.22      100350.37      103319.11      2.6018854e-06  5.1727684e-07  2.0846086e-06  1.0680742e+08
   3430000   5.3162017e-10  100362.38      100351.85      104217.14      2.6018731e-06  5.1717811e-07  2.084695e-06   1.0680663e+08
   3431000   5.3177517e-10  100383.12      100370.6       104906.32      2.6018853e-06  5.167594e-07   2.0851259e-06  1.0681422e+08
   3432000   5.3193016e-10  100370.91      100356.25      105612.32      2.6018851e-06  5.1701277e-07  2.0848723e-06  1.0681006e+08
   3433000   5.3208515e-10  100360.56      100344.86      105948.21      2.6019027e-06  5.1724543e-07  2.0846573e-06  1.0680966e+08
   3434000   5.3224014e-10  100346.51      100330.66      105983.13      2.6019092e-06  5.1754372e-07  2.0843655e-06  1.0680788e+08
   3435000   5.3239513e-10  100358.38      100343.19      105775.63      2.6019028e-06  5.1729084e-07  2.084612e-06   1.0680957e+08
   3436000   5.3255012e-10  100361.14      100343.98      106439.04      2.6019079e-06  5.172385e-07   2.0846694e-06  1.068086e+08 
   3437000   5.3270511e-10  100384.35      100367.37      106400.21      2.6018857e-06  5.1673425e-07  2.0851514e-06  1.0681423e+08
   3438000   5.328601e-10   100357.61      100342.41      105774.04      2.6018922e-06  5.1729636e-07  2.0845959e-06  1.0680654e+08
   3439000   5.330151e-10   100359.59      100342.03      106567.41      2.6018839e-06  5.1724684e-07  2.0846371e-06  1.0680741e+08
   3440000   5.3317009e-10  100361.57      100341.95      107258.9       2.601898e-06   5.1721985e-07  2.0846782e-06  1.0680983e+08
   3441000   5.3332508e-10  100355.39      100333.94      107865.98      2.6018948e-06  5.1734486e-07  2.0845499e-06  1.0680906e+08
   3442000   5.3348007e-10  100365.93      100346.2       107302.75      2.6018861e-06  5.1711719e-07  2.0847689e-06  1.0681094e+08
   3443000   5.3363506e-10  100381.22      100365.07      106118.77      2.6018984e-06  5.1681192e-07  2.0850865e-06  1.0681555e+08
   3444000   5.3379005e-10  100380.5       100363.8       106301.93      2.6018811e-06  5.1680973e-07  2.0850714e-06  1.0681327e+08
   3445000   5.3394504e-10  100356.84      100340.76      106067.87      2.6018914e-06  5.1731145e-07  2.0845799e-06  1.0680648e+08
   3446000   5.3410004e-10  100356.06      100339.48      106236.26      2.6018822e-06  5.1731853e-07  2.0845637e-06  1.0680545e+08
   3447000   5.3425503e-10  100361.35      100345.36      106047.85      2.6018941e-06  5.1722031e-07  2.0846738e-06  1.0680855e+08
   3448000   5.3441002e-10  100352.59      100337.57      105712.74      2.6018857e-06  5.1739395e-07  2.0844918e-06  1.0680531e+08
   3449000   5.3456501e-10  100356.1       100342.49      105241.49      2.6018755e-06  5.1731097e-07  2.0845645e-06  1.0680659e+08
   3450000   5.3472e-10     100368.78      100355.7       105081.26      2.6018834e-06  5.1705533e-07  2.0848281e-06  1.0681191e+08
   3451000   5.3487499e-10  100367.31      100356.03      104475.74      2.6018931e-06  5.1709565e-07  2.0847974e-06  1.068119e+08 
   3452000   5.3502998e-10  100365.77      100353.42      104830.07      2.6018989e-06  5.1713341e-07  2.0847654e-06  1.0681007e+08
   3453000   5.3518497e-10  100366.61      100355.07      104560.47      2.6019044e-06  5.1712156e-07  2.0847828e-06  1.068117e+08 
   3454000   5.3533997e-10  100367.59      100354.88      104953.46      2.6019104e-06  5.1710712e-07  2.0848033e-06  1.0681222e+08
   3455000   5.3549496e-10  100358.59      100345.64      105025.24      2.6019024e-06  5.1728593e-07  2.0846164e-06  1.0680903e+08
   3456000   5.3564995e-10  100367.41      100355.37      104729.54      2.6019012e-06  5.1710169e-07  2.0847995e-06  1.0681106e+08
   3457000   5.3580494e-10  100361.01      100349.46      104560.93      2.6019105e-06  5.1724387e-07  2.0846666e-06  1.0680921e+08
   3458000   5.3595993e-10  100356.13      100344.12      104707.58      2.6018946e-06  5.1732947e-07  2.0845651e-06  1.0680712e+08
   3459000   5.3611492e-10  100367.11      100355.76      104496.84      2.6019091e-06  5.1711581e-07  2.0847933e-06  1.0681394e+08
   3460000   5.3626991e-10  100365.95      100356.06      104006.92      2.6018982e-06  5.1712907e-07  2.0847692e-06  1.0681314e+08
   3461000   5.364249e-10   100359.31      100348.38      104352.83      2.6019211e-06  5.1728972e-07  2.0846314e-06  1.0680975e+08
   3462000   5.365799e-10   100364.22      100351.73      104875.51      2.6018997e-06  5.1716651e-07  2.0847332e-06  1.0680866e+08
   3463000   5.3673489e-10  100359.1       100346.13      105032.87      2.6019081e-06  5.1728109e-07  2.084627e-06   1.0680809e+08
   3464000   5.3688988e-10  100369.88      100354.56      105826.82      2.6018846e-06  5.1703382e-07  2.0848508e-06  1.068093e+08 
   3465000   5.3704487e-10  100378.77      100362.4       106190.39      2.6018846e-06  5.1684907e-07  2.0850355e-06  1.0681263e+08
   3466000   5.3719986e-10  100363.92      100346.86      106407.11      2.6018929e-06  5.1716577e-07  2.0847271e-06  1.06809e+08  
   3467000   5.3735485e-10  100366.96      100348.41      106908.35      2.6018907e-06  5.1710043e-07  2.0847903e-06  1.068088e+08 
   3468000   5.3750984e-10  100371.99      100354.74      106475.49      2.6018907e-06  5.169961e-07   2.0848946e-06  1.0681111e+08
   3469000   5.3766484e-10  100360.59      100342.88      106619.47      2.6018952e-06  5.1723743e-07  2.0846578e-06  1.0680815e+08
   3470000   5.3781983e-10  100340.3       100324.24      106049.42      2.6018864e-06  5.1764995e-07  2.0842365e-06  1.067992e+08 
   3471000   5.3797482e-10  100372.33      100356.21      106099.32      2.6018857e-06  5.1698393e-07  2.0849017e-06  1.0681002e+08
   3472000   5.3812981e-10  100367.41      100350.75      106277.84      2.6018806e-06  5.1708097e-07  2.0847996e-06  1.0680798e+08
   3473000   5.382848e-10   100356.94      100341.04      106011.59      2.6018831e-06  5.1730108e-07  2.084582e-06   1.0680591e+08
   3474000   5.3843979e-10  100356.46      100341         105864.88      2.6019063e-06  5.1733417e-07  2.0845722e-06  1.0680826e+08
   3475000   5.3859478e-10  100371.6       100355.59      106061.7       2.6019203e-06  5.170337e-07   2.0848866e-06  1.068134e+08 
   3476000   5.3874977e-10  100369.78      100350.85      107037.61      2.6018709e-06  5.1702206e-07  2.0848488e-06  1.0680672e+08
   3477000   5.3890477e-10  100378.02      100359.13      107030.99      2.6018599e-06  5.1683998e-07  2.0850199e-06  1.068077e+08 
   3478000   5.3905976e-10  100375.66      100356.88      106989.2       2.6018747e-06  5.1690392e-07  2.0849708e-06  1.0681011e+08
   3479000   5.3921475e-10  100377.54      100359.64      106699.41      2.6018815e-06  5.1687154e-07  2.0850099e-06  1.0681213e+08
   3480000   5.3936974e-10  100381.08      100363.72      106525.02      2.601881e-06   5.167974e-07   2.0850836e-06  1.0681318e+08
   3481000   5.3952473e-10  100371.85      100356.2       105942.77      2.6018997e-06  5.1700791e-07  2.0848917e-06  1.0681237e+08
   3482000   5.3967972e-10  100366.23      100350.13      106084.45      2.601909e-06   5.1713408e-07  2.0847749e-06  1.0681157e+08
   3483000   5.3983471e-10  100356.89      100341.7       105772.12      2.6019055e-06  5.1732455e-07  2.084581e-06   1.0680781e+08
   3484000   5.399897e-10   100371.87      100356.55      105830.21      2.6018944e-06  5.1700225e-07  2.0848922e-06  1.0681233e+08
   3485000   5.401447e-10   100365.82      100350.67      105768.41      2.601901e-06   5.171345e-07   2.0847665e-06  1.0681233e+08
   3486000   5.4029969e-10  100367.64      100351.44      106121.7       2.6019225e-06  5.1711809e-07  2.0848044e-06  1.0681402e+08
   3487000   5.4045468e-10  100366.95      100347.85      107088.86      2.6019071e-06  5.171171e-07   2.08479e-06    1.0681325e+08
   3488000   5.4060967e-10  100354.65      100334.59      107399.78      2.6019047e-06  5.1737015e-07  2.0845345e-06  1.0680854e+08
   3489000   5.4076466e-10  100366.09      100347.91      106782.44      2.6018793e-06  5.1710717e-07  2.0847722e-06  1.0681027e+08
   3490000   5.4091965e-10  100369.76      100350.41      107177.68      2.6018859e-06  5.1703744e-07  2.0848484e-06  1.0681256e+08
   3491000   5.4107464e-10  100378.79      100358.5       107498.7       2.6018805e-06  5.1684463e-07  2.0850359e-06  1.0681266e+08
   3492000   5.4122964e-10  100381.34      100358.94      108205.98      2.6018933e-06  5.1680447e-07  2.0850888e-06  1.0681556e+08
   3493000   5.4138463e-10  100368.75      100345         108644.57      2.6018908e-06  5.1706347e-07  2.0848273e-06  1.0681092e+08
   3494000   5.4153962e-10  100376.99      100354.16      108347.36      2.6018856e-06  5.1688708e-07  2.0849985e-06  1.0681236e+08
   3495000   5.4169461e-10  100366.93      100343.75      108454.36      2.6018963e-06  5.1710672e-07  2.0847896e-06  1.068101e+08 
   3496000   5.418496e-10   100365.31      100340.65      108951.01      2.6019104e-06  5.1715436e-07  2.084756e-06   1.0681089e+08
   3497000   5.4200459e-10  100363.79      100336.78      109732.74      2.6019041e-06  5.1717987e-07  2.0847243e-06  1.0681048e+08
   3498000   5.4215958e-10  100358.79      100333.75      109068.61      2.6018892e-06  5.1726878e-07  2.0846204e-06  1.0680827e+08
   3499000   5.4231457e-10  100362.46      100338.3       108777.59      2.6018904e-06  5.1719378e-07  2.0846966e-06  1.0680736e+08
   3500000   5.4246957e-10  100367.83      100346.73      107761.84      2.6019014e-06  5.1709305e-07  2.0848083e-06  1.068113e+08 
   3501000   5.4262456e-10  100362.23      100340.14      108086.45      2.6019072e-06  5.1721525e-07  2.0846919e-06  1.0681016e+08
   3502000   5.4277955e-10  100372.19      100351.75      107541.86      2.6019154e-06  5.1701659e-07  2.0848988e-06  1.0681448e+08
   3503000   5.4293454e-10  100376.19      100356.86      107174.22      2.6019101e-06  5.1692825e-07  2.0849818e-06  1.0681454e+08
   3504000   5.4308953e-10  100380.8       100359.7       107773.37      2.6018976e-06  5.1681995e-07  2.0850776e-06  1.0681398e+08
   3505000   5.4324452e-10  100373.61      100353.84      107321.54      2.6018811e-06  5.1695282e-07  2.0849283e-06  1.0681028e+08
   3506000   5.4339951e-10  100360.15      100339.86      107482.27      2.6019024e-06  5.1725361e-07  2.0846488e-06  1.0680868e+08
   3507000   5.435545e-10   100352.81      100332.95      107332.44      2.6018966e-06  5.1740029e-07  2.0844963e-06  1.0680781e+08
   3508000   5.437095e-10   100353.19      100335.39      106644.49      2.6019111e-06  5.1740688e-07  2.0845043e-06  1.0680713e+08
   3509000   5.4386449e-10  100373.69      100354.95      106976.24      2.6019049e-06  5.1697501e-07  2.0849299e-06  1.0681258e+08
   3510000   5.4401948e-10  100378.18      100360.68      106566.88      2.6019074e-06  5.1688417e-07  2.0850232e-06  1.0681539e+08
   3511000   5.4417447e-10  100352.46      100335.36      106408.79      2.6019043e-06  5.1741529e-07  2.084489e-06   1.0680763e+08
   3512000   5.4432946e-10  100344.53      100328.71      105971.26      2.6018993e-06  5.1757492e-07  2.0843244e-06  1.0680514e+08
   3513000   5.4448445e-10  100356.02      100341.85      105430.99      2.6018876e-06  5.1732458e-07  2.084563e-06   1.068079e+08 
   3514000   5.4463944e-10  100369.83      100357.97      104671.07      2.6019085e-06  5.1705874e-07  2.0848498e-06  1.0681419e+08
   3515000   5.4479444e-10  100347.54      100335.43      104731.02      2.601914e-06   5.1752729e-07  2.0843867e-06  1.0680796e+08
   3516000   5.4494943e-10  100333.45      100320.99      104835.52      2.6019198e-06  5.1782566e-07  2.0840942e-06  1.068032e+08 
   3517000   5.4510442e-10  100365.87      100351.82      105400.57      2.601918e-06   5.1715041e-07  2.0847676e-06  1.0681324e+08
   3518000   5.4525941e-10  100344.78      100330.59      105425.87      2.6019153e-06  5.1758573e-07  2.0843296e-06  1.0680527e+08
   3519000   5.454144e-10   100360.99      100344.86      106090.9       2.6018977e-06  5.172315e-07   2.0846662e-06  1.0681015e+08
   3520000   5.4556939e-10  100355.43      100339.61      105981.52      2.6019144e-06  5.1736371e-07  2.0845507e-06  1.0680982e+08
   3521000   5.4572438e-10  100358.88      100341.92      106369.01      2.6019105e-06  5.1728806e-07  2.0846224e-06  1.0681012e+08
   3522000   5.4587937e-10  100344.7       100327.16      106546.67      2.601896e-06   5.1756814e-07  2.0843279e-06  1.068051e+08 
   3523000   5.4603437e-10  100355.87      100336.27      107247.64      2.6019151e-06  5.1735526e-07  2.0845599e-06  1.0680927e+08
   3524000   5.4618936e-10  100355.17      100335.65      107218.23      2.6018948e-06  5.1734955e-07  2.0845452e-06  1.068069e+08 
   3525000   5.4634435e-10  100366.2       100348.35      106671.04      2.6018844e-06  5.1711005e-07  2.0847744e-06  1.0680954e+08
   3526000   5.4649934e-10  100372.91      100356.27      106274.74      2.6018773e-06  5.1696349e-07  2.0849138e-06  1.068101e+08 
   3527000   5.4665433e-10  100349.95      100332.82      106416.52      2.6018965e-06  5.1745961e-07  2.0844369e-06  1.0680152e+08
   3528000   5.4680932e-10  100367.44      100349.89      106571.94      2.6018939e-06  5.1709368e-07  2.0848002e-06  1.0680882e+08
   3529000   5.4696431e-10  100366.85      100349.29      106575.02      2.6019056e-06  5.1711768e-07  2.0847879e-06  1.068107e+08 
   3530000   5.471193e-10   100358.17      100340.24      106692.08      2.6019106e-06  5.1730294e-07  2.0846077e-06  1.0680943e+08
   3531000   5.472743e-10   100355.4       100335.61      107308.57      2.6019054e-06  5.1735544e-07  2.08455e-06    1.0680906e+08
   3532000   5.4742929e-10  100368.03      100348.29      107302.99      2.6018998e-06  5.1708749e-07  2.0848123e-06  1.0681183e+08
   3533000   5.4758428e-10  100370.62      100349.29      107837.28      2.6018923e-06  5.170262e-07   2.0848661e-06  1.0681153e+08
   3534000   5.4773927e-10  100364.14      100341.23      108362.31      2.601888e-06   5.171563e-07   2.0847317e-06  1.0681094e+08
   3535000   5.4789426e-10  100351.95      100326.55      109180.39      2.6018953e-06  5.1741694e-07  2.0844783e-06  1.068064e+08 
   3536000   5.4804925e-10  100367.11      100339.81      109833.75      2.6019162e-06  5.1712281e-07  2.0847933e-06  1.0681127e+08
   3537000   5.4820424e-10  100353.37      100327.42      109367.37      2.6018896e-06  5.1738167e-07  2.084508e-06   1.0680605e+08
   3538000   5.4835924e-10  100350.4       100324.55      109329.95      2.6019033e-06  5.1745714e-07  2.0844461e-06  1.0680622e+08
   3539000   5.4851423e-10  100359.49      100333.04      109538.64      2.6019074e-06  5.1727248e-07  2.0846349e-06  1.0680986e+08
   3540000   5.4866922e-10  100362.22      100336.87      109174.1       2.601881e-06   5.171893e-07   2.0846917e-06  1.0680903e+08
   3541000   5.4882421e-10  100353.92      100326.74      109778.98      2.6018834e-06  5.1736407e-07  2.0845193e-06  1.0680479e+08
   3542000   5.489792e-10   100364.56      100338.25      109500.69      2.601902e-06   5.1716161e-07  2.0847404e-06  1.0681088e+08
   3543000   5.4913419e-10  100355.98      100331.35      108928.03      2.6018992e-06  5.1733719e-07  2.084562e-06   1.0680843e+08
   3544000   5.4928918e-10  100370.27      100346.67      108599.6       2.601916e-06   5.1705704e-07  2.0848589e-06  1.0681492e+08
   3545000   5.4944417e-10  100359.72      100335.52      108789.26      2.6019011e-06  5.1726126e-07  2.0846399e-06  1.0681096e+08
   3546000   5.4959917e-10  100345         100319.2       109309         2.6019077e-06  5.1757365e-07  2.084334e-06   1.0680524e+08
   3547000   5.4975416e-10  100361.87      100334.27      109927.07      2.6019109e-06  5.1722643e-07  2.0846845e-06  1.0680973e+08
   3548000   5.4990915e-10  100380.83      100352.95      110038.82      2.6018968e-06  5.1681858e-07  2.0850782e-06  1.0681447e+08
   3549000   5.5006414e-10  100370.22      100345.21      109071.71      2.6018953e-06  5.170373e-07   2.084858e-06   1.068116e+08 
   3550000   5.5021913e-10  100382.96      100358.94      108749.6       2.6018907e-06  5.1676819e-07  2.0851225e-06  1.0681196e+08
   3551000   5.5037412e-10  100396.85      100373.54      108529.44      2.6018786e-06  5.164675e-07   2.0854111e-06  1.068164e+08 
   3552000   5.5052911e-10  100368.2       100344.73      108553.35      2.6018792e-06  5.1706322e-07  2.084816e-06   1.0680973e+08
   3553000   5.506841e-10   100362.97      100341.51      107875.03      2.6018707e-06  5.1716336e-07  2.0847073e-06  1.0680721e+08
   3554000   5.508391e-10   100348.82      100327         107984.45      2.601863e-06   5.1744959e-07  2.0844134e-06  1.0680147e+08
   3555000   5.5099409e-10  100365.54      100339.78      109315.83      2.6018815e-06  5.1712078e-07  2.0847607e-06  1.0680711e+08
   3556000   5.5114908e-10  100375.71      100349.45      109493.77      2.6018872e-06  5.1691527e-07  2.0849719e-06  1.0681121e+08
   3557000   5.5130407e-10  100360.94      100336.02      109030.29      2.6018939e-06  5.1722869e-07  2.0846652e-06  1.0680757e+08
   3558000   5.5145906e-10  100366.4       100341.09      109169.13      2.6018941e-06  5.1711549e-07  2.0847787e-06  1.0680972e+08
   3559000   5.5161405e-10  100369.67      100345.65      108738.44      2.601882e-06   5.1703549e-07  2.0848465e-06  1.0680917e+08
   3560000   5.5176904e-10  100372.22      100347.79      108876.5       2.6018691e-06  5.1696969e-07  2.0848994e-06  1.0680848e+08
   3561000   5.5192404e-10  100370.19      100344.07      109441.53      2.6018688e-06  5.1701144e-07  2.0848574e-06  1.0680716e+08
   3562000   5.5207903e-10  100366.31      100340.89      109203.3       2.6018846e-06  5.1710793e-07  2.0847766e-06  1.0680832e+08
   3563000   5.5223402e-10  100360.53      100335.98      108906.12      2.6018876e-06  5.1723098e-07  2.0846566e-06  1.0680679e+08
   3564000   5.5238901e-10  100384.06      100361.6       108230.01      2.6018792e-06  5.1673385e-07  2.0851453e-06  1.0681397e+08
   3565000   5.52544e-10    100367.52      100345.79      107968.66      2.6018758e-06  5.1707403e-07  2.0848018e-06  1.0680781e+08
   3566000   5.5269899e-10  100368.88      100346.45      108206.13      2.6018759e-06  5.1704584e-07  2.0848301e-06  1.0680778e+08
   3567000   5.5285398e-10  100363.86      100339.13      108969.03      2.6018738e-06  5.17148e-07    2.0847258e-06  1.0680394e+08
   3568000   5.5300897e-10  100362.2       100338.39      108660.23      2.6018939e-06  5.172026e-07   2.0846913e-06  1.0680735e+08
   3569000   5.5316397e-10  100364.42      100343.41      107728.64      2.6018934e-06  5.1715585e-07  2.0847375e-06  1.0680824e+08
   3570000   5.5331896e-10  100370.98      100349.56      107871.01      2.6018767e-06  5.1700302e-07  2.0848737e-06  1.0680921e+08
   3571000   5.5347395e-10  100362.14      100338.66      108550.73      2.6018838e-06  5.171937e-07   2.0846901e-06  1.0680629e+08
   3572000   5.5362894e-10  100362.5       100337.95      108910.35      2.6018867e-06  5.1718913e-07  2.0846975e-06  1.0680768e+08
   3573000   5.5378393e-10  100362.64      100337.58      109081.31      2.6018887e-06  5.1718823e-07  2.0847005e-06  1.0680845e+08
   3574000   5.5393892e-10  100358.08      100333.79      108819.41      2.6018972e-06  5.1729139e-07  2.0846058e-06  1.0680719e+08
   3575000   5.5409391e-10  100363.79      100340.66      108435.45      2.6018932e-06  5.1716891e-07  2.0847243e-06  1.0680879e+08
   3576000   5.542489e-10   100360.54      100337.46      108415.1       2.6018766e-06  5.1721974e-07  2.0846569e-06  1.0680444e+08
   3577000   5.544039e-10   100378.38      100354.98      108542.44      2.6018789e-06  5.1685149e-07  2.0850275e-06  1.0680939e+08
   3578000   5.5455889e-10  100379.68      100356.77      108376.75      2.6018889e-06  5.1683445e-07  2.0850544e-06  1.0681299e+08
   3579000   5.5471388e-10  100357.69      100335.57      108091.44      2.6018981e-06  5.1730039e-07  2.0845977e-06  1.0680906e+08
   3580000   5.5486887e-10  100354.84      100331.12      108621.96      2.6019282e-06  5.1738978e-07  2.0845384e-06  1.0681148e+08
   3581000   5.5502386e-10  100358.77      100336.38      108182.28      2.6019144e-06  5.1729436e-07  2.0846201e-06  1.0681124e+08
   3582000   5.5517885e-10  100355.11      100334.12      107710.33      2.6019023e-06  5.1735832e-07  2.084544e-06   1.0680761e+08
   3583000   5.5533384e-10  100368.81      100347.57      107807.9       2.6018837e-06  5.1705513e-07  2.0848286e-06  1.0681183e+08
   3584000   5.5548884e-10  100359.12      100335.37      108638.69      2.6018895e-06  5.1726215e-07  2.0846273e-06  1.0680955e+08
   3585000   5.5564383e-10  100345.75      100320.16      109240.21      2.6018838e-06  5.1753415e-07  2.0843496e-06  1.0680372e+08
   3586000   5.5579882e-10  100371.51      100345.98      109244.65      2.6018924e-06  5.1700772e-07  2.0848847e-06  1.0681082e+08
   3587000   5.5595381e-10  100370.3       100344.39      109371.12      2.6018947e-06  5.1703503e-07  2.0848596e-06  1.0681014e+08
   3588000   5.561088e-10   100355.37      100329.14      109462.11      2.6019049e-06  5.1735551e-07  2.0845494e-06  1.0680686e+08
   3589000   5.5626379e-10  100362.59      100337.48      109095.78      2.6019138e-06  5.1721442e-07  2.0846994e-06  1.0681282e+08
   3590000   5.5641878e-10  100343.95      100320.09      108658.68      2.6018922e-06  5.1757987e-07  2.0843123e-06  1.0680421e+08
   3591000   5.5657377e-10  100373.37      100349.19      108796.11      2.6019087e-06  5.1698541e-07  2.0849233e-06  1.0681359e+08
   3592000   5.5672877e-10  100376.94      100353.39      108586.55      2.6019052e-06  5.1690779e-07  2.0849974e-06  1.0681444e+08
   3593000   5.5688376e-10  100375.08      100350.68      108871.66      2.6018879e-06  5.1692909e-07  2.0849588e-06  1.0681242e+08
   3594000   5.5703875e-10  100355.59      100330.73      109004.47      2.601895e-06   5.1734107e-07  2.084554e-06   1.0680699e+08
   3595000   5.5719374e-10  100367.94      100344.13      108668.1       2.6018918e-06  5.1708116e-07  2.0848106e-06  1.0681077e+08
   3596000   5.5734873e-10  100356.08      100330.7       109177.21      2.6018994e-06  5.1733533e-07  2.0845641e-06  1.0680644e+08
   3597000   5.5750372e-10  100378.69      100352.61      109435.15      2.6019015e-06  5.1686776e-07  2.0850337e-06  1.0681304e+08
   3598000   5.5765871e-10  100366.47      100337.73      110315.18      2.6018947e-06  5.1711465e-07  2.08478e-06    1.0680971e+08
   3599000   5.578137e-10   100364.42      100333.7       110975.08      2.6018983e-06  5.1716082e-07  2.0847374e-06  1.0680884e+08
   3600000   5.579687e-10   100369.15      100338.09      111093.87      2.601894e-06   5.1705829e-07  2.0848357e-06  1.0681006e+08
   3601000   5.5812369e-10  100373.02      100341.93      111106.13      2.6018857e-06  5.1696969e-07  2.084916e-06   1.0681017e+08
   3602000   5.5827868e-10  100373.03      100340.71      111517.79      2.601879e-06   5.1696272e-07  2.0849163e-06  1.068089e+08 
   3603000   5.5843367e-10  100372.49      100340.5       111406.73      2.6018741e-06  5.1696904e-07  2.0849051e-06  1.0680902e+08
   3604000   5.5858866e-10  100368.17      100336.44      111316.76      2.6018775e-06  5.1706219e-07  2.0848154e-06  1.0680823e+08
   3605000   5.5874365e-10  100375.69      100343.2       111577.69      2.6018924e-06  5.1692084e-07  2.0849715e-06  1.0681142e+08
   3606000   5.5889864e-10  100358.91      100327.16      111312.89      2.6018946e-06  5.172716e-07   2.084623e-06   1.0680777e+08
   3607000   5.5905364e-10  100363.39      100332.57      111006.18      2.6018854e-06  5.1716929e-07  2.0847161e-06  1.0680936e+08
   3608000   5.5920863e-10  100367.03      100336.38      110952.2       2.6019003e-06  5.1710862e-07  2.0847916e-06  1.0681119e+08
   3609000   5.5936362e-10  100362.9       100332.56      110846.11      2.6019014e-06  5.1719552e-07  2.0847059e-06  1.0680962e+08
   3610000   5.5951861e-10  100380.62      100348.97      111304.45      2.6018875e-06  5.1681349e-07  2.085074e-06   1.0681389e+08
   3611000   5.596736e-10   100368.25      100333.53      112314.12      2.6018876e-06  5.1707065e-07  2.0848169e-06  1.0680866e+08
   3612000   5.5982859e-10  100379.55      100343.12      112900.36      2.6018952e-06  5.168434e-07   2.0850518e-06  1.0681525e+08
   3613000   5.5998358e-10  100383.16      100348.28      112381.68      2.6019073e-06  5.167807e-07   2.0851266e-06  1.0681706e+08
   3614000   5.6013857e-10  100377.69      100343.48      112154.24      2.6018908e-06  5.1687778e-07  2.085013e-06   1.0681461e+08
   3615000   5.6029357e-10  100376.85      100343.15      111983.79      2.6019145e-06  5.1691884e-07  2.0849957e-06  1.0681642e+08
   3616000   5.6044856e-10  100374.62      100339.26      112537         2.6019138e-06  5.1696439e-07  2.0849494e-06  1.0681523e+08
   3617000   5.6060355e-10  100353.98      100320.63      111840.43      2.6019001e-06  5.1737959e-07  2.0845205e-06  1.0680681e+08
   3618000   5.6075854e-10  100372.62      100340.6       111418.91      2.6018772e-06  5.1696934e-07  2.0849078e-06  1.0681129e+08
   3619000   5.6091353e-10  100363.4       100330.76      111612.83      2.6018867e-06  5.1717057e-07  2.0847162e-06  1.0681012e+08
   3620000   5.6106852e-10  100381.67      100348.35      111860.57      2.6018877e-06  5.1679198e-07  2.0850957e-06  1.0681677e+08
   3621000   5.6122351e-10  100357.43      100325.12      111501.24      2.6018929e-06  5.1730054e-07  2.0845923e-06  1.0680561e+08
   3622000   5.613785e-10   100366.47      100335.48      111067.82      2.6018949e-06  5.1711494e-07  2.08478e-06    1.0680788e+08
   3623000   5.615335e-10   100367.18      100335.03      111452.91      2.60189e-06    5.1709534e-07  2.0847947e-06  1.0680983e+08
   3624000   5.6168849e-10  100371.95      100340.3       111292.4       2.601886e-06   5.1699215e-07  2.0848938e-06  1.0680925e+08
   3625000   5.6184348e-10  100365.72      100333.88      111351.14      2.60187e-06    5.171056e-07   2.0847644e-06  1.0680514e+08
   3626000   5.6199847e-10  100364.07      100332.04      111410.2       2.601891e-06   5.1716089e-07  2.0847301e-06  1.0680948e+08
   3627000   5.6215346e-10  100348.13      100314.62      111892.69      2.6018986e-06  5.1749944e-07  2.0843991e-06  1.0680723e+08
   3628000   5.6230845e-10  100371.24      100334.6       112961.44      2.6018861e-06  5.1700701e-07  2.0848791e-06  1.0681403e+08
   3629000   5.6246344e-10  100358.78      100321.69      113100.29      2.6019039e-06  5.1728349e-07  2.0846204e-06  1.0680906e+08
   3630000   5.6261844e-10  100360.24      100321.54      113638.12      2.6019009e-06  5.1725033e-07  2.0846506e-06  1.0680876e+08
   3631000   5.6277343e-10  100365.67      100326.58      113775.62      2.6019091e-06  5.1714572e-07  2.0847634e-06  1.0681155e+08
   3632000   5.6292842e-10  100356.9       100316.45      114220.22      2.601912e-06   5.173308e-07   2.0845812e-06  1.068096e+08 
   3633000   5.6308341e-10  100369.85      100329.87      114075.54      2.601912e-06   5.1706184e-07  2.0848502e-06  1.0681432e+08
   3634000   5.632384e-10   100365.99      100324.81      114474         2.6019174e-06  5.1714729e-07  2.0847701e-06  1.0681334e+08
   3635000   5.6339339e-10  100352.37      100310.99      114529.71      2.601918e-06   5.1743086e-07  2.0844872e-06  1.0680986e+08
   3636000   5.6354838e-10  100346.34      100304.34      114728.82      2.6019196e-06  5.1755773e-07  2.0843619e-06  1.0680853e+08
   3637000   5.6370337e-10  100370.61      100330.31      114185.28      2.601913e-06   5.1704694e-07  2.084866e-06   1.0681501e+08
   3638000   5.6385837e-10  100357.75      100315.8       114722.99      2.6019015e-06  5.173026e-07   2.0845989e-06  1.0681011e+08
   3639000   5.6401336e-10  100365.75      100324.33      114555.45      2.6018884e-06  5.1712332e-07  2.0847651e-06  1.0681136e+08
   3640000   5.6416835e-10  100375.12      100334.28      114367.32      2.6018996e-06  5.1693999e-07  2.0849596e-06  1.0681539e+08
   3641000   5.6432334e-10  100369.6       100328.97      114291.8       2.6018758e-06  5.1703081e-07  2.0848449e-06  1.068102e+08 
   3642000   5.6447833e-10  100365.17      100326.68      113573.73      2.6018672e-06  5.1711421e-07  2.084753e-06   1.0680395e+08
   3643000   5.6463332e-10  100373.82      100337.21      112953.46      2.6018703e-06  5.169376e-07   2.0849327e-06  1.0680932e+08
   3644000   5.6478831e-10  100371.05      100335.47      112604.62      2.6018719e-06  5.1699679e-07  2.0848751e-06  1.0680851e+08
   3645000   5.649433e-10   100362.05      100326.54      112572.95      2.6018711e-06  5.1718299e-07  2.0846881e-06  1.0680415e+08
   3646000   5.650983e-10   100368.85      100335.1       111989.28      2.6018793e-06  5.1704999e-07  2.0848294e-06  1.0680847e+08
   3647000   5.6525329e-10  100375.75      100344.05      111310.73      2.6018799e-06  5.169072e-07   2.0849727e-06  1.068116e+08 
   3648000   5.6540828e-10  100355.21      100323.1       111430.95      2.6018947e-06  5.1734857e-07  2.0845461e-06  1.0680481e+08
   3649000   5.6556327e-10  100388.27      100354.76      111931.07      2.601883e-06   5.1665019e-07  2.0852328e-06  1.0681562e+08
   3650000   5.6571826e-10  100377.73      100343.37      112204.19      2.6018898e-06  5.1687589e-07  2.0850139e-06  1.068127e+08 
   3651000   5.6587325e-10  100358.96      100326.06      111698.42      2.6018709e-06  5.1724688e-07  2.084624e-06   1.0680476e+08
   3652000   5.6602824e-10  100366.66      100336         110957.14      2.6018556e-06  5.1707168e-07  2.0847839e-06  1.0680561e+08
   3653000   5.6618324e-10  100373.28      100341.86      111217.12      2.6018657e-06  5.1694433e-07  2.0849214e-06  1.0680773e+08
   3654000   5.6633823e-10  100394.66      100364.2       110917.99      2.6018769e-06  5.1651137e-07  2.0853655e-06  1.0681482e+08
   3655000   5.6649322e-10  100375.58      100345.05      110920.34      2.6018846e-06  5.1691544e-07  2.0849691e-06  1.068095e+08 
   3656000   5.6664821e-10  100362.56      100331.43      111109.36      2.6018988e-06  5.1720005e-07  2.0846988e-06  1.0680746e+08
   3657000   5.668032e-10   100373.68      100341.02      111632.8       2.6019055e-06  5.1697575e-07  2.0849298e-06  1.0681219e+08
   3658000   5.6695819e-10  100381.47      100347.13      112199.77      2.6018838e-06  5.1679228e-07  2.0850915e-06  1.0681415e+08
   3659000   5.6711318e-10  100362.95      100330.79      111455.48      2.6018941e-06  5.1718721e-07  2.0847069e-06  1.0680953e+08
   3660000   5.6726817e-10  100365.53      100332.98      111586.37      2.601882e-06   5.1712153e-07  2.0847605e-06  1.0680715e+08
   3661000   5.6742317e-10  100395.03      100363.38      111317.83      2.6018639e-06  5.1649066e-07  2.0853733e-06  1.0681443e+08
   3662000   5.6757816e-10  100369.43      100337.92      111243.73      2.6018623e-06  5.1702082e-07  2.0848415e-06  1.0680583e+08
   3663000   5.6773315e-10  100372.24      100342.01      110817.25      2.6018922e-06  5.1699235e-07  2.0848998e-06  1.0681051e+08
   3664000   5.6788814e-10  100371.11      100343.91      109805.13      2.6018939e-06  5.170174e-07   2.0848765e-06  1.0680962e+08
   3665000   5.6804313e-10  100375.08      100348.84      109489.59      2.6018913e-06  5.1693234e-07  2.084959e-06   1.0681161e+08
   3666000   5.6819812e-10  100363.3       100338.6       108961.12      2.6019216e-06  5.1720745e-07  2.0847142e-06  1.0681137e+08
   3667000   5.6835311e-10  100357.78      100332.77      109059.35      2.6019099e-06  5.1731038e-07  2.0845995e-06  1.0680906e+08
   3668000   5.685081e-10   100370.03      100341.27      110325.22      2.6018924e-06  5.1703843e-07  2.084854e-06   1.0681053e+08
   3669000   5.686631e-10   100373.93      100343.37      110930.3       2.6018863e-06  5.1695141e-07  2.0849349e-06  1.0681037e+08
   3670000   5.6881809e-10  100377.6       100347.18      110888.11      2.6018845e-06  5.168732e-07   2.0850113e-06  1.0681257e+08
   3671000   5.6897308e-10  100364.7       100336.51      110128.85      2.6018899e-06  5.1714669e-07  2.0847432e-06  1.0681052e+08
   3672000   5.6912807e-10  100363.37      100334.05      110506.92      2.6018674e-06  5.1715173e-07  2.0847157e-06  1.0680826e+08
   3673000   5.6928306e-10  100365.37      100333.2       111457.55      2.6018473e-06  5.1709025e-07  2.0847571e-06  1.0680603e+08
   3674000   5.6943805e-10  100384.12      100350.68      111904.13      2.6018635e-06  5.1671683e-07  2.0851467e-06  1.068089e+08 
   3675000   5.6959304e-10  100384.82      100350.43      112220.32      2.6018588e-06  5.1669767e-07  2.0851611e-06  1.0681016e+08
   3676000   5.6974804e-10  100372.13      100335.95      112807.99      2.6018685e-06  5.169709e-07   2.0848976e-06  1.068107e+08 
   3677000   5.6990303e-10  100355.43      100317.48      113381.84      2.6018898e-06  5.1733906e-07  2.0845507e-06  1.0680783e+08
   3678000   5.7005802e-10  100357.43      100319.42      113406.65      2.6018976e-06  5.1730527e-07  2.0845923e-06  1.0680781e+08
   3679000   5.7021301e-10  100365.98      100328.31      113300.66      2.6018879e-06  5.1711805e-07  2.0847699e-06  1.0680936e+08
   3680000   5.70368e-10    100367.59      100329.44      113464.85      2.6018974e-06  5.1709409e-07  2.0848033e-06  1.0681201e+08
   3681000   5.7052299e-10  100354.23      100315.7       113575.71      2.601894e-06   5.1736826e-07  2.0845257e-06  1.0680551e+08
   3682000   5.7067798e-10  100370.12      100330.4       113990.96      2.6018925e-06  5.1703663e-07  2.0848559e-06  1.0681166e+08
   3683000   5.7083297e-10  100381.37      100341.3       114118.78      2.6019192e-06  5.1682965e-07  2.0850895e-06  1.068171e+08 
   3684000   5.7098797e-10  100362.95      100321.29      114631.83      2.6019343e-06  5.1722727e-07  2.084707e-06   1.0681309e+08
   3685000   5.7114296e-10  100355.21      100315.11      114099.65      2.6019115e-06  5.1736545e-07  2.0845461e-06  1.0680934e+08
   3686000   5.7129795e-10  100363.07      100324.75      113513.65      2.6019096e-06  5.172003e-07   2.0847093e-06  1.068132e+08 
   3687000   5.7145294e-10  100358.34      100323.5       112347.61      2.6019098e-06  5.1729865e-07  2.0846112e-06  1.0681256e+08
   3688000   5.7160793e-10  100359.23      100325.79      111876.43      2.6019001e-06  5.172705e-07   2.0846296e-06  1.0680925e+08
   3689000   5.7176292e-10  100355.92      100322.97      111711.71      2.6019077e-06  5.1734684e-07  2.0845609e-06  1.0680919e+08
   3690000   5.7191791e-10  100354.21      100321.2       111729.36      2.6018963e-06  5.1737089e-07  2.0845254e-06  1.0680716e+08
   3691000   5.720729e-10   100375.53      100343.07      111567.18      2.6018742e-06  5.1690594e-07  2.0849683e-06  1.0681182e+08
   3692000   5.722279e-10   100361.7       100331.67      110740.14      2.6018849e-06  5.1720405e-07  2.0846809e-06  1.0680962e+08
   3693000   5.7238289e-10  100354.72      100324.58      110769.86      2.6018851e-06  5.1734912e-07  2.084536e-06   1.0680591e+08
   3694000   5.7253788e-10  100353.86      100325.01      110339.8       2.6018666e-06  5.1734846e-07  2.0845181e-06  1.0680343e+08
   3695000   5.7269287e-10  100371.38      100343.18      110139.64      2.6018626e-06  5.1698051e-07  2.0848821e-06  1.0680984e+08
   3696000   5.7284786e-10  100373.46      100344.29      110465.61      2.6018909e-06  5.1696566e-07  2.0849253e-06  1.0681177e+08
   3697000   5.7300285e-10  100377.99      100349.08      110383.2       2.6019001e-06  5.1688082e-07  2.0850193e-06  1.0681499e+08
   3698000   5.7315784e-10  100348.9       100321.04      110003.74      2.6019057e-06  5.1749059e-07  2.0844151e-06  1.068063e+08 
   3699000   5.7331284e-10  100377.74      100348.87      110371.32      2.6018854e-06  5.1687125e-07  2.0850142e-06  1.0681365e+08
   3700000   5.7346783e-10  100345.28      100316.67      110248.98      2.6018824e-06  5.1754265e-07  2.0843398e-06  1.0680145e+08
   3701000   5.7362282e-10  100358.76      100331.51      109810.5       2.6018894e-06  5.172695e-07   2.0846199e-06  1.068072e+08 
   3702000   5.7377781e-10  100374.05      100347.81      109485.92      2.6018834e-06  5.1694593e-07  2.0849375e-06  1.068132e+08 
   3703000   5.739328e-10   100368.28      100343.47      109001.27      2.6018953e-06  5.1707764e-07  2.0848176e-06  1.0681099e+08
   3704000   5.7408779e-10  100357.56      100333.86      108621.1       2.6019007e-06  5.1730577e-07  2.0845949e-06  1.0680678e+08
   3705000   5.7424278e-10  100363.79      100340.58      108463.8       2.6018992e-06  5.1717484e-07  2.0847244e-06  1.0681067e+08
   3706000   5.7439777e-10  100367.67      100344.72      108379.22      2.6019137e-06  5.171088e-07   2.0848049e-06  1.0681383e+08
   3707000   5.7455277e-10  100349.21      100326.53      108269.91      2.6018956e-06  5.1747402e-07  2.0844215e-06  1.0680526e+08
   3708000   5.7470776e-10  100372.48      100348.37      108771.43      2.6018889e-06  5.1698401e-07  2.0849048e-06  1.0681144e+08
   3709000   5.7486275e-10  100371.98      100349.27      108303.39      2.6018839e-06  5.1698954e-07  2.0848944e-06  1.068108e+08 
   3710000   5.7501774e-10  100373.54      100351.4       108111.83      2.6018875e-06  5.1696077e-07  2.0849268e-06  1.0681122e+08
   3711000   5.7517273e-10  100347.91      100325.58      108152.75      2.6018883e-06  5.1749372e-07  2.0843946e-06  1.0680351e+08
   3712000   5.7532772e-10  100355.92      100335.12      107647.68      2.6018982e-06  5.1733738e-07  2.0845608e-06  1.0680892e+08
   3713000   5.7548271e-10  100365.37      100345.32      107404.23      2.6018842e-06  5.1712715e-07  2.0847571e-06  1.0681033e+08
   3714000   5.756377e-10   100359.33      100337.11      108126.2       2.6018861e-06  5.1725449e-07  2.0846316e-06  1.0680729e+08
   3715000   5.757927e-10   100367.76      100344         108650.86      2.6018961e-06  5.1708928e-07  2.0848068e-06  1.0681274e+08
   3716000   5.7594769e-10  100348.9       100324.73      108767.32      2.6018872e-06  5.1747212e-07  2.084415e-06   1.0680757e+08
   3717000   5.7610268e-10  100366.62      100343.21      108529.75      2.6018999e-06  5.1711684e-07  2.0847831e-06  1.0681263e+08
   3718000   5.7625767e-10  100374.05      100350.86      108464.77      2.6018771e-06  5.169397e-07   2.0849374e-06  1.0681083e+08
   3719000   5.7641266e-10  100376.86      100353.7       108458.84      2.6018961e-06  5.1690023e-07  2.0849959e-06  1.0681356e+08
   3720000   5.7656765e-10  100349.62      100326.9       108283.61      2.6019023e-06  5.1747227e-07  2.08443e-06    1.0680732e+08
   3721000   5.7672264e-10  100360.81      100338.46      108173.31      2.6019229e-06  5.1726034e-07  2.0846625e-06  1.0681408e+08
