Job ID:        432847
Host:          daisg117
Start time:    Mon Aug 31 02:35:50 PM CEST 2026
Working dir:   /dais/fs/scratch/kshao/wd/White-Dwarf-Codes/unforced/daisslurm/daisproduction
MPI tasks:     1
CPUs/task:     12
Visible GPU:   0
LAMMPS:        /u/kshao/software/lammps-gpu-cuda12-install/bin/lmp
Input:         unforcedprod_v1.0e+07_c2.in
Currently Loaded Modulefiles:
 1) gcc/14   2) cuda/12.8   3) openmpi/5.0  
name, uuid, driver_version, memory.total [MiB]
NVIDIA H200, GPU-3aa5532f-e0d6-1e10-9bef-a1765f5115d1, 580.173.02, 143771 MiB
Preflight checks passed; launching LAMMPS.
LAMMPS (22 Jul 2025 - Update 4)
  using 1 OpenMP thread(s) per MPI task
Created orthogonal box = (0 0 0) to (2.5694819e-05 2.5694819e-05 2.5694819e-05)
  1 by 1 by 1 MPI processor grid
Created 100000 atoms
  using lattice units in orthogonal box = (0 0 0) to (2.5694819e-05 2.5694819e-05 2.5694819e-05)
  create_atoms CPU = 112.350 seconds
Created 300 atoms
  using lattice units in orthogonal box = (0 0 0) to (2.5694819e-05 2.5694819e-05 2.5694819e-05)
  create_atoms CPU = 0.661 seconds
300 atoms in group Si
100000 atoms in group H

CITE-CITE-CITE-CITE-CITE-CITE-CITE-CITE-CITE-CITE-CITE-CITE-CITE

Your simulation uses code contributions which should be cited:
- GPU package (short-range, long-range and three-body potentials): doi:10.1016/j.cpc.2010.12.021, doi:10.1016/j.cpc.2011.10.012, doi:10.1016/j.cpc.2013.08.002, doi:10.1016/j.commatsci.2014.10.068, doi:10.1016/j.cpc.2016.10.020, doi:10.3233/APC200086
The log file lists these citations in BibTeX format.

CITE-CITE-CITE-CITE-CITE-CITE-CITE-CITE-CITE-CITE-CITE-CITE-CITE


--------------------------------------------------------------------------
- Using acceleration for yukawa:
-  with 1 proc(s) per device.
-  with 1 thread(s) per proc.
-  Horizontal vector operations: ENABLED
-  Shared memory system: No
--------------------------------------------------------------------------
Device 0: NVIDIA H200, 132 CUs, 1.4e+02/1.4e+02 GB, 2 GHZ (Mixed Precision)
--------------------------------------------------------------------------

Initializing Device and compiling on process 0...Done.
Initializing Device 0 on core 0...Done.

Generated 0 of 1 mixed pair_coeff terms from geometric mixing rule
Neighbor list info ...
  update: every = 1 steps, delay = 0 steps, check = yes
  max neighbors/atom: 10000, page size: 100000
  master list distance cutoff = 4.6290089e-06
  ghost atom cutoff = 4.6290089e-06
  binsize = 2.3145045e-06, bins = 12 12 12
  1 neighbor lists, perpetual/occasional/extra = 1 0 0
  (1) pair yukawa/gpu, perpetual
      attributes: full, newton on
      pair build: full/bin/atomonly
      stencil: full/bin/3d
      bin: standard
Setting up Verlet run ...
  Unit style    : cgs
  Current step  : 0
  Time step     : 6.18303840083871e-17
Per MPI rank memory allocation (min/avg/max) = 1085 | 1085 | 1085 Mbytes
   Step          Time           Temp         c_tempH        c_tempSi        TotEng         PotEng         KinEng         Press           v_k0           v_dt        v_collfreq       v_ccs     
         0   0              100000         100011         96653.987      2.5985855e-06  5.214177e-07   2.0771678e-06  1.0662735e+08  1080144.8      6.1830384e-17  5.9291336e+09  6.23584e-17  
      1000   6.1830384e-14  100267.45      100278.49      96910.424      2.6022741e-06  5.1955101e-07  2.0827231e-06  1.0680624e+08  1080144.8      6.1830384e-17  5.9291336e+09  6.23584e-17  
      2000   1.2366077e-13  99691.158      99703.275      95972.371      2.5896341e-06  5.1888139e-07  2.0707527e-06  1.0631641e+08  1080144.8      6.1830384e-17  5.9291336e+09  6.23584e-17  
Loop time of 9.52479 on 1 procs for 2000 steps with 100300 atoms

100.0% CPU use with 1 MPI tasks x 1 OpenMP threads

MPI task timing breakdown:
Section |  min time  |  avg time  |  max time  |%varavg| %total
---------------------------------------------------------------
Pair    | 2.8356     | 2.8356     | 2.8356     |   0.0 | 29.77
Neigh   | 3.2007     | 3.2007     | 3.2007     |   0.0 | 33.60
Comm    | 1.0265     | 1.0265     | 1.0265     |   0.0 | 10.78
Output  | 0.0074807  | 0.0074807  | 0.0074807  |   0.0 |  0.08
Modify  | 1.7822     | 1.7822     | 1.7822     |   0.0 | 18.71
Other   |            | 0.6723     |            |       |  7.06

Nlocal:         100300 ave      100300 max      100300 min
Histogram: 1 0 0 0 0 0 0 0 0 0
Nghost:         151778 ave      151778 max      151778 min
Histogram: 1 0 0 0 0 0 0 0 0 0
Neighs:              0 ave           0 max           0 min
Histogram: 1 0 0 0 0 0 0 0 0 0
FullNghs:  2.46365e+08 ave 2.46365e+08 max 2.46365e+08 min
Histogram: 1 0 0 0 0 0 0 0 0 0

Total # of neighbors = 2.4636466e+08
Ave neighs/atom = 2456.2778
Neighbor list builds = 1
Dangerous builds = 0


---------------------------------------------------------------------
      Device Time Info (average): 
---------------------------------------------------------------------
Data Transfer:   0.2756 s.
Neighbor copy:   0.3035 s.
Neighbor unpack: 0.0000 s.
Force calc:      2.0237 s.
Device Overhead: 0.0717 s.
CPU Cast/Pack:   0.8435 s.
CPU Driver_Time: 0.0289 s.
CPU Idle_Time:   1.7821 s.
Average split:   1.0000.
Max Mem / Proc:  1239.66 MB.
Prefetch mode:   None.
Vector width:    32.
Lanes / atom:    4.
Pair block:      256.
Neigh block:     128.
Neigh mode:      Host.
---------------------------------------------------------------------


--------------------------------------------------------------------------
- Using acceleration for yukawa:
-  with 1 proc(s) per device.
-  with 1 thread(s) per proc.
-  Horizontal vector operations: ENABLED
-  Shared memory system: No
--------------------------------------------------------------------------
Device 0: NVIDIA H200, 132 CUs, 1.4e+02/1.4e+02 GB, 2 GHZ (Mixed Precision)
--------------------------------------------------------------------------

Initializing Device and compiling on process 0...Done.
Initializing Device 0 on core 0...Done.

Generated 0 of 1 mixed pair_coeff terms from geometric mixing rule
Setting up Verlet run ...
  Unit style    : cgs
  Current step  : 2000
  Time step     : 6.18303840083871e-17
Per MPI rank memory allocation (min/avg/max) = 1090 | 1090 | 1090 Mbytes
   Step          Time           Temp         c_tempH        c_tempSi        TotEng         PotEng         KinEng         Press     
      2000   1.2366077e-13  133682.19      99703.275      11498202       3.2956848e-06  5.1888139e-07  2.7768035e-06  1.3406289e+08
      3000   1.8549115e-13  133703.55      99734.681      11494863       3.295661e-06   5.184139e-07   2.7772471e-06  1.3406353e+08
      4000   2.4732154e-13  133715.92      99765.076      11488847       3.2956492e-06  5.1814518e-07  2.7775041e-06  1.3406249e+08
      5000   3.0915192e-13  133737.86      99791.888      11487239       3.2956391e-06  5.176793e-07   2.7779598e-06  1.3406655e+08
      6000   3.709823e-13   133731.16      99812.293      11478166       3.2956363e-06  5.1781574e-07  2.7778205e-06  1.3406128e+08
      7000   4.3281269e-13  133748.2       99842.772      11473689       3.2956351e-06  5.1746065e-07  2.7781745e-06  1.3406749e+08
      8000   4.9464307e-13  133750.37      99855.967      11470006       3.2956288e-06  5.1740911e-07  2.7782197e-06  1.3406843e+08
      9000   5.5647346e-13  133752.93      99863.828      11468233       3.2956363e-06  5.1736355e-07  2.7782727e-06  1.3407101e+08
     10000   6.1830384e-13  133749.86      99873.178      11464079       3.2956399e-06  5.174308e-07   2.7782091e-06  1.3407125e+08
     11000   6.8013422e-13  133747.11      99875.028      11462537       3.2956551e-06  5.1750319e-07  2.7781519e-06  1.3407201e+08
     12000   7.4196461e-13  133744.66      99885.936      11458068       3.2956451e-06  5.17544e-07    2.7781011e-06  1.3406932e+08
     13000   8.0379499e-13  133761.16      99906.225      11456817       3.2956429e-06  5.1719905e-07  2.7784438e-06  1.3407415e+08
     14000   8.6562538e-13  133742.8       99901.879      11452111       3.2956313e-06  5.1756885e-07  2.7780624e-06  1.340661e+08 
     15000   9.2745576e-13  133741.26      99922.085      11444836       3.2956471e-06  5.1761672e-07  2.7780304e-06  1.3406651e+08
     16000   9.8928614e-13  133762.41      99948.875      11442972       3.2956476e-06  5.1717778e-07  2.7784698e-06  1.3407416e+08
     17000   1.0511165e-12  133746.04      99940.374      11440324       3.2956395e-06  5.1750981e-07  2.7781297e-06  1.3406724e+08
     18000   1.1129469e-12  133749.1       99958.513      11435283       3.2956254e-06  5.1743212e-07  2.7781933e-06  1.3406866e+08
     19000   1.1747773e-12  133737.28      99961.101      11430452       3.2956333e-06  5.1768554e-07  2.7779477e-06  1.3406519e+08
     20000   1.2366077e-12  133742.69      99972.301      11428521       3.2956279e-06  5.1756777e-07  2.7780601e-06  1.3406612e+08
     21000   1.2984381e-12  133758.42      100006.11      11422491       3.2956266e-06  5.1723973e-07  2.7783869e-06  1.3407084e+08
     22000   1.3602684e-12  133763.88      100026.06      11417652       3.2956159e-06  5.1711558e-07  2.7785003e-06  1.3407193e+08
     23000   1.4220988e-12  133758.43      100034.19      11413102       3.2956127e-06  5.1722575e-07  2.778387e-06   1.3406964e+08
     24000   1.4839292e-12  133766.54      100067.81      11404580       3.2956235e-06  5.1706792e-07  2.7785556e-06  1.3407336e+08
     25000   1.5457596e-12  133762.34      100069.76      11402521       3.2956381e-06  5.1716973e-07  2.7784684e-06  1.3407252e+08
     26000   1.60759e-12    133752.29      100066.98      11400078       3.2956496e-06  5.1739e-07     2.7782596e-06  1.3406966e+08
     27000   1.6694204e-12  133747.34      100081.04      11393712       3.2956573e-06  5.175006e-07   2.7781567e-06  1.3406981e+08
     28000   1.7312508e-12  133747.54      100091.11      11390411       3.2956564e-06  5.1749561e-07  2.7781608e-06  1.3407071e+08
     29000   1.7930811e-12  133749.04      100101.79      11387345       3.2956596e-06  5.1746754e-07  2.7781921e-06  1.3407157e+08
     30000   1.8549115e-12  133735.4       100095.23      11384964       3.2956635e-06  5.1775482e-07  2.7779087e-06  1.3406685e+08
     31000   1.9167419e-12  133724.85      100092.78      11382243       3.2956691e-06  5.179795e-07   2.7776896e-06  1.3406409e+08
     32000   1.9785723e-12  133726.31      100108.86      11377356       3.2956551e-06  5.179352e-07   2.7777199e-06  1.3406471e+08
     33000   2.0404027e-12  133736.08      100130.97      11373239       3.2956539e-06  5.1773114e-07  2.7779228e-06  1.3406799e+08
     34000   2.1022331e-12  133735.53      100141.21      11369631       3.295657e-06   5.1774555e-07  2.7779115e-06  1.340669e+08 
     35000   2.1640634e-12  133743.17      100168.41      11363094       3.2956554e-06  5.1758533e-07  2.77807e-06    1.3406826e+08
     36000   2.2258938e-12  133754.06      100199.61      11356313       3.2956389e-06  5.173426e-07   2.7782963e-06  1.3406914e+08
     37000   2.2877242e-12  133770.78      100234.03      11350410       3.2956489e-06  5.1700523e-07  2.7786437e-06  1.34076e+08  
     38000   2.3495546e-12  133759.26      100237.58      11345357       3.2956338e-06  5.172295e-07   2.7784043e-06  1.3407113e+08
     39000   2.411385e-12   133758.16      100248.31      11341401       3.2956202e-06  5.1723884e-07  2.7783814e-06  1.3407024e+08
     40000   2.4732154e-12  133772.23      100277.13      11336481       3.2956274e-06  5.169538e-07   2.7786736e-06  1.3407535e+08
     41000   2.5350457e-12  133757.14      100281.7       11329893       3.2956322e-06  5.1727196e-07  2.7783603e-06  1.3406821e+08
     42000   2.5968761e-12  133774.77      100307.48      11327184       3.2956255e-06  5.1689899e-07  2.7787265e-06  1.3407356e+08
     43000   2.6587065e-12  133769.34      100318.05      11321827       3.2956243e-06  5.1701066e-07  2.7786136e-06  1.3407152e+08
     44000   2.7205369e-12  133756.21      100312.85      11319164       3.2956353e-06  5.1729424e-07  2.778341e-06   1.340696e+08 
     45000   2.7823673e-12  133758.07      100324.1       11316024       3.2956402e-06  5.1726064e-07  2.7783796e-06  1.3407284e+08
     46000   2.8441977e-12  133742.73      100333.12      11307861       3.2956332e-06  5.1757227e-07  2.7780609e-06  1.340672e+08 
     47000   2.906028e-12   133748.38      100353.53      11302929       3.2956578e-06  5.1747951e-07  2.7781783e-06  1.3407144e+08
     48000   2.9678584e-12  133752.34      100380.34      11295291       3.2956658e-06  5.1740534e-07  2.7782605e-06  1.3407378e+08
     49000   3.0296888e-12  133745.45      100383.6       11291889       3.2956785e-06  5.1756115e-07  2.7781174e-06  1.3407335e+08
     50000   3.0915192e-12  133737.86      100395.85      11285247       3.2956578e-06  5.1769796e-07  2.7779598e-06  1.3407079e+08
     51000   3.1533496e-12  133733.96      100405.39      11280747       3.2956514e-06  5.1777267e-07  2.7778788e-06  1.3406998e+08
     52000   3.21518e-12    133736.17      100417.24      11277530       3.2956557e-06  5.177309e-07   2.7779248e-06  1.3407141e+08
     53000   3.2770104e-12  133725.58      100423.18      11271989       3.2956648e-06  5.1796009e-07  2.7777048e-06  1.3406762e+08
     54000   3.3388407e-12  133720.39      100445.32      11262844       3.2956697e-06  5.1807277e-07  2.777597e-06   1.3406518e+08
     55000   3.4006711e-12  133733.8       100473.33      11257973       3.2956577e-06  5.1778224e-07  2.7778755e-06  1.3406875e+08
     56000   3.4625015e-12  133731.08      100486.65      11252605       3.2956558e-06  5.1783687e-07  2.777819e-06   1.340667e+08 
     57000   3.5243319e-12  133740.65      100517.57      11245475       3.2956497e-06  5.1763197e-07  2.7780177e-06  1.3407028e+08
     58000   3.5861623e-12  133722.99      100510.12      11242042       3.2956547e-06  5.1800381e-07  2.7776509e-06  1.3406365e+08
     59000   3.6479927e-12  133746.82      100539.04      11240366       3.2956442e-06  5.1749819e-07  2.778146e-06   1.3407184e+08
     60000   3.709823e-12   133733.34      100538.26      11236102       3.2956408e-06  5.1777498e-07  2.7778658e-06  1.3406591e+08
     61000   3.7716534e-12  133734.09      100558.35      11229635       3.2956449e-06  5.1776347e-07  2.7778815e-06  1.3406665e+08
     62000   3.8334838e-12  133733.87      100564.5       11227507       3.2956422e-06  5.1776516e-07  2.777877e-06   1.3406646e+08
     63000   3.8953142e-12  133745.35      100583.76      11224913       3.2956297e-06  5.1751435e-07  2.7781153e-06  1.3406994e+08
     64000   3.9571446e-12  133737.56      100585.5       11221721       3.2956284e-06  5.1767473e-07  2.7779536e-06  1.340664e+08 
     65000   4.018975e-12   133743.49      100590.86      11221916       3.295639e-06   5.1756222e-07  2.7780768e-06  1.3406849e+08
     66000   4.0808053e-12  133750.59      100605.05      11219552       3.2956383e-06  5.1741417e-07  2.7782242e-06  1.3407063e+08
     67000   4.1426357e-12  133733.79      100604.54      11214086       3.2956373e-06  5.177621e-07   2.7778752e-06  1.3406473e+08
     68000   4.2044661e-12  133750.37      100636.9       11208827       3.2956577e-06  5.1743794e-07  2.7782197e-06  1.3407336e+08
     69000   4.2662965e-12  133744.85      100641.99      11205272       3.2956666e-06  5.1756165e-07  2.7781049e-06  1.3407209e+08
     70000   4.3281269e-12  133746.23      100651.85      11202438       3.2956766e-06  5.1754293e-07  2.7781336e-06  1.3407429e+08
     71000   4.3899573e-12  133733.75      100647.31      11199768       3.2956826e-06  5.1780827e-07  2.7778744e-06  1.3407093e+08
     72000   4.4517876e-12  133737.79      100655.59      11198355       3.2956778e-06  5.1771955e-07  2.7779583e-06  1.3407261e+08
     73000   4.513618e-12   133735.88      100669.62      11193021       3.295679e-06   5.1776038e-07  2.7779186e-06  1.3407155e+08
     74000   4.5754484e-12  133749.1       100721.38      11180148       3.2956621e-06  5.1746877e-07  2.7781934e-06  1.3407523e+08
     75000   4.6372788e-12  133750.48      100727.98      11178402       3.2956574e-06  5.1743557e-07  2.7782219e-06  1.3407482e+08
     76000   4.6991092e-12  133737.6       100738.25      11170646       3.2956524e-06  5.1769803e-07  2.7779544e-06  1.3406943e+08
     77000   4.7609396e-12  133738.39      100755.56      11165121       3.2956571e-06  5.1768639e-07  2.7779707e-06  1.3406947e+08
     78000   4.82277e-12    133744.13      100762.88      11164599       3.295663e-06   5.17573e-07    2.77809e-06    1.3407114e+08
     79000   4.8846003e-12  133749.37      100783.01      11159627       3.2956633e-06  5.1746432e-07  2.778199e-06   1.3407194e+08
     80000   4.9464307e-12  133761.85      100811.09      11154422       3.2956671e-06  5.1720887e-07  2.7784582e-06  1.3407672e+08
     81000   5.0082611e-12  133747.34      100815.65      11148028       3.2956652e-06  5.1750842e-07  2.7781568e-06  1.3407176e+08
     82000   5.0700915e-12  133735.97      100823.62      11141546       3.2956646e-06  5.1774411e-07  2.7779205e-06  1.3406879e+08
     83000   5.1319219e-12  133732.36      100840.66      11134637       3.2956656e-06  5.1782013e-07  2.7778455e-06  1.3406868e+08
     84000   5.1937523e-12  133738.66      100863.13      11129239       3.2956695e-06  5.1769297e-07  2.7779765e-06  1.3407177e+08
     85000   5.2555826e-12  133737.62      100880.9       11122945       3.2956611e-06  5.1770634e-07  2.7779547e-06  1.3407045e+08
     86000   5.317413e-12   133745.67      100905.36      11117464       3.2956514e-06  5.1752945e-07  2.778122e-06   1.3407243e+08
     87000   5.3792434e-12  133748.71      100920.79      11113322       3.295647e-06   5.174619e-07   2.7781851e-06  1.3407288e+08
     88000   5.4410738e-12  133742.14      100927.62      11108833       3.2956307e-06  5.1758212e-07  2.7780486e-06  1.340681e+08 
     89000   5.5029042e-12  133744.81      100939.97      11105601       3.2956327e-06  5.1752856e-07  2.7781042e-06  1.3406756e+08
     90000   5.5647346e-12  133755.59      100963.58      11101319       3.2956283e-06  5.1730026e-07  2.778328e-06   1.3406991e+08
     91000   5.6265649e-12  133769.94      100997.45      11094805       3.2956312e-06  5.1700516e-07  2.7786261e-06  1.3407544e+08
     92000   5.6883953e-12  133757.98      100989.71      11093384       3.2956273e-06  5.1724962e-07  2.7783777e-06  1.3406977e+08
     93000   5.7502257e-12  133751.69      101003.23      11086750       3.2956465e-06  5.1739952e-07  2.778247e-06   1.3406806e+08
     94000   5.8120561e-12  133765.78      101029.31      11082755       3.2956492e-06  5.171095e-07   2.7785398e-06  1.3407293e+08
     95000   5.8738865e-12  133773.09      101056.39      11076150       3.2956351e-06  5.1694352e-07  2.7786916e-06  1.340747e+08 
     96000   5.9357169e-12  133765.52      101075.13      11067344       3.2956243e-06  5.1709003e-07  2.7785343e-06  1.3407204e+08
     97000   5.9975472e-12  133746         101090.96      11055502       3.295633e-06   5.175041e-07   2.7781289e-06  1.3406657e+08
     98000   6.0593776e-12  133741.78      101109.58      11047860       3.2956258e-06  5.175845e-07   2.7780413e-06  1.3406546e+08
     99000   6.121208e-12   133748.86      101127.38      11044281       3.2956171e-06  5.1742883e-07  2.7781883e-06  1.3406787e+08
    100000   6.1830384e-12  133743.13      101131.16      11041093       3.2956206e-06  5.1755142e-07  2.7780692e-06  1.3406564e+08
    101000   6.2448688e-12  133744.51      101142.48      11037772       3.2956186e-06  5.1752058e-07  2.778098e-06   1.3406481e+08
    102000   6.3066992e-12  133739.69      101148.84      11034026       3.2956131e-06  5.1761538e-07  2.7779977e-06  1.3406174e+08
    103000   6.3685296e-12  133750.35      101167.2       11031463       3.295616e-06   5.1739666e-07  2.7782193e-06  1.3406565e+08
    104000   6.4303599e-12  133762.62      101199.72      11024704       3.2956174e-06  5.1714336e-07  2.7784741e-06  1.3407005e+08
    105000   6.4921903e-12  133748.54      101200.8       11019619       3.2956146e-06  5.1743302e-07  2.7781816e-06  1.3406569e+08
    106000   6.5540207e-12  133746.08      101206.73      11016812       3.2956136e-06  5.1748297e-07  2.7781306e-06  1.3406629e+08
    107000   6.6158511e-12  133743.65      101212.93      11013920       3.2956114e-06  5.1753138e-07  2.77808e-06    1.3406472e+08
    108000   6.6776815e-12  133748.95      101230.14      11009944       3.2956218e-06  5.1743161e-07  2.7781901e-06  1.3406737e+08
    109000   6.7395119e-12  133758.19      101245.22      11008002       3.2956166e-06  5.172345e-07   2.7783821e-06  1.3407017e+08
    110000   6.8013422e-12  133753.8       101266.04      10999564       3.2956154e-06  5.1732446e-07  2.7782909e-06  1.3406897e+08
    111000   6.8631726e-12  133754         101279.45      10995149       3.2956291e-06  5.1733394e-07  2.7782951e-06  1.3407039e+08
    112000   6.925003e-12   133760.06      101299.3       10990540       3.2956272e-06  5.1720621e-07  2.778421e-06   1.3407306e+08
    113000   6.9868334e-12  133751.14      101306.79      10985045       3.2956266e-06  5.17391e-07    2.7782356e-06  1.3407003e+08
    114000   7.0486638e-12  133749.42      101316.11      10981349       3.2956293e-06  5.1742928e-07  2.7782e-06     1.3406966e+08
    115000   7.1104942e-12  133733.43      101315.8       10976088       3.2956191e-06  5.1775131e-07  2.7778678e-06  1.3406202e+08
    116000   7.1723245e-12  133752.36      101342.49      10973512       3.2956125e-06  5.1735156e-07  2.778261e-06   1.3406764e+08
    117000   7.2341549e-12  133744.15      101351.69      10967685       3.2956093e-06  5.175188e-07   2.7780905e-06  1.3406273e+08
    118000   7.2959853e-12  133761.17      101379.13      10964215       3.2956106e-06  5.1716661e-07  2.778444e-06   1.3406802e+08
    119000   7.3578157e-12  133754.32      101390.19      10958219       3.2956072e-06  5.1730547e-07  2.7783017e-06  1.3406508e+08
    120000   7.4196461e-12  133749.42      101393.19      10955572       3.2956014e-06  5.1740141e-07  2.7782e-06     1.3406347e+08
    121000   7.4814765e-12  133756.96      101422.86      10948177       3.2956034e-06  5.1724673e-07  2.7783566e-06  1.3406788e+08
    122000   7.5433068e-12  133753.21      101427.58      10945341       3.2956005e-06  5.1732183e-07  2.7782787e-06  1.3406708e+08
    123000   7.6051372e-12  133744.5       101429.51      10941775       3.2956235e-06  5.1752572e-07  2.7780978e-06  1.3406637e+08
    124000   7.6669676e-12  133745.44      101436.63      10939705       3.2956288e-06  5.1751163e-07  2.7781172e-06  1.3406798e+08
    125000   7.728798e-12   133753.09      101452.78      10936873       3.2956467e-06  5.1737044e-07  2.7782762e-06  1.3407293e+08
    126000   7.7906284e-12  133732.95      101444.15      10933003       3.2956539e-06  5.1779611e-07  2.7778578e-06  1.3406595e+08
    127000   7.8524588e-12  133746.81      101478.03      10926320       3.2956466e-06  5.175009e-07   2.7781457e-06  1.3407083e+08
    128000   7.9142892e-12  133745.65      101489.7       10922027       3.2956477e-06  5.1752613e-07  2.7781215e-06  1.3407079e+08
    129000   7.9761195e-12  133743.69      101501.51      10917424       3.2956361e-06  5.1755511e-07  2.778081e-06   1.3406974e+08
    130000   8.0379499e-12  133738.9       101508.95      10913326       3.2956397e-06  5.1765829e-07  2.7779814e-06  1.340674e+08 
    131000   8.0997803e-12  133748.05      101530.92      10909048       3.2956358e-06  5.1746431e-07  2.7781715e-06  1.3406895e+08
    132000   8.1616107e-12  133748.58      101537.03      10907183       3.2956278e-06  5.1744523e-07  2.7781825e-06  1.340674e+08 
    133000   8.2234411e-12  133752.07      101547.47      10904859       3.2956266e-06  5.1737173e-07  2.7782549e-06  1.3406918e+08
    134000   8.2852715e-12  133764.83      101566.28      10902852       3.2956249e-06  5.1710484e-07  2.7785201e-06  1.3407377e+08
    135000   8.3471018e-12  133752.3       101571.23      10896992       3.2956252e-06  5.1736542e-07  2.7782598e-06  1.3406779e+08
    136000   8.4089322e-12  133758.98      101606.35      10887487       3.2956186e-06  5.172201e-07   2.7783985e-06  1.3406849e+08
    137000   8.4707626e-12  133753.83      101609.13      10884828       3.2956192e-06  5.1732771e-07  2.7782915e-06  1.3406621e+08
    138000   8.532593e-12   133755.71      101626.02      10879812       3.2956197e-06  5.1728919e-07  2.7783306e-06  1.3406833e+08
    139000   8.5944234e-12  133741.32      101634.68      10872088       3.2956233e-06  5.1759176e-07  2.7780316e-06  1.3406376e+08
    140000   8.6562538e-12  133752.11      101658.29      10867812       3.295627e-06   5.1737118e-07  2.7782558e-06  1.340689e+08 
    141000   8.7180841e-12  133750.11      101672         10862555       3.2956301e-06  5.1741591e-07  2.7782142e-06  1.3406903e+08
    142000   8.7799145e-12  133746.68      101677.86      10859444       3.2956375e-06  5.1749445e-07  2.778143e-06   1.3406781e+08
    143000   8.8417449e-12  133757.37      101688.01      10859636       3.2956341e-06  5.1726918e-07  2.778365e-06   1.3407039e+08
    144000   8.9035753e-12  133755.93      101700.53      10854968       3.2956371e-06  5.1730189e-07  2.7783352e-06  1.3406961e+08
    145000   8.9654057e-12  133763.64      101721.17      10850652       3.2956352e-06  5.171398e-07   2.7784954e-06  1.3407339e+08
    146000   9.0272361e-12  133752.09      101722.33      10846387       3.2956355e-06  5.1738009e-07  2.7782554e-06  1.3407026e+08
    147000   9.0890664e-12  133741.25      101727.63      10840981       3.2956401e-06  5.1760983e-07  2.7780303e-06  1.3406758e+08
    148000   9.1508968e-12  133761.25      101764.65      10835304       3.2956438e-06  5.1719816e-07  2.7784456e-06  1.3407597e+08
    149000   9.2127272e-12  133741.38      101757.24      10831117       3.2956429e-06  5.1761e-07     2.7780329e-06  1.3406828e+08
    150000   9.2745576e-12  133726.12      101771.73      10821153       3.295647e-06   5.1793101e-07  2.777716e-06   1.3406352e+08
    151000   9.336388e-12   133718.41      101781.29      10815370       3.2956286e-06  5.1807279e-07  2.7775558e-06  1.3405997e+08
    152000   9.3982184e-12  133730.6       101809.33      10810081       3.2956263e-06  5.178173e-07   2.777809e-06   1.3406426e+08
    153000   9.4600488e-12  133744.7       101834.51      10806391       3.2956241e-06  5.1752226e-07  2.7781019e-06  1.3406796e+08
    154000   9.5218791e-12  133747.85      101851.3       10801831       3.2956221e-06  5.1745481e-07  2.7781673e-06  1.3406655e+08
    155000   9.5837095e-12  133752.16      101865.91      10798393       3.295621e-06   5.1736409e-07  2.7782569e-06  1.3406748e+08
    156000   9.6455399e-12  133753.93      101887.44      10791783       3.2956216e-06  5.1732799e-07  2.7782936e-06  1.3406864e+08
    157000   9.7073703e-12  133744.86      101885.62      10789349       3.2956084e-06  5.175033e-07   2.7781051e-06  1.3406481e+08
    158000   9.7692007e-12  133752.22      101915.27      10781901       3.2956214e-06  5.1736329e-07  2.7782581e-06  1.3406966e+08
    159000   9.8310311e-12  133731.39      101911.99      10776013       3.2956352e-06  5.1780974e-07  2.7778254e-06  1.3406415e+08
    160000   9.8928614e-12  133714.9       101915.03      10769465       3.2956467e-06  5.181638e-07   2.7774829e-06  1.3406006e+08
    161000   9.9546918e-12  133728.39      101951.91      10761656       3.2956348e-06  5.1787171e-07  2.7777631e-06  1.340641e+08 
    162000   1.0016522e-11  133746.04      101975.62      10759647       3.2956409e-06  5.175112e-07   2.7781297e-06  1.3407027e+08
    163000   1.0078353e-11  133733.87      101995.99      10748751       3.2956492e-06  5.1777235e-07  2.7778769e-06  1.3406537e+08
    164000   1.0140183e-11  133750.14      102023         10745176       3.2956489e-06  5.1743391e-07  2.778215e-06   1.3407198e+08
    165000   1.0202013e-11  133727.27      102023.61      10737299       3.2956398e-06  5.1789998e-07  2.7777399e-06  1.3406276e+08
    166000   1.0263844e-11  133741.24      102045.17      10734773       3.2956291e-06  5.175992e-07   2.7780299e-06  1.3406729e+08
    167000   1.0325674e-11  133738.3       102056.73      10729920       3.295634e-06   5.1766518e-07  2.7779688e-06  1.3406524e+08
    168000   1.0387505e-11  133752.1       102089.74      10723512       3.2956283e-06  5.1737273e-07  2.7782555e-06  1.3406906e+08
    169000   1.0449335e-11  133756.4       102109.87      10718224       3.2956197e-06  5.1727475e-07  2.778345e-06   1.3406961e+08
    170000   1.0511165e-11  133748.44      102120.61      10711959       3.295633e-06   5.1745343e-07  2.7781796e-06  1.340679e+08 
    171000   1.0572996e-11  133744.69      102133.39      10706427       3.295628e-06   5.1752638e-07  2.7781016e-06  1.3406662e+08
    172000   1.0634826e-11  133750.16      102151.03      10702361       3.2956257e-06  5.1741057e-07  2.7782152e-06  1.340683e+08 
    173000   1.0696656e-11  133744.36      102160.91      10697113       3.2956302e-06  5.1753548e-07  2.7780947e-06  1.3406669e+08
    174000   1.0758487e-11  133742.4       102176.69      10691177       3.2956463e-06  5.1759227e-07  2.778054e-06   1.3406761e+08
    175000   1.0820317e-11  133734.13      102194.17      10682559       3.2956313e-06  5.1774895e-07  2.7778824e-06  1.3406455e+08
    176000   1.0882148e-11  133730.78      102212.56      10675283       3.2956351e-06  5.178225e-07   2.7778126e-06  1.3406409e+08
    177000   1.0943978e-11  133733.67      102229.21      10670683       3.2956305e-06  5.1775785e-07  2.7778727e-06  1.3406425e+08
    178000   1.1005808e-11  133728.49      102234.3       10667245       3.2956218e-06  5.1785665e-07  2.7777652e-06  1.3406095e+08
    179000   1.1067639e-11  133745.21      102260.82      10663983       3.2956343e-06  5.1752182e-07  2.7781124e-06  1.3406794e+08
    180000   1.1129469e-11  133732.56      102271.92      10656029       3.295647e-06   5.1779733e-07  2.7778497e-06  1.3406313e+08
    181000   1.11913e-11    133751.44      102303.42      10651825       3.2956546e-06  5.1741285e-07  2.7782418e-06  1.3407011e+08
    182000   1.125313e-11   133753.66      102322.09      10646327       3.295651e-06   5.173631e-07   2.7782879e-06  1.340713e+08 
    183000   1.131496e-11   133746.26      102337.57      10638666       3.2956567e-06  5.1752243e-07  2.7781343e-06  1.3407114e+08
    184000   1.1376791e-11  133746.14      102352.4       10633667       3.2956756e-06  5.1754382e-07  2.7781317e-06  1.3407537e+08
    185000   1.1438621e-11  133726.88      102363.58      10623464       3.2956846e-06  5.1795298e-07  2.7777316e-06  1.3407017e+08
    186000   1.1500451e-11  133741.94      102399.61      10616467       3.29567e-06    5.1762549e-07  2.7780445e-06  1.3407429e+08
    187000   1.1562282e-11  133740.42      102420.37      10609015       3.2956614e-06  5.1764848e-07  2.7780129e-06  1.3407118e+08
    188000   1.1624112e-11  133750.8       102438.21      10606531       3.2956806e-06  5.1745197e-07  2.7782286e-06  1.3407516e+08
    189000   1.1685943e-11  133751.46      102448.82      10603205       3.2956598e-06  5.1741747e-07  2.7782423e-06  1.3407318e+08
    190000   1.1747773e-11  133752.36      102461.63      10599221       3.295658e-06   5.1739714e-07  2.7782609e-06  1.340731e+08 
    191000   1.1809603e-11  133744.43      102472.85      10592811       3.29565e-06    5.1755362e-07  2.7780963e-06  1.3406932e+08
    192000   1.1871434e-11  133754.15      102496.43      10588186       3.2956446e-06  5.1734643e-07  2.7782982e-06  1.3407272e+08
    193000   1.1933264e-11  133732.29      102487.92      10583698       3.2956419e-06  5.1779781e-07  2.7778441e-06  1.3406413e+08
    194000   1.1995094e-11  133732.57      102511.11      10576033       3.2956472e-06  5.1779739e-07  2.7778499e-06  1.3406463e+08
    195000   1.2056925e-11  133745.28      102540.21      10570567       3.2956523e-06  5.1753842e-07  2.7781139e-06  1.3406926e+08
    196000   1.2118755e-11  133746.72      102547.22      10568703       3.2956475e-06  5.1750373e-07  2.7781438e-06  1.3406879e+08
    197000   1.2180586e-11  133761.58      102570.66      10565853       3.29564e-06    5.1718747e-07  2.7784526e-06  1.3407272e+08
    198000   1.2242416e-11  133768.15      102591.72      10561009       3.2956387e-06  5.1704978e-07  2.7785889e-06  1.3407431e+08
    199000   1.2304246e-11  133747.53      102592.98      10553674       3.2956391e-06  5.1747834e-07  2.7781607e-06  1.3406591e+08
    200000   1.2366077e-11  133758.78      102615.82      10549809       3.2956473e-06  5.1725289e-07  2.7783944e-06  1.3407127e+08
    201000   1.2427907e-11  133759.81      102630.74      10545161       3.2956532e-06  5.1723757e-07  2.7784157e-06  1.3407256e+08
    202000   1.2489738e-11  133748.46      102627.05      10542587       3.29565e-06    5.1747015e-07  2.7781799e-06  1.3406911e+08
    203000   1.2551568e-11  133738.12      102648.63      10531903       3.295658e-06   5.1769291e-07  2.7779651e-06  1.3406795e+08
    204000   1.2613398e-11  133729.64      102664.51      10523747       3.2956507e-06  5.1786179e-07  2.7777889e-06  1.3406456e+08
    205000   1.2675229e-11  133739.96      102683.73      10520781       3.2956525e-06  5.176491e-07   2.7780034e-06  1.3406818e+08
    206000   1.2737059e-11  133741.7       102697.56      10516741       3.2956655e-06  5.1762598e-07  2.7780395e-06  1.3407017e+08
    207000   1.2798889e-11  133737.92      102705.78      10512726       3.2956576e-06  5.1769656e-07  2.7779611e-06  1.3406865e+08
    208000   1.286072e-11   133740.43      102720.96      10508489       3.2956403e-06  5.1762709e-07  2.7780132e-06  1.3406933e+08
    209000   1.292255e-11   133723.34      102719.47      10503254       3.2956453e-06  5.1798715e-07  2.7776581e-06  1.3406302e+08
    210000   1.2984381e-11  133735.4       102750.73      10496845       3.2956476e-06  5.1773887e-07  2.7779087e-06  1.340671e+08 
    211000   1.3046211e-11  133742.19      102768.25      10493263       3.2956613e-06  5.1761142e-07  2.7780498e-06  1.340692e+08 
    212000   1.3108041e-11  133753.83      102789.34      10490113       3.2956478e-06  5.1735623e-07  2.7782915e-06  1.3407122e+08
    213000   1.3169872e-11  133769.83      102814.52      10487061       3.2956497e-06  5.1702587e-07  2.7786238e-06  1.3407693e+08
    214000   1.3231702e-11  133762.71      102826.16      10480780       3.2956391e-06  5.1716316e-07  2.778476e-06   1.3407339e+08
    215000   1.3293533e-11  133748.49      102828.48      10475230       3.295638e-06   5.1745755e-07  2.7781805e-06  1.3406812e+08
    216000   1.3355363e-11  133738.02      102834.04      10469859       3.2956313e-06  5.1766831e-07  2.777963e-06   1.3406421e+08
    217000   1.3417193e-11  133735.62      102857.89      10461078       3.2956243e-06  5.1771114e-07  2.7779132e-06  1.3406329e+08
    218000   1.3479024e-11  133739.48      102877.71      10455747       3.2956294e-06  5.1763589e-07  2.7779935e-06  1.3406565e+08
    219000   1.3540854e-11  133745.59      102896.04      10451667       3.2956353e-06  5.1751486e-07  2.7781204e-06  1.3406876e+08
    220000   1.3602684e-11  133752.64      102913.85      10448074       3.2956314e-06  5.1736462e-07  2.7782668e-06  1.3407082e+08
    221000   1.3664515e-11  133742.83      102914.52      10444557       3.2956418e-06  5.1757879e-07  2.778063e-06   1.3406809e+08
    222000   1.3726345e-11  133751.41      102941.8       10438312       3.295643e-06   5.174018e-07   2.7782412e-06  1.3407188e+08
    223000   1.3788176e-11  133741.26      102952.96      10431175       3.2956426e-06  5.1761225e-07  2.7780303e-06  1.3406759e+08
    224000   1.3850006e-11  133738.12      102970.31      10424317       3.2956375e-06  5.1767243e-07  2.7779651e-06  1.3406588e+08
    225000   1.3911836e-11  133752.98      102990.07      10422697       3.2956379e-06  5.1736402e-07  2.7782739e-06  1.340712e+08 
    226000   1.3973667e-11  133748.48      103005.09      10416163       3.2956398e-06  5.1745932e-07  2.7781804e-06  1.3406996e+08
    227000   1.4035497e-11  133734.9       103014.98      10408301       3.2956317e-06  5.1773338e-07  2.7778984e-06  1.3406448e+08
    228000   1.4097328e-11  133747.31      103039.87      10404136       3.2956336e-06  5.1747766e-07  2.778156e-06   1.340698e+08 
    229000   1.4159158e-11  133743.59      103053.87      10398207       3.2956423e-06  5.1756352e-07  2.7780788e-06  1.3406943e+08
    230000   1.4220988e-11  133741.35      103066.79      10393137       3.2956451e-06  5.1761279e-07  2.7780323e-06  1.340696e+08 
    231000   1.4282819e-11  133746.12      103080.69      10390087       3.2956419e-06  5.1751047e-07  2.7781314e-06  1.3407155e+08
    232000   1.4344649e-11  133744.53      103089.94      10386463       3.2956484e-06  5.1755003e-07  2.7780984e-06  1.3407088e+08
    233000   1.4406479e-11  133745.85      103101.08      10383177       3.295656e-06   5.1753034e-07  2.7781257e-06  1.3407194e+08
    234000   1.446831e-11   133735.16      103098.89      10380325       3.2956614e-06  5.1775759e-07  2.7779038e-06  1.3406831e+08
    235000   1.453014e-11   133735.65      103104.05      10378765       3.2956623e-06  5.1774834e-07  2.777914e-06   1.3406922e+08
    236000   1.4591971e-11  133723.99      103101.23      10375795       3.2956582e-06  5.1798655e-07  2.7776717e-06  1.3406519e+08
    237000   1.4653801e-11  133731.22      103113.7       10374050       3.2956539e-06  5.1783201e-07  2.7778219e-06  1.3406701e+08
    238000   1.4715631e-11  133753.08      103155.52      10367396       3.2956521e-06  5.1737622e-07  2.7782759e-06  1.3407363e+08
    239000   1.4777462e-11  133760.3       103186.35      10359507       3.2956651e-06  5.1723932e-07  2.7784258e-06  1.3407624e+08
    240000   1.4839292e-11  133758.54      103197.8       10355090       3.2956369e-06  5.1724746e-07  2.7783894e-06  1.3407277e+08
    241000   1.4901123e-11  133762.07      103215.16      10350465       3.295639e-06   5.1717635e-07  2.7784626e-06  1.3407401e+08
    242000   1.4962953e-11  133756.49      103231.01      10343294       3.2956395e-06  5.1729269e-07  2.7783468e-06  1.3407091e+08
    243000   1.5024783e-11  133754.31      103256.57      10334012       3.2956271e-06  5.1732569e-07  2.7783014e-06  1.3406796e+08
    244000   1.5086614e-11  133746.09      103266.33      10327992       3.2956232e-06  5.1749237e-07  2.7781308e-06  1.3406454e+08
    245000   1.5148444e-11  133748.29      103284.89      10322522       3.2956202e-06  5.1744372e-07  2.7781764e-06  1.3406635e+08
    246000   1.5210274e-11  133746.77      103304.56      10315432       3.2956182e-06  5.1747342e-07  2.7781448e-06  1.3406596e+08
    247000   1.5272105e-11  133745.15      103308.16      10313686       3.2956173e-06  5.1750601e-07  2.7781113e-06  1.3406455e+08
    248000   1.5333935e-11  133746.48      103316.27      10311421       3.2956193e-06  5.1748047e-07  2.7781388e-06  1.3406474e+08
    249000   1.5395766e-11  133747.79      103342.31      10303149       3.2956284e-06  5.1746229e-07  2.7781661e-06  1.3406599e+08
    250000   1.5457596e-11  133737.67      103350.1       10297149       3.2956382e-06  5.1768239e-07  2.7779558e-06  1.340634e+08 
    251000   1.5519426e-11  133744.82      103372.72      10291983       3.295633e-06   5.1752855e-07  2.7781044e-06  1.3406609e+08
    252000   1.5581257e-11  133741.78      103386.97      10286196       3.2956392e-06  5.1759808e-07  2.7780412e-06  1.3406594e+08
    253000   1.5643087e-11  133754.11      103406.07      10283944       3.2956388e-06  5.1734155e-07  2.7782973e-06  1.3407061e+08
    254000   1.5704918e-11  133754.05      103419.44      10279453       3.2956381e-06  5.1734208e-07  2.778296e-06   1.3406954e+08
    255000   1.5766748e-11  133756.66      103427.38      10277674       3.2956428e-06  5.172925e-07   2.7783503e-06  1.3407071e+08
    256000   1.5828578e-11  133752.5       103436.3       10273292       3.2956403e-06  5.1737655e-07  2.7782638e-06  1.3406965e+08
    257000   1.5890409e-11  133745.33      103433.38      10271868       3.2956377e-06  5.1752276e-07  2.7781149e-06  1.3406733e+08
    258000   1.5952239e-11  133754.73      103453.93      10268148       3.2956225e-06  5.1731234e-07  2.7783101e-06  1.3406988e+08
    259000   1.6014069e-11  133755.51      103469.42      10263229       3.2956371e-06  5.1731077e-07  2.7783264e-06  1.3407175e+08
    260000   1.60759e-11    133736.67      103473.39      10255581       3.2956399e-06  5.1770483e-07  2.777935e-06   1.3406597e+08
    261000   1.613773e-11   133745.21      103493.18      10251825       3.2956274e-06  5.1751494e-07  2.7781124e-06  1.3406888e+08
    262000   1.6199561e-11  133747.18      103499.02      10250532       3.2956371e-06  5.1748381e-07  2.7781533e-06  1.340701e+08 
    263000   1.6261391e-11  133756.71      103523.2       10245646       3.2956449e-06  5.1729347e-07  2.7783514e-06  1.3407451e+08
    264000   1.6323221e-11  133754.9       103536.2       10240688       3.2956395e-06  5.173258e-07   2.7783137e-06  1.3407231e+08
    265000   1.6385052e-11  133758.42      103551.79      10236659       3.2956509e-06  5.1726399e-07  2.7783869e-06  1.340738e+08 
    266000   1.6446882e-11  133757.27      103565.69      10231620       3.2956462e-06  5.1728325e-07  2.7783629e-06  1.3407239e+08
    267000   1.6508713e-11  133773.92      103588.48      10229586       3.295641e-06   5.1693212e-07  2.7787089e-06  1.3407735e+08
    268000   1.6570543e-11  133785.33      103609.38      10226423       3.2956475e-06  5.1670162e-07  2.7789459e-06  1.3408236e+08
    269000   1.6632373e-11  133761.47      103605.97      10219560       3.2956487e-06  5.171984e-07   2.7784503e-06  1.3407492e+08
    270000   1.6694204e-11  133743.35      103598.59      10215950       3.2956523e-06  5.175785e-07   2.7780738e-06  1.3406975e+08
    271000   1.6756034e-11  133733.9       103600.9       10212004       3.2956545e-06  5.1777706e-07  2.7778774e-06  1.3406705e+08
    272000   1.6817864e-11  133730.62      103607.41      10208728       3.2956406e-06  5.1783121e-07  2.7778094e-06  1.340655e+08 
    273000   1.6879695e-11  133726.01      103625.21      10201232       3.2956454e-06  5.1793167e-07  2.7777137e-06  1.3406442e+08
    274000   1.6941525e-11  133725.11      103633.5       10198155       3.2956622e-06  5.1796733e-07  2.7776949e-06  1.3406552e+08
    275000   1.7003356e-11  133747.03      103657.6       10197447       3.2956528e-06  5.1750265e-07  2.7781502e-06  1.3407338e+08
    276000   1.7065186e-11  133730.64      103656.65      10192269       3.2956508e-06  5.178409e-07   2.7778099e-06  1.340668e+08 
    277000   1.7127016e-11  133723.93      103670.74      10185306       3.2956491e-06  5.1797863e-07  2.7776705e-06  1.3406402e+08
    278000   1.7188847e-11  133721.96      103678.92      10181907       3.2956493e-06  5.1801992e-07  2.7776294e-06  1.3406254e+08
    279000   1.7250677e-11  133738.11      103712.03      10176251       3.2956539e-06  5.1768892e-07  2.7779649e-06  1.3406922e+08
    280000   1.7312508e-11  133741.19      103731.47      10170785       3.2956233e-06  5.1759433e-07  2.7780289e-06  1.3406819e+08
    281000   1.7374338e-11  133743.58      103740.67      10168511       3.2956312e-06  5.1755256e-07  2.7780787e-06  1.340704e+08 
    282000   1.7436168e-11  133727.36      103738.09      10163930       3.2956547e-06  5.1791291e-07  2.7777418e-06  1.340666e+08 
    283000   1.7497999e-11  133726.63      103753.67      10158475       3.2956459e-06  5.1791934e-07  2.7777266e-06  1.340652e+08 
    284000   1.7559829e-11  133742.07      103770.73      10157948       3.2956507e-06  5.1760338e-07  2.7780473e-06  1.3407059e+08
    285000   1.7621659e-11  133729.49      103773.17      10152911       3.2956435e-06  5.178576e-07   2.7777859e-06  1.34064e+08  
    286000   1.768349e-11   133723.89      103780.1       10148719       3.2956623e-06  5.1799256e-07  2.7776697e-06  1.340635e+08 
    287000   1.774532e-11   133735.13      103801.06      10145476       3.2956526e-06  5.1774959e-07  2.777903e-06   1.3406882e+08
    288000   1.7807151e-11  133723.51      103794.3       10143840       3.2956413e-06  5.179796e-07   2.7776617e-06  1.3406477e+08
    289000   1.7868981e-11  133724.35      103811.72      10138295       3.2956487e-06  5.1796958e-07  2.7776791e-06  1.3406655e+08
    290000   1.7930811e-11  133729.1       103829.43      10133964       3.295655e-06   5.1787723e-07  2.7777778e-06  1.3406898e+08
    291000   1.7992642e-11  133718.4       103827.66      10130969       3.2956499e-06  5.1809427e-07  2.7775556e-06  1.3406396e+08
    292000   1.8054472e-11  133733.4       103852.61      10127657       3.2956579e-06  5.177907e-07   2.7778672e-06  1.3406982e+08
    293000   1.8116303e-11  133723.33      103857.36      10122689       3.2956677e-06  5.1800977e-07  2.7776579e-06  1.340655e+08 
    294000   1.8178133e-11  133741.05      103891.19      10117319       3.2956562e-06  5.1763021e-07  2.778026e-06   1.3407036e+08
    295000   1.8239963e-11  133734.6       103898.65      10112658       3.295648e-06   5.1775607e-07  2.777892e-06   1.3406611e+08
    296000   1.8301794e-11  133740.61      103921.96      10106881       3.2956572e-06  5.1764024e-07  2.778017e-06   1.3406837e+08
    297000   1.8363624e-11  133757.49      103942.73      10105595       3.2956531e-06  5.172856e-07   2.7783675e-06  1.3407354e+08
    298000   1.8425454e-11  133766.59      103960.21      10102803       3.2956604e-06  5.1710381e-07  2.7785566e-06  1.340777e+08 
    299000   1.8487285e-11  133746.43      103957.07      10097093       3.2956582e-06  5.1752028e-07  2.7781379e-06  1.3407032e+08
    300000   1.8549115e-11  133744.49      103975.8       10090176       3.2956585e-06  5.1756103e-07  2.7780975e-06  1.3407061e+08
    301000   1.8610946e-11  133730.28      103975.64      10085464       3.2956509e-06  5.1784849e-07  2.7778024e-06  1.340643e+08 
    302000   1.8672776e-11  133727.77      103982.54      10082312       3.2956379e-06  5.1788772e-07  2.7777502e-06  1.3406218e+08
    303000   1.8734606e-11  133731.96      103996.13      10079174       3.2956465e-06  5.1780928e-07  2.7778372e-06  1.3406408e+08
    304000   1.8796437e-11  133735.11      104015.58      10073725       3.2956379e-06  5.1773524e-07  2.7779027e-06  1.3406487e+08
    305000   1.8858267e-11  133739.18      104039.47      10067101       3.2956429e-06  5.1765573e-07  2.7779872e-06  1.340675e+08 
    306000   1.8920098e-11  133730.69      104049.14      10061018       3.295652e-06   5.1784114e-07  2.7778109e-06  1.3406599e+08
    307000   1.8981928e-11  133744.94      104074.91      10057181       3.2956511e-06  5.1754415e-07  2.7781069e-06  1.3407258e+08
    308000   1.9043758e-11  133733.39      104079.42      10051799       3.2956523e-06  5.1778529e-07  2.777867e-06   1.3406882e+08
    309000   1.9105589e-11  133726.17      104091.27      10045411       3.2956574e-06  5.1794046e-07  2.777717e-06   1.3406705e+08
    310000   1.9167419e-11  133740.58      104129.18      10037567       3.2956616e-06  5.1764537e-07  2.7780162e-06  1.3407304e+08
    311000   1.9229249e-11  133726.37      104127.56      10033341       3.2956603e-06  5.1793916e-07  2.7777211e-06  1.3406797e+08
    312000   1.929108e-11   133714.22      104127.07      10029433       3.2956661e-06  5.1819723e-07  2.7774688e-06  1.3406368e+08
    313000   1.935291e-11   133716.39      104149.86      10022534       3.2956548e-06  5.1814106e-07  2.7775138e-06  1.3406233e+08
    314000   1.9414741e-11  133739.96      104183.51      10019189       3.2956423e-06  5.1763893e-07  2.7780034e-06  1.3407021e+08
    315000   1.9476571e-11  133722.95      104184.68      10013090       3.2956504e-06  5.1800038e-07  2.77765e-06    1.3406503e+08
    316000   1.9538401e-11  133724.91      104200.74      10008376       3.2956471e-06  5.179563e-07   2.7776908e-06  1.3406654e+08
    317000   1.9600232e-11  133716.93      104207.21      10003539       3.2956443e-06  5.1811926e-07  2.7775251e-06  1.34063e+08  
    318000   1.9662062e-11  133728.53      104225.97      10001154       3.2956464e-06  5.1788043e-07  2.777766e-06   1.3406569e+08
    319000   1.9723892e-11  133735.96      104237.46      9999803.4      3.2956353e-06  5.1771498e-07  2.7779203e-06  1.3406643e+08
    320000   1.9785723e-11  133739.15      104255.76      9994751.2      3.2956485e-06  5.1766201e-07  2.7779865e-06  1.3406893e+08
    321000   1.9847553e-11  133737.98      104281.88      9985623        3.2956481e-06  5.1768587e-07  2.7779622e-06  1.3406829e+08
    322000   1.9909384e-11  133734.01      104292.83      9980631.7      3.2956585e-06  5.1777859e-07  2.7778799e-06  1.3406785e+08
    323000   1.9971214e-11  133738.2       104315.23      9974546.7      3.2956582e-06  5.1769131e-07  2.7779668e-06  1.3406986e+08
    324000   2.0033044e-11  133742.76      104331.96      9970480.6      3.2956492e-06  5.1758767e-07  2.7780616e-06  1.3407066e+08
    325000   2.0094875e-11  133737.99      104340.74      9965945.5      3.2956631e-06  5.1770046e-07  2.7779626e-06  1.3406932e+08
    326000   2.0156705e-11  133740.92      104352.9       9962861.4      3.2956418e-06  5.1761834e-07  2.7780234e-06  1.340678e+08 
    327000   2.0218536e-11  133745.78      104368.52      9959267        3.2956337e-06  5.1750935e-07  2.7781244e-06  1.3406831e+08
    328000   2.0280366e-11  133739.81      104376.55      9954577.6      3.2956149e-06  5.1761454e-07  2.7780004e-06  1.340639e+08 
    329000   2.0342196e-11  133753.32      104407.94      9948609.8      3.2956041e-06  5.1732324e-07  2.7782809e-06  1.3406714e+08
    330000   2.0404027e-11  133759.58      104433.71      9942091        3.2956099e-06  5.1719896e-07  2.7784109e-06  1.3406884e+08
    331000   2.0465857e-11  133744.55      104434.1       9936918.4      3.2956136e-06  5.1751499e-07  2.7780987e-06  1.3406232e+08
    332000   2.0527687e-11  133750.34      104455.58      9931681.1      3.2956137e-06  5.1739465e-07  2.7782191e-06  1.3406422e+08
    333000   2.0589518e-11  133763.99      104486.51      9925913.6      3.2956253e-06  5.1712268e-07  2.7785027e-06  1.340708e+08 
    334000   2.0651348e-11  133762.88      104499.5       9921196.1      3.2956219e-06  5.1714237e-07  2.7784795e-06  1.3407125e+08
    335000   2.0713179e-11  133751.97      104497.2       9918306.5      3.2956163e-06  5.1736343e-07  2.7782529e-06  1.3406845e+08
    336000   2.0775009e-11  133739.53      104492.68      9915645.4      3.2956079e-06  5.1761339e-07  2.7779945e-06  1.3406384e+08
    337000   2.0836839e-11  133735.3       104498.52      9912270.5      3.2956145e-06  5.1770791e-07  2.7779065e-06  1.3406256e+08
    338000   2.089867e-11   133743.68      104522.17      9907172.3      3.2956102e-06  5.1752949e-07  2.7780807e-06  1.3406502e+08
    339000   2.09605e-11    133745.08      104528.97      9905366.8      3.2956328e-06  5.175231e-07   2.7781097e-06  1.3406691e+08
    340000   2.1022331e-11  133744.87      104541.09      9901245.9      3.2956405e-06  5.1753506e-07  2.7781054e-06  1.3406791e+08
    341000   2.1084161e-11  133743.29      104557.15      9895343.2      3.2956483e-06  5.1757582e-07  2.7780725e-06  1.3406873e+08
    342000   2.1145991e-11  133756.42      104584.79      9890504.3      3.2956468e-06  5.1730162e-07  2.7783452e-06  1.340738e+08 
    343000   2.1207822e-11  133753.47      104596.57      9885574.5      3.2956378e-06  5.1735377e-07  2.778284e-06   1.3407153e+08
    344000   2.1269652e-11  133751.37      104608.85      9880764.7      3.2956224e-06  5.1738193e-07  2.7782405e-06  1.3406949e+08
    345000   2.1331482e-11  133745.56      104614.9       9876789.8      3.295638e-06   5.1751831e-07  2.7781197e-06  1.3406898e+08
    346000   2.1393313e-11  133735.95      104619.98      9871865.6      3.2956323e-06  5.1771225e-07  2.77792e-06    1.3406559e+08
    347000   2.1455143e-11  133745.2       104635.82      9869675.4      3.2956459e-06  5.1753352e-07  2.7781123e-06  1.3407087e+08
    348000   2.1516974e-11  133733.81      104628.37      9868346.1      3.2956398e-06  5.1776411e-07  2.7778757e-06  1.3406581e+08
    349000   2.1578804e-11  133742.64      104655.71      9862162.9      3.2956476e-06  5.1758858e-07  2.778059e-06   1.3406968e+08
    350000   2.1640634e-11  133758.29      104684.9       9857649.8      3.2956452e-06  5.1726107e-07  2.7783842e-06  1.3407481e+08
    351000   2.1702465e-11  133760.17      104699.62      9853356.5      3.2956581e-06  5.1723498e-07  2.7784231e-06  1.3407528e+08
    352000   2.1764295e-11  133744.64      104705.39      9846218.6      3.295645e-06   5.1754438e-07  2.7781006e-06  1.3406761e+08
    353000   2.1826126e-11  133756.81      104723.07      9844387.3      3.29563e-06    5.1727662e-07  2.7783534e-06  1.3407103e+08
    354000   2.1887956e-11  133754.82      104728.92      9841761.3      3.2956411e-06  5.1732904e-07  2.778312e-06   1.3407153e+08
    355000   2.1949786e-11  133749.61      104736.05      9837629.8      3.2956301e-06  5.174263e-07   2.7782038e-06  1.3406985e+08
    356000   2.2011617e-11  133745.84      104742.98      9834047.6      3.2956207e-06  5.174952e-07   2.7781255e-06  1.3406882e+08
    357000   2.2073447e-11  133737.84      104738.98      9832703.4      3.2956485e-06  5.1768907e-07  2.7779594e-06  1.3406842e+08
    358000   2.2135277e-11  133740.66      104755.76      9828037.3      3.295668e-06   5.1765009e-07  2.7780179e-06  1.340712e+08 
    359000   2.2197108e-11  133724.72      104753.09      9823583.8      3.2956713e-06  5.1798437e-07  2.7776869e-06  1.3406578e+08
    360000   2.2258938e-11  133725.07      104764.77      9819795        3.2956641e-06  5.1796996e-07  2.7776941e-06  1.3406543e+08
    361000   2.2320769e-11  133741.34      104792.73      9815899        3.2956548e-06  5.1762282e-07  2.778032e-06   1.340704e+08 
    362000   2.2382599e-11  133742.38      104805.43      9812001.3      3.2956485e-06  5.1759491e-07  2.7780536e-06  1.3406966e+08
    363000   2.2444429e-11  133753.98      104820.64      9810805.5      3.2956464e-06  5.1735186e-07  2.7782946e-06  1.3407305e+08
    364000   2.250626e-11   133756.25      104826.24      9809694.9      3.2956423e-06  5.1730057e-07  2.7783418e-06  1.3407341e+08
    365000   2.256809e-11   133751.33      104832.64      9805906.2      3.2956406e-06  5.1740098e-07  2.7782396e-06  1.3407174e+08
    366000   2.2629921e-11  133742.81      104836.11      9801886.7      3.295647e-06   5.1758444e-07  2.7780626e-06  1.3406911e+08
    367000   2.2691751e-11  133740.51      104841.19      9799417.5      3.2956551e-06  5.1764022e-07  2.7780148e-06  1.3406882e+08
    368000   2.2753581e-11  133738.42      104860.28      9792330.8      3.2956594e-06  5.1768796e-07  2.7779714e-06  1.340682e+08 
    369000   2.2815412e-11  133747.18      104886         9786664.9      3.2956486e-06  5.1749527e-07  2.7781534e-06  1.3407037e+08
    370000   2.2877242e-11  133749.05      104900.61      9782410.6      3.2956432e-06  5.1745091e-07  2.7781923e-06  1.3407076e+08
    371000   2.2939072e-11  133744.49      104908.23      9778330.3      3.2956411e-06  5.1754354e-07  2.7780975e-06  1.3406852e+08
    372000   2.3000903e-11  133758.91      104925.61      9777351.9      3.2956475e-06  5.1725055e-07  2.778397e-06   1.3407417e+08
    373000   2.3062733e-11  133752.9       104931.6       9773334.5      3.2956545e-06  5.1738235e-07  2.7782721e-06  1.3407284e+08
    374000   2.3124564e-11  133744.53      104940.98      9767389.1      3.2956394e-06  5.1754105e-07  2.7780984e-06  1.3406949e+08
    375000   2.3186394e-11  133734.8       104945.68      9762555.9      3.2956385e-06  5.1774221e-07  2.7778963e-06  1.3406583e+08
    376000   2.3248224e-11  133738.7       104961.39      9758611        3.2956324e-06  5.1765509e-07  2.7779773e-06  1.3406615e+08
    377000   2.3310055e-11  133744.23      104971.22      9757177.1      3.2956251e-06  5.175329e-07   2.7780922e-06  1.3406707e+08
    378000   2.3371885e-11  133763.38      105010.48      9750470.3      3.2956418e-06  5.1715191e-07  2.7784899e-06  1.3407599e+08
    379000   2.3433716e-11  133748.63      105022.14      9741622.1      3.2956506e-06  5.1746705e-07  2.7781836e-06  1.3407141e+08
    380000   2.3495546e-11  133732.21      105026.45      9734673.2      3.2956622e-06  5.1781979e-07  2.7778424e-06  1.3406748e+08
    381000   2.3557376e-11  133737.15      105044.64      9730246.6      3.2956549e-06  5.1770982e-07  2.7779451e-06  1.3407037e+08
    382000   2.3619207e-11  133727.77      105049.02      9725632.3      3.2956663e-06  5.1791611e-07  2.7777502e-06  1.3406847e+08
    383000   2.3681037e-11  133735.78      105068.63      9721760.9      3.2956694e-06  5.1775282e-07  2.7779165e-06  1.3407174e+08
    384000   2.3742867e-11  133732.03      105080.28      9716607.6      3.2956834e-06  5.1784476e-07  2.7778386e-06  1.3407112e+08
    385000   2.3804698e-11  133745.23      105104.93      9712793.4      3.2956906e-06  5.1757774e-07  2.7781129e-06  1.3407611e+08
    386000   2.3866528e-11  133741.6       105118.91      9706896.7      3.2956749e-06  5.1763744e-07  2.7780374e-06  1.3407189e+08
    387000   2.3928359e-11  133742.76      105138.46      9700749.4      3.2956721e-06  5.1761052e-07  2.7780616e-06  1.3407146e+08
    388000   2.3990189e-11  133737.76      105153.35      9694090.1      3.2956865e-06  5.1772882e-07  2.7779576e-06  1.3407044e+08
    389000   2.4052019e-11  133725.77      105157.83      9688572.6      3.2956529e-06  5.1794421e-07  2.7777087e-06  1.340635e+08 
    390000   2.411385e-11   133727.94      105171.59      9684700.3      3.2956554e-06  5.1790166e-07  2.7777538e-06  1.3406447e+08
    391000   2.417568e-11   133728.67      105189.45      9678972.1      3.2956686e-06  5.1789964e-07  2.7777689e-06  1.3406507e+08
    392000   2.4237511e-11  133734.46      105206.52      9675202.9      3.2956538e-06  5.1776461e-07  2.7778892e-06  1.3406569e+08
    393000   2.4299341e-11  133744.62      105250.78      9663808.2      3.2956621e-06  5.1756192e-07  2.7781002e-06  1.3406965e+08
    394000   2.4361171e-11  133751.5       105286.63      9654127.9      3.2956579e-06  5.1741471e-07  2.7782431e-06  1.3407242e+08
    395000   2.4423002e-11  133735.5       105293.03      9646620.1      3.2956565e-06  5.1774569e-07  2.7779108e-06  1.3406697e+08
    396000   2.4484832e-11  133733.12      105309.78      9640220.7      3.2956466e-06  5.1778516e-07  2.7778614e-06  1.3406522e+08
    397000   2.4546662e-11  133735.48      105318.76      9638005.9      3.2956541e-06  5.1774382e-07  2.7779103e-06  1.3406621e+08
    398000   2.4608493e-11  133738.29      105338.8       9632248.6      3.2956422e-06  5.1767346e-07  2.7779687e-06  1.340659e+08 
    399000   2.4670323e-11  133737.42      105360.38      9624739.6      3.2956275e-06  5.1767691e-07  2.7779506e-06  1.3406472e+08
    400000   2.4732154e-11  133735.07      105379.78      9617462.7      3.2956259e-06  5.1772405e-07  2.7779018e-06  1.3406453e+08
    401000   2.4793984e-11  133736.2       105406.77      9608813.1      3.2956301e-06  5.1770492e-07  2.7779252e-06  1.3406517e+08
    402000   2.4855814e-11  133748         105438.15      9602279.3      3.2956408e-06  5.1747032e-07  2.7781704e-06  1.3406951e+08
    403000   2.4917645e-11  133751.74      105448.71      9600002        3.2956487e-06  5.174006e-07   2.7782481e-06  1.3407087e+08
    404000   2.4979475e-11  133739.72      105460.36      9592075.5      3.2956371e-06  5.1763858e-07  2.7779985e-06  1.3406534e+08
    405000   2.5041306e-11  133743.85      105472.75      9589313.7      3.2956325e-06  5.1754818e-07  2.7780843e-06  1.3406697e+08
    406000   2.5103136e-11  133749.75      105485.11      9587159.5      3.2956342e-06  5.1742745e-07  2.7782068e-06  1.3406925e+08
    407000   2.5164966e-11  133744.54      105485.73      9585204.3      3.2956388e-06  5.1754032e-07  2.7780984e-06  1.3406798e+08
    408000   2.5226797e-11  133738.96      105496.19      9579832.8      3.2956518e-06  5.1766919e-07  2.7779826e-06  1.3406671e+08
    409000   2.5288627e-11  133742.16      105516.06      9574262.5      3.2956406e-06  5.1759147e-07  2.7780491e-06  1.3406668e+08
    410000   2.5350457e-11  133740.81      105525.57      9570627.8      3.2956237e-06  5.176026e-07   2.7780211e-06  1.3406466e+08
    411000   2.5412288e-11  133752.65      105549.44      9566617.1      3.2956245e-06  5.1735758e-07  2.7782669e-06  1.3407014e+08
    412000   2.5474118e-11  133740.22      105552.22      9561517.4      3.2956165e-06  5.1760769e-07  2.7780088e-06  1.3406492e+08
    413000   2.5535949e-11  133737         105560.31      9557732.3      3.2956143e-06  5.1767238e-07  2.777942e-06   1.340628e+08 
    414000   2.5597779e-11  133759.12      105597.22      9552808        3.2956219e-06  5.1722058e-07  2.7784013e-06  1.3407116e+08
    415000   2.5659609e-11  133750.9       105604.88      9547491.1      3.2956349e-06  5.1740415e-07  2.7782308e-06  1.3406897e+08
    416000   2.572144e-11   133751.44      105629         9539603.5      3.2956364e-06  5.1739455e-07  2.7782418e-06  1.3406978e+08
    417000   2.578327e-11   133738.15      105629.59      9534948.3      3.2956353e-06  5.1766943e-07  2.7779659e-06  1.3406437e+08
    418000   2.5845101e-11  133757.91      105658.92      9531767.4      3.2956392e-06  5.1726284e-07  2.7783763e-06  1.3407191e+08
    419000   2.5906931e-11  133748.55      105673.58      9523726.2      3.2956288e-06  5.1744688e-07  2.7781819e-06  1.3406741e+08
    420000   2.5968761e-11  133756.04      105690.53      9520568.1      3.2956137e-06  5.1727631e-07  2.7783374e-06  1.3406973e+08
    421000   2.6030592e-11  133742.72      105683.88      9518321.7      3.2956033e-06  5.1754264e-07  2.7780607e-06  1.3406428e+08
    422000   2.6092422e-11  133735.22      105690.83      9513483.9      3.2956183e-06  5.1771326e-07  2.777905e-06   1.34063e+08  
    423000   2.6154252e-11  133732.49      105699.7       9509601.2      3.2956355e-06  5.1778728e-07  2.7778482e-06  1.3406303e+08
    424000   2.6216083e-11  133740.25      105728.82      9502465.2      3.2956287e-06  5.1761933e-07  2.7780094e-06  1.3406549e+08
    425000   2.6277913e-11  133737.7       105736.81      9498939        3.2956258e-06  5.1766928e-07  2.7779565e-06  1.3406386e+08
    426000   2.6339744e-11  133750.61      105758.44      9496035.8      3.2956259e-06  5.1740118e-07  2.7782247e-06  1.340672e+08 
    427000   2.6401574e-11  133749.65      105765.8       9493249        3.2956229e-06  5.1741817e-07  2.7782047e-06  1.3406523e+08
    428000   2.6463404e-11  133761.14      105780.29      9492256.1      3.2956104e-06  5.1716718e-07  2.7784433e-06  1.3406826e+08
    429000   2.6525235e-11  133751.78      105784.29      9487779.5      3.2955947e-06  5.1734583e-07  2.7782488e-06  1.3406349e+08
    430000   2.6587065e-11  133746.95      105797.5       9481742.8      3.2955997e-06  5.1745117e-07  2.7781485e-06  1.3406276e+08
    431000   2.6648896e-11  133741.06      105801.95      9478279        3.295613e-06   5.1758676e-07  2.7780262e-06  1.3406282e+08
    432000   2.6710726e-11  133730.26      105805.74      9473387.9      3.2956273e-06  5.1782535e-07  2.777802e-06   1.3406113e+08
    433000   2.6772556e-11  133742.08      105832.32      9468464        3.2956319e-06  5.1758447e-07  2.7780474e-06  1.3406657e+08
    434000   2.6834387e-11  133745.5       105857.72      9461114.3      3.2956339e-06  5.1751546e-07  2.7781184e-06  1.340681e+08 
    435000   2.6896217e-11  133737.47      105869.32      9454543.7      3.2956437e-06  5.1769208e-07  2.7779517e-06  1.3406589e+08
    436000   2.6958047e-11  133722.5       105875.07      9447595.9      3.295648e-06   5.1800739e-07  2.7776407e-06  1.3406094e+08
    437000   2.7019878e-11  133742.38      105903.76      9444671.9      3.2956364e-06  5.1758267e-07  2.7780537e-06  1.3406879e+08
    438000   2.7081708e-11  133727.99      105907.56      9438571.2      3.2956352e-06  5.1788057e-07  2.7777547e-06  1.3406264e+08
    439000   2.7143539e-11  133731.92      105921.45      9435246.2      3.295625e-06   5.1778854e-07  2.7778365e-06  1.3406245e+08
    440000   2.7205369e-11  133745.47      105958.53      9427390.8      3.2956358e-06  5.1751784e-07  2.7781179e-06  1.340675e+08 
    441000   2.7267199e-11  133746         105963.78      9425811.5      3.2956463e-06  5.1751745e-07  2.7781288e-06  1.3406754e+08
    442000   2.732903e-11   133750.49      105983.16      9420837.3      3.2956392e-06  5.1741717e-07  2.7782221e-06  1.3406873e+08
    443000   2.739086e-11   133732.64      105971.25      9418831.6      3.2956358e-06  5.1778451e-07  2.7778513e-06  1.3406236e+08
    444000   2.745269e-11   133726.34      105981.01      9413456.6      3.2956481e-06  5.1792757e-07  2.7777206e-06  1.3406165e+08
    445000   2.7514521e-11  133740.17      106002.63      9410862.7      3.2956556e-06  5.1764782e-07  2.7780078e-06  1.3406779e+08
    446000   2.7576351e-11  133730.44      106008.98      9405476.9      3.2956589e-06  5.1785317e-07  2.7778057e-06  1.3406383e+08
    447000   2.7638182e-11  133745.85      106035.79      9401679        3.2956559e-06  5.1753021e-07  2.7781257e-06  1.3406991e+08
    448000   2.7700012e-11  133737.45      106048.47      9394621.5      3.295638e-06   5.1768671e-07  2.7779513e-06  1.3406528e+08
    449000   2.7761842e-11  133740.76      106069.72      9388625.9      3.2956317e-06  5.1761167e-07  2.7780201e-06  1.3406614e+08
    450000   2.7823673e-11  133725.19      106071.58      9382781.9      3.2956245e-06  5.1792776e-07  2.7776967e-06  1.3405925e+08
    451000   2.7885503e-11  133750.37      106111.22      9377969.2      3.2956274e-06  5.174077e-07   2.7782197e-06  1.3406904e+08
    452000   2.7947334e-11  133733.55      106114.38      9371268.1      3.2956318e-06  5.1776149e-07  2.7778703e-06  1.3406316e+08
    453000   2.8009164e-11  133729.61      106124.83      9366452        3.2956344e-06  5.1784596e-07  2.7777885e-06  1.340632e+08 
    454000   2.8070994e-11  133716.23      106128.39      9360776.1      3.2956509e-06  5.1814028e-07  2.7775106e-06  1.3405985e+08
    455000   2.8132825e-11  133748.86      106170.96      9357482.2      3.2956545e-06  5.1746627e-07  2.7781882e-06  1.3407211e+08
    456000   2.8194655e-11  133759.27      106195.47      9352779        3.2956537e-06  5.1724914e-07  2.7784046e-06  1.3407512e+08
    457000   2.8256485e-11  133757.3       106210.76      9347000.3      3.2956579e-06  5.1729432e-07  2.7783636e-06  1.3407393e+08
    458000   2.8318316e-11  133743.88      106226.59      9337205.9      3.2956577e-06  5.1757285e-07  2.7780848e-06  1.3406986e+08
    459000   2.8380146e-11  133732.48      106231.62      9331698.8      3.2956345e-06  5.1778659e-07  2.7778479e-06  1.3406563e+08
    460000   2.8441977e-11  133716.23      106245.31      9321670.5      3.2956232e-06  5.1811274e-07  2.7775104e-06  1.3406025e+08
    461000   2.8503807e-11  133709.44      106261.59      9313948.5      3.2956492e-06  5.1827965e-07  2.7773695e-06  1.3406063e+08
    462000   2.8565637e-11  133700.5       106268.49      9308642        3.2956586e-06  5.184749e-07   2.7771837e-06  1.3405772e+08
    463000   2.8627468e-11  133711.63      106294.53      9303663.3      3.295663e-06   5.182481e-07   2.7774148e-06  1.3406131e+08
    464000   2.8689298e-11  133735.42      106329.17      9300060.6      3.2956404e-06  5.1773125e-07  2.7779091e-06  1.3406706e+08
    465000   2.8751129e-11  133749.03      106361.07      9293958.8      3.2956346e-06  5.1744279e-07  2.7781918e-06  1.3407059e+08
    466000   2.8812959e-11  133749.58      106373.44      9290006.1      3.2956313e-06  5.174281e-07   2.7782032e-06  1.3406952e+08
    467000   2.8874789e-11  133744.46      106380.89      9285794.1      3.2956367e-06  5.175398e-07   2.7780969e-06  1.3406789e+08
    468000   2.893662e-11   133741.34      106397.52      9279189.1      3.2956421e-06  5.1760993e-07  2.7780321e-06  1.3406784e+08
    469000   2.899845e-11   133748.53      106419.8       9274148.3      3.295637e-06   5.1745557e-07  2.7781814e-06  1.3407102e+08
    470000   2.906028e-11   133736.29      106425.79      9268039.7      3.2956498e-06  5.1772259e-07  2.7779272e-06  1.3406696e+08
    471000   2.9122111e-11  133739.01      106451.56      9260333        3.295644e-06   5.1766036e-07  2.7779836e-06  1.3406715e+08
    472000   2.9183941e-11  133757.74      106490.15      9253707.7      3.2956335e-06  5.1726084e-07  2.7783727e-06  1.3407338e+08
    473000   2.9245772e-11  133755.31      106506.34      9247479.1      3.2956383e-06  5.1731595e-07  2.7783223e-06  1.3407328e+08
    474000   2.9307602e-11  133737.19      106496.68      9244631.7      3.2956481e-06  5.1770213e-07  2.777946e-06   1.3406772e+08
    475000   2.9369432e-11  133733.43      106504.91      9240617.6      3.2956385e-06  5.1777078e-07  2.7778677e-06  1.3406651e+08
    476000   2.9431263e-11  133738.78      106520.37      9237242.3      3.2956278e-06  5.1764901e-07  2.7779788e-06  1.340669e+08 
    477000   2.9493093e-11  133762.26      106552.1       9234506.1      3.2956376e-06  5.1717107e-07  2.7784665e-06  1.3407488e+08
    478000   2.9554924e-11  133756.87      106555.2       9231663.8      3.2956346e-06  5.1727988e-07  2.7783547e-06  1.3407151e+08
    479000   2.9616754e-11  133752.4       106569         9225546.4      3.2956403e-06  5.1737845e-07  2.7782619e-06  1.3407013e+08
    480000   2.9678584e-11  133759.82      106592.4       9220209.2      3.2956367e-06  5.1722077e-07  2.778416e-06   1.3407275e+08
    481000   2.9740415e-11  133740.55      106594.02      9213203.3      3.2956419e-06  5.1762622e-07  2.7780157e-06  1.3406546e+08
    482000   2.9802245e-11  133746.95      106614.53      9208491.3      3.2956402e-06  5.1749163e-07  2.7781486e-06  1.340674e+08 
    483000   2.9864075e-11  133742.45      106624.54      9203632.6      3.2956403e-06  5.1758516e-07  2.7780551e-06  1.3406538e+08
    484000   2.9925906e-11  133753.24      106642.13      9201369.2      3.295628e-06   5.1734878e-07  2.7782792e-06  1.3406883e+08
    485000   2.9987736e-11  133744.14      106640.3       9198931.2      3.2956279e-06  5.1753766e-07  2.7780902e-06  1.3406551e+08
    486000   3.0049567e-11  133740.29      106649.28      9194635        3.2956224e-06  5.176121e-07   2.7780103e-06  1.3406287e+08
    487000   3.0111397e-11  133748.42      106669.25      9190684.2      3.295627e-06   5.1744779e-07  2.7781792e-06  1.3406555e+08
    488000   3.0173227e-11  133750.1       106688.93      9184664.1      3.2956144e-06  5.1740038e-07  2.778214e-06   1.340653e+08 
    489000   3.0235058e-11  133754.42      106715.82      9177119.7      3.2956117e-06  5.1730797e-07  2.7783037e-06  1.3406773e+08
    490000   3.0296888e-11  133756.73      106724.17      9175103.3      3.2956157e-06  5.1726402e-07  2.7783517e-06  1.3406978e+08
    491000   3.0358719e-11  133753.83      106732.05      9171497.5      3.2956253e-06  5.1733369e-07  2.7782916e-06  1.3407009e+08
    492000   3.0420549e-11  133739.06      106739.44      9164070.2      3.2956227e-06  5.1763789e-07  2.7779848e-06  1.3406533e+08
    493000   3.0482379e-11  133740.75      106752.85      9160153.1      3.2956362e-06  5.1761633e-07  2.7780199e-06  1.3406739e+08
    494000   3.054421e-11   133738.15      106764.39      9155421.8      3.2956439e-06  5.17678e-07    2.7779659e-06  1.3406626e+08
    495000   3.060604e-11   133735.51      106771.07      9152297.4      3.2956395e-06  5.1772861e-07  2.7779109e-06  1.3406528e+08
    496000   3.066787e-11   133727.26      106781.06      9146191.8      3.2956424e-06  5.1790268e-07  2.7777397e-06  1.3406318e+08
    497000   3.0729701e-11  133729.93      106802.19      9140017.8      3.2956436e-06  5.1784866e-07  2.777795e-06   1.340642e+08 
    498000   3.0791531e-11  133728.32      106817.94      9134211.2      3.2956353e-06  5.1787374e-07  2.7777616e-06  1.340628e+08 
    499000   3.0853362e-11  133742.38      106845.63      9129667.7      3.2956252e-06  5.1757166e-07  2.7780536e-06  1.3406727e+08
    500000   3.0915192e-11  133738.28      106855.16      9125105.3      3.2956342e-06  5.176657e-07   2.7779685e-06  1.3406528e+08
    501000   3.0977022e-11  133743.51      106867.72      9122657.8      3.2956313e-06  5.1755416e-07  2.7780771e-06  1.3406588e+08
    502000   3.1038853e-11  133751.65      106888.51      9118435.6      3.2956475e-06  5.1740125e-07  2.7782462e-06  1.3406907e+08
    503000   3.1100683e-11  133758.94      106911.44      9113213.4      3.2956508e-06  5.172531e-07   2.7783977e-06  1.3407179e+08
    504000   3.1162514e-11  133747.02      106915.34      9107910.1      3.2956555e-06  5.1750542e-07  2.7781501e-06  1.340688e+08 
    505000   3.1224344e-11  133737.98      106923.98      9101986.4      3.2956456e-06  5.1768336e-07  2.7779622e-06  1.3406593e+08
    506000   3.1286174e-11  133741.42      106939.98      9097792.4      3.2956408e-06  5.1760701e-07  2.7780338e-06  1.3406675e+08
    507000   3.1348005e-11  133758.76      106969.2       9093835.2      3.2956519e-06  5.1725804e-07  2.7783939e-06  1.3407361e+08
    508000   3.1409835e-11  133747.5       106982.24      9085699.9      3.2956597e-06  5.1749961e-07  2.7781601e-06  1.3406967e+08
    509000   3.1471665e-11  133745.35      106992.4       9081579.5      3.2956434e-06  5.1752804e-07  2.7781154e-06  1.340682e+08 
    510000   3.1533496e-11  133737.64      107009.99      9073108.4      3.2956474e-06  5.1769215e-07  2.7779552e-06  1.3406604e+08
    511000   3.1595326e-11  133737.03      107020.1       9069523.3      3.2956402e-06  5.1769762e-07  2.7779426e-06  1.3406631e+08
    512000   3.1657157e-11  133738.8       107033.79      9065537.1      3.2956431e-06  5.1766389e-07  2.7779792e-06  1.3406786e+08
    513000   3.1718987e-11  133739.21      107045.15      9061877.8      3.2956484e-06  5.1766054e-07  2.7779878e-06  1.3406817e+08
    514000   3.1780817e-11  133748.39      107069.16      9056924.4      3.2956407e-06  5.1746227e-07  2.7781784e-06  1.3407037e+08
    515000   3.1842648e-11  133748.2       107079.3       9053468.7      3.2956274e-06  5.1745294e-07  2.7781745e-06  1.3406928e+08
    516000   3.1904478e-11  133735.21      107083.82      9047602.7      3.2956398e-06  5.17735e-07    2.7779048e-06  1.3406504e+08
    517000   3.1966309e-11  133743.27      107112.21      9040811.6      3.295625e-06   5.1755279e-07  2.7780722e-06  1.3406613e+08
    518000   3.2028139e-11  133750.16      107137.12      9034789        3.2956256e-06  5.1741037e-07  2.7782152e-06  1.34068e+08  
    519000   3.2089969e-11  133738.52      107132.77      9032341.4      3.2956391e-06  5.176655e-07   2.7779736e-06  1.3406453e+08
    520000   3.21518e-11    133752.12      107163.65      9026575.6      3.295633e-06   5.1737693e-07  2.7782561e-06  1.3407022e+08
    521000   3.221363e-11   133739.18      107160.23      9023378.4      3.2956347e-06  5.1764747e-07  2.7779873e-06  1.340661e+08 
    522000   3.227546e-11   133732.41      107164.49      9019683.3      3.295639e-06   5.1779232e-07  2.7778467e-06  1.3406438e+08
    523000   3.2337291e-11  133720.45      107170.93      9013518.4      3.2956434e-06  5.1804525e-07  2.7775982e-06  1.3405922e+08
    524000   3.2399121e-11  133741.3       107198.17      9011401.1      3.2956487e-06  5.1761756e-07  2.7780312e-06  1.340664e+08 
    525000   3.2460952e-11  133760.14      107222.56      9009565.1      3.2956525e-06  5.1722987e-07  2.7784226e-06  1.3407293e+08
    526000   3.2522782e-11  133758.89      107231.33      9006211.4      3.2956412e-06  5.1724459e-07  2.7783966e-06  1.3407096e+08
    527000   3.2584612e-11  133746.73      107225.25      9004164.8      3.2956255e-06  5.1748146e-07  2.7781441e-06  1.3406538e+08
    528000   3.2646443e-11  133745.16      107244.5       8997199.7      3.2956323e-06  5.1752088e-07  2.7781114e-06  1.3406627e+08
    529000   3.2708273e-11  133746.63      107275.32      8987386.3      3.2956368e-06  5.1749481e-07  2.7781419e-06  1.3406646e+08
    530000   3.2770104e-11  133763.49      107308.61      8981907.3      3.2956286e-06  5.1713649e-07  2.7784922e-06  1.3407259e+08
    531000   3.2831934e-11  133754.19      107320.67      8974753.3      3.2956388e-06  5.1733985e-07  2.778299e-06   1.3407033e+08
    532000   3.2893764e-11  133738.63      107313.92      8971792.6      3.2956266e-06  5.1765085e-07  2.7779758e-06  1.3406345e+08
    533000   3.2955595e-11  133752.36      107355.21      8962588.4      3.2956337e-06  5.1737286e-07  2.7782609e-06  1.3406901e+08
    534000   3.3017425e-11  133752.3       107371.56      8957101.4      3.2956398e-06  5.1738006e-07  2.7782597e-06  1.3406955e+08
    535000   3.3079255e-11  133741.94      107377.94      8951493.9      3.2956309e-06  5.1758638e-07  2.7780446e-06  1.3406643e+08
    536000   3.3141086e-11  133735.52      107380.6       8948449.2      3.2956234e-06  5.1771208e-07  2.7779113e-06  1.3406496e+08
    537000   3.3202916e-11  133732.68      107390.73      8944107.6      3.2956186e-06  5.1776642e-07  2.7778522e-06  1.3406422e+08
    538000   3.3264747e-11  133727.61      107397.58      8940117.4      3.2956219e-06  5.1787512e-07  2.7777468e-06  1.3406114e+08
    539000   3.3326577e-11  133742.17      107429.89      8934194.6      3.2956212e-06  5.1757184e-07  2.7780493e-06  1.3406464e+08
    540000   3.3388407e-11  133750.56      107459.87      8926982.5      3.2956208e-06  5.1739719e-07  2.7782236e-06  1.3406602e+08
    541000   3.3450238e-11  133758.93      107496.29      8917609.9      3.2956179e-06  5.1722046e-07  2.7783974e-06  1.3406792e+08
    542000   3.3512068e-11  133763.62      107517.56      8912068        3.2956062e-06  5.1711143e-07  2.7784948e-06  1.3406864e+08
    543000   3.3573899e-11  133759.71      107529.46      8906775.1      3.2956199e-06  5.1720632e-07  2.7784135e-06  1.3406901e+08
    544000   3.3635729e-11  133744.33      107531.47      8900946.9      3.2956256e-06  5.1753139e-07  2.7780942e-06  1.3406476e+08
    545000   3.3697559e-11  133751.14      107548.38      8897573.8      3.2956135e-06  5.1737797e-07  2.7782355e-06  1.3406766e+08
    546000   3.375939e-11   133735.38      107547.07      8892725.1      3.2956122e-06  5.1770403e-07  2.7779082e-06  1.3406183e+08
    547000   3.382122e-11   133742.56      107565.87      8888850        3.2956371e-06  5.1757962e-07  2.7780575e-06  1.3406739e+08
    548000   3.388305e-11   133733.07      107567.1       8885253.1      3.2956477e-06  5.177874e-07   2.7778603e-06  1.3406557e+08
    549000   3.3944881e-11  133737.59      107580.27      8882362.9      3.2956544e-06  5.1770029e-07  2.7779541e-06  1.3406822e+08
    550000   3.4006711e-11  133734.24      107589.42      8878181        3.2956482e-06  5.1776355e-07  2.7778846e-06  1.3406646e+08
    551000   3.4068542e-11  133737.59      107610.06      8872402.7      3.2956445e-06  5.176904e-07   2.7779541e-06  1.340674e+08 
    552000   3.4130372e-11  133745.43      107628.56      8868842.4      3.2956412e-06  5.1752427e-07  2.778117e-06   1.3407051e+08
    553000   3.4192202e-11  133719.44      107614.07      8864973.9      3.2956521e-06  5.1807489e-07  2.7775772e-06  1.3406169e+08
    554000   3.4254033e-11  133730.36      107637.19      8860900.7      3.295649e-06   5.1784501e-07  2.777804e-06   1.3406486e+08
    555000   3.4315863e-11  133752.17      107671.17      8856857.3      3.2956411e-06  5.17384e-07    2.7782571e-06  1.3407114e+08
    556000   3.4377694e-11  133747.33      107681.77      8851685.9      3.2956302e-06  5.1747378e-07  2.7781564e-06  1.3406693e+08
    557000   3.4439524e-11  133761.83      107713.21      8846035.5      3.2956444e-06  5.1718674e-07  2.7784577e-06  1.3407248e+08
    558000   3.4501354e-11  133754.08      107723.46      8840005.5      3.2956515e-06  5.1735482e-07  2.7782967e-06  1.3406962e+08
    559000   3.4563185e-11  133759.76      107738         8837049.6      3.2956447e-06  5.1723e-07     2.7784147e-06  1.3407211e+08
    560000   3.4625015e-11  133738.1       107740.06      8829093.9      3.2956399e-06  5.1767512e-07  2.7779647e-06  1.3406375e+08
    561000   3.4686845e-11  133740.71      107755.72      8824735.2      3.2956395e-06  5.1762051e-07  2.778019e-06   1.3406524e+08
    562000   3.4748676e-11  133741.07      107765.43      8821609.2      3.2956346e-06  5.1760802e-07  2.7780265e-06  1.3406537e+08
    563000   3.4810506e-11  133739.52      107775.19      8817821.4      3.2956406e-06  5.1764636e-07  2.7779942e-06  1.3406527e+08
    564000   3.4872337e-11  133748.73      107804.19      8811214.6      3.2956296e-06  5.1744401e-07  2.7781856e-06  1.3406764e+08
    565000   3.4934167e-11  133748.77      107813.26      8808192        3.2956302e-06  5.1744379e-07  2.7781864e-06  1.3406727e+08
    566000   3.4995997e-11  133744.14      107817.03      8805379        3.2956338e-06  5.1754356e-07  2.7780902e-06  1.3406516e+08
    567000   3.5057828e-11  133758.98      107847.63      8800122        3.2956424e-06  5.17244e-07    2.7783984e-06  1.3407213e+08
    568000   3.5119658e-11  133753.33      107871.53      8790232.8      3.2956504e-06  5.1736935e-07  2.778281e-06   1.3407231e+08
    569000   3.5181489e-11  133740.01      107870.56      8786090.2      3.2956586e-06  5.1765425e-07  2.7780044e-06  1.3406983e+08
    570000   3.5243319e-11  133737.76      107877.21      8783113.3      3.2956603e-06  5.1770254e-07  2.7779577e-06  1.3407032e+08
    571000   3.5305149e-11  133720.12      107873.13      8778559.9      3.2956635e-06  5.1807214e-07  2.7775914e-06  1.3406459e+08
    572000   3.536698e-11   133723.44      107895.5       8772191.3      3.2956469e-06  5.1798669e-07  2.7776602e-06  1.340649e+08 
    573000   3.542881e-11   133721.64      107919.59      8763533.2      3.2956483e-06  5.1802537e-07  2.7776229e-06  1.3406399e+08
    574000   3.549064e-11   133729.24      107937.85      8759974.4      3.295662e-06   5.1788131e-07  2.7777807e-06  1.3406742e+08
    575000   3.5552471e-11  133729.42      107955.13      8754256.1      3.2956373e-06  5.178528e-07   2.7777845e-06  1.3406415e+08
    576000   3.5614301e-11  133746.97      107982.73      8750911        3.2956244e-06  5.174754e-07   2.778149e-06   1.3406812e+08
    577000   3.5676132e-11  133748.24      107997.34      8746449        3.2956173e-06  5.1744202e-07  2.7781753e-06  1.3406629e+08
    578000   3.5737962e-11  133748.13      108008.43      8742705        3.2956192e-06  5.1744602e-07  2.7781732e-06  1.340661e+08 
    579000   3.5799792e-11  133732.18      108007.77      8737575.3      3.295615e-06   5.1777315e-07  2.7778419e-06  1.3406037e+08
    580000   3.5861623e-11  133726.1       108014.04      8733439.3      3.2956267e-06  5.1791126e-07  2.7777155e-06  1.3406026e+08
    581000   3.5923453e-11  133734.16      108031.3       8730368.5      3.2956212e-06  5.1773833e-07  2.7778829e-06  1.3406301e+08
    582000   3.5985283e-11  133753.32      108059.13      8727489.6      3.2956223e-06  5.1734142e-07  2.7782809e-06  1.3406951e+08
    583000   3.6047114e-11  133740.78      108052.08      8725641.7      3.2956193e-06  5.1759877e-07  2.7780205e-06  1.340635e+08 
    584000   3.6108944e-11  133745.41      108075.07      8719504.2      3.295628e-06   5.1751132e-07  2.7781167e-06  1.3406608e+08
    585000   3.6170775e-11  133736.73      108084.23      8713529.4      3.2956157e-06  5.1767945e-07  2.7779362e-06  1.3406275e+08
    586000   3.6232605e-11  133731.06      108093.49      8708533.4      3.2956037e-06  5.1778505e-07  2.7778186e-06  1.3405989e+08
    587000   3.6294435e-11  133740         108125.32      8700884.6      3.2956069e-06  5.1760261e-07  2.7780043e-06  1.3406353e+08
    588000   3.6356266e-11  133751.85      108142.76      8699027.8      3.295639e-06   5.1738852e-07  2.7782504e-06  1.3407059e+08
    589000   3.6418096e-11  133749.26      108151.78      8695142.1      3.2956359e-06  5.1743935e-07  2.7781966e-06  1.3406916e+08
    590000   3.6479927e-11  133750.6       108160.47      8692686.5      3.2956355e-06  5.17411e-07    2.7782245e-06  1.3406997e+08
    591000   3.6541757e-11  133740.2       108166.02      8687339        3.2956416e-06  5.1763316e-07  2.7780084e-06  1.3406767e+08
    592000   3.6603587e-11  133735.72      108176.92      8682190.4      3.2956398e-06  5.1772451e-07  2.7779153e-06  1.3406664e+08
    593000   3.6665418e-11  133747.36      108212.57      8674172.6      3.2956467e-06  5.1748956e-07  2.7781571e-06  1.3407245e+08
    594000   3.6727248e-11  133731.47      108207.95      8670388.6      3.2956418e-06  5.1781463e-07  2.7778271e-06  1.3406668e+08
    595000   3.6789078e-11  133709.97      108196.49      8667009.8      3.2956525e-06  5.1827194e-07  2.7773805e-06  1.3405962e+08
    596000   3.6850909e-11  133721.29      108223.54      8661758.8      3.2956495e-06  5.1803391e-07  2.7776156e-06  1.3406376e+08
    597000   3.6912739e-11  133724.29      108242.94      8656276.4      3.2956509e-06  5.1797301e-07  2.7776779e-06  1.3406501e+08
    598000   3.697457e-11   133725.46      108255.8       8652366.5      3.2956524e-06  5.179503e-07   2.7777021e-06  1.3406609e+08
    599000   3.70364e-11    133714.76      108252.61      8649847.1      3.2956512e-06  5.1817128e-07  2.7774799e-06  1.3406228e+08
    600000   3.709823e-11   133728.01      108278.4       8645665.9      3.2956587e-06  5.1790353e-07  2.7777551e-06  1.3406811e+08
    601000   3.7160061e-11  133747.49      108305.21      8643232.2      3.2956606e-06  5.1750078e-07  2.7781598e-06  1.3407518e+08
    602000   3.7221891e-11  133738.58      108307.22      8639572.5      3.2956503e-06  5.1767553e-07  2.7779748e-06  1.3407023e+08
    603000   3.7283722e-11  133731.74      108321.28      8632577.1      3.2956416e-06  5.1780894e-07  2.7778327e-06  1.3406609e+08
    604000   3.7345552e-11  133730.96      108353.12      8621666.7      3.2956355e-06  5.1781891e-07  2.7778165e-06  1.3406405e+08
    605000   3.7407382e-11  133746.51      108379.53      8618050.2      3.2956312e-06  5.1749173e-07  2.7781395e-06  1.3406828e+08
    606000   3.7469213e-11  133750.16      108390.08      8615744.3      3.2956192e-06  5.1740397e-07  2.7782152e-06  1.3406818e+08
    607000   3.7531043e-11  133735.63      108385.06      8612549.4      3.2956338e-06  5.1772047e-07  2.7779134e-06  1.3406445e+08
    608000   3.7592873e-11  133729.33      108378.08      8612769.2      3.2956522e-06  5.1786963e-07  2.7777826e-06  1.340646e+08 
    609000   3.7654704e-11  133727.78      108398.09      8605560.3      3.2956434e-06  5.1789293e-07  2.7777505e-06  1.3406507e+08
    610000   3.7716534e-11  133706.37      108390.23      8601002.3      3.2956324e-06  5.1832686e-07  2.7773056e-06  1.3405667e+08
    611000   3.7778365e-11  133724.58      108437.12      8591431.8      3.2956489e-06  5.1796498e-07  2.7776839e-06  1.3406555e+08
    612000   3.7840195e-11  133732.4       108461.88      8585773.3      3.2956462e-06  5.1779982e-07  2.7778464e-06  1.3406813e+08
    613000   3.7902025e-11  133742         108483.7       8581698.9      3.2956394e-06  5.1759351e-07  2.7780459e-06  1.3407083e+08
    614000   3.7963856e-11  133746.58      108498.46      8578299.1      3.2956394e-06  5.1749842e-07  2.778141e-06   1.3407162e+08
    615000   3.8025686e-11  133734.34      108497.43      8574534.2      3.2956447e-06  5.1775806e-07  2.7778866e-06  1.3406624e+08
    616000   3.8087517e-11  133732.29      108513         8568639.6      3.2956417e-06  5.1779756e-07  2.7778441e-06  1.3406449e+08
    617000   3.8149347e-11  133735.76      108533.51      8562945.3      3.2956327e-06  5.1771645e-07  2.7779162e-06  1.3406497e+08
    618000   3.8211177e-11  133736.44      108558.26      8554897.7      3.2956433e-06  5.1771295e-07  2.7779304e-06  1.3406597e+08
    619000   3.8273008e-11  133744.99      108582.48      8549663.6      3.2956354e-06  5.1752754e-07  2.7781079e-06  1.3406892e+08
    620000   3.8334838e-11  133738.63      108594.32      8543569.4      3.2956385e-06  5.1766281e-07  2.7779757e-06  1.3406685e+08
    621000   3.8396668e-11  133728.67      108596.8       8539399.5      3.2956457e-06  5.1787674e-07  2.777769e-06   1.340639e+08 
    622000   3.8458499e-11  133735.67      108621.28      8533559.5      3.2956495e-06  5.1773522e-07  2.7779143e-06  1.3406698e+08
    623000   3.8520329e-11  133736.22      108650.01      8524137.4      3.2956407e-06  5.1771498e-07  2.7779257e-06  1.3406631e+08
    624000   3.858216e-11   133754.29      108678.86      8520548.5      3.2956502e-06  5.1734926e-07  2.778301e-06   1.3407386e+08
    625000   3.864399e-11   133744.92      108685.54      8515172.2      3.2956448e-06  5.1753834e-07  2.7781064e-06  1.3406904e+08
    626000   3.870582e-11   133743.92      108697.88      8510709        3.2956354e-06  5.1754975e-07  2.7780856e-06  1.3406716e+08
    627000   3.8767651e-11  133752.3       108717.97      8506803.2      3.2956379e-06  5.1737813e-07  2.7782598e-06  1.3406967e+08
    628000   3.8829481e-11  133739.77      108721.05      8501569        3.2956407e-06  5.1764127e-07  2.7779994e-06  1.340646e+08 
    629000   3.8891312e-11  133741.5       108736.45      8496998        3.2956493e-06  5.1761389e-07  2.7780354e-06  1.3406708e+08
    630000   3.8953142e-11  133750.86      108752.47      8494778.5      3.2956484e-06  5.1741862e-07  2.7782298e-06  1.3407209e+08
    631000   3.9014972e-11  133744.8       108755.75      8491647.2      3.2956401e-06  5.1753623e-07  2.7781038e-06  1.3407013e+08
    632000   3.9076803e-11  133744.08      108775.13      8484927.6      3.2956441e-06  5.1755518e-07  2.7780889e-06  1.3406963e+08
    633000   3.9138633e-11  133746.73      108786.01      8482176.9      3.2956498e-06  5.1750586e-07  2.778144e-06   1.3406993e+08
    634000   3.9200463e-11  133742.69      108786.16      8480772        3.29564e-06    5.1757983e-07  2.7780602e-06  1.340676e+08 
    635000   3.9262294e-11  133742.8       108797.68      8476955.4      3.2956366e-06  5.1757417e-07  2.7780624e-06  1.3406798e+08
    636000   3.9324124e-11  133744.41      108821.89      8469402.3      3.2956295e-06  5.1753352e-07  2.7780959e-06  1.3406806e+08
    637000   3.9385955e-11  133746.41      108838.01      8464676.3      3.2956365e-06  5.174992e-07   2.7781373e-06  1.340683e+08 
    638000   3.9447785e-11  133743.76      108848.56      8460260        3.2956367e-06  5.1755441e-07  2.7780823e-06  1.3406611e+08
    639000   3.9509615e-11  133744.37      108864.74      8455055.9      3.295645e-06   5.1755004e-07  2.778095e-06   1.3406705e+08
    640000   3.9571446e-11  133742.74      108890.24      8445979.9      3.295631e-06   5.1756976e-07  2.7780612e-06  1.3406625e+08
    641000   3.9633276e-11  133730.57      108892.81      8441037.8      3.2956242e-06  5.1781573e-07  2.7778084e-06  1.3406241e+08
    642000   3.9695107e-11  133727.85      108899.59      8437858.7      3.2956126e-06  5.1786064e-07  2.7777519e-06  1.3406151e+08
    643000   3.9756937e-11  133747.57      108925.98      8435645.5      3.295645e-06   5.1748346e-07  2.7781615e-06  1.3407195e+08
    644000   3.9818767e-11  133725.93      108919.24      8430642.6      3.2956438e-06  5.179318e-07   2.777712e-06   1.3406359e+08
    645000   3.9880598e-11  133742.3       108953.64      8424628        3.2956531e-06  5.1760114e-07  2.778052e-06   1.3407065e+08
    646000   3.9942428e-11  133730.75      108960.68      8418399.4      3.2956397e-06  5.1782773e-07  2.777812e-06   1.3406566e+08
    647000   4.0004258e-11  133723.99      108979.39      8409873.3      3.2956446e-06  5.1797293e-07  2.7776717e-06  1.3406506e+08
    648000   4.0066089e-11  133720.9       108992.38      8404494.5      3.2956528e-06  5.1804523e-07  2.7776076e-06  1.3406526e+08
    649000   4.0127919e-11  133716.32      109001.45      8399923        3.2956499e-06  5.1813751e-07  2.7775123e-06  1.3406258e+08
    650000   4.018975e-11   133726.71      109031.73      8393284.5      3.2956454e-06  5.1791717e-07  2.7777283e-06  1.3406464e+08
    651000   4.025158e-11   133744.04      109059.26      8389887.1      3.295641e-06   5.1755288e-07  2.7780882e-06  1.3406969e+08
    652000   4.031341e-11   133732.28      109063.84      8384409        3.2956309e-06  5.1778707e-07  2.7778438e-06  1.3406429e+08
    653000   4.0375241e-11  133731.21      109070.09      8381963.4      3.295619e-06   5.1779728e-07  2.7778217e-06  1.3406283e+08
    654000   4.0437071e-11  133730.71      109077.35      8379365.4      3.2956268e-06  5.1781565e-07  2.7778112e-06  1.3406248e+08
    655000   4.0498902e-11  133719.82      109072.86      8377213.6      3.2956249e-06  5.1803981e-07  2.7775851e-06  1.3405796e+08
    656000   4.0560732e-11  133723.56      109084.19      8374679.8      3.2956211e-06  5.1795832e-07  2.7776628e-06  1.340601e+08 
    657000   4.0622562e-11  133742.77      109112.02      8371817.3      3.2956208e-06  5.1755899e-07  2.7780618e-06  1.3406895e+08
    658000   4.0684393e-11  133737.79      109118.88      8367852.7      3.295611e-06   5.1765265e-07  2.7779584e-06  1.3406698e+08
    659000   4.0746223e-11  133726.81      109112.16      8366414.9      3.2956204e-06  5.1789024e-07  2.7777302e-06  1.3406361e+08
    660000   4.0808053e-11  133728.49      109126.87      8362059.7      3.2956317e-06  5.1786656e-07  2.7777651e-06  1.3406476e+08
    661000   4.0869884e-11  133729.56      109147.15      8355633.9      3.2956376e-06  5.1785032e-07  2.7777873e-06  1.3406481e+08
    662000   4.0931714e-11  133727.88      109163.55      8349586.7      3.2956444e-06  5.1789189e-07  2.7777525e-06  1.3406436e+08
    663000   4.0993545e-11  133742.05      109188.01      8346160.7      3.2956373e-06  5.1759049e-07  2.7780468e-06  1.3406817e+08
    664000   4.1055375e-11  133732.88      109190.53      8342239.8      3.2956402e-06  5.1778397e-07  2.7778563e-06  1.3406424e+08
    665000   4.1117205e-11  133746.43      109221.11      8336560.4      3.2956252e-06  5.1748728e-07  2.7781379e-06  1.3406777e+08
    666000   4.1179036e-11  133731.15      109224.15      8330414.7      3.2956283e-06  5.1780796e-07  2.7778203e-06  1.3406132e+08
    667000   4.1240866e-11  133748.03      109254.63      8325886.2      3.2956265e-06  5.1745535e-07  2.7781711e-06  1.3406751e+08
    668000   4.1302697e-11  133742.62      109267.72      8319693.1      3.295621e-06   5.1756227e-07  2.7780587e-06  1.3406424e+08
    669000   4.1364527e-11  133752.56      109289.61      8315708.2      3.2956345e-06  5.173694e-07   2.7782651e-06  1.3406861e+08
    670000   4.1426357e-11  133747.48      109296.76      8311609.3      3.2956349e-06  5.1747532e-07  2.7781596e-06  1.3406707e+08
    671000   4.1488188e-11  133727.16      109291.23      8306646        3.2956375e-06  5.178999e-07   2.7777376e-06  1.3406065e+08
    672000   4.1550018e-11  133742.32      109316.83      8303168.3      3.2956394e-06  5.1758692e-07  2.7780525e-06  1.3406873e+08
    673000   4.1611848e-11  133741.12      109329.98      8298367.3      3.2956412e-06  5.1761372e-07  2.7780274e-06  1.3406986e+08
    674000   4.1673679e-11  133730.27      109331.06      8294366.5      3.295639e-06   5.1783695e-07  2.7778021e-06  1.3406671e+08
    675000   4.1735509e-11  133714.78      109338.86      8286562.5      3.2956455e-06  5.1816504e-07  2.7774804e-06  1.3406173e+08
    676000   4.179734e-11   133729.52      109365.21      8282691.9      3.295639e-06   5.1785247e-07  2.7777865e-06  1.3406592e+08
    677000   4.185917e-11   133738.15      109384.62      8279097.6      3.2956454e-06  5.1767969e-07  2.7779657e-06  1.3406805e+08
    678000   4.1921e-11     133737.74      109402.65      8272929.9      3.2956514e-06  5.1769417e-07  2.7779572e-06  1.3406778e+08
    679000   4.1982831e-11  133737.36      109422.31      8266227.1      3.2956556e-06  5.1770612e-07  2.7779495e-06  1.3406787e+08
    680000   4.2044661e-11  133749.07      109444.72      8262660.3      3.2956525e-06  5.1745984e-07  2.7781926e-06  1.3407182e+08
    681000   4.2106492e-11  133747.01      109450.65      8259985.6      3.2956537e-06  5.1750377e-07  2.7781499e-06  1.3407053e+08
    682000   4.2168322e-11  133739.43      109446.69      8258765.4      3.2956469e-06  5.1765451e-07  2.7779924e-06  1.3406692e+08
    683000   4.2230152e-11  133732.16      109448.86      8255603.6      3.29565e-06    5.1780858e-07  2.7778414e-06  1.3406482e+08
    684000   4.2291983e-11  133721.8       109449.95      8251763.7      3.295654e-06   5.180278e-07   2.7776262e-06  1.3406138e+08
    685000   4.2353813e-11  133737.71      109477.16      8247999.7      3.2956513e-06  5.1769463e-07  2.7779567e-06  1.3406705e+08
    686000   4.2415643e-11  133736.29      109485.09      8244872.2      3.2956349e-06  5.1770768e-07  2.7779272e-06  1.3406455e+08
    687000   4.2477474e-11  133730.58      109503.22      8236894.9      3.2956218e-06  5.178132e-07   2.7778086e-06  1.3406114e+08
    688000   4.2539304e-11  133743.73      109529.38      8232552.8      3.2956318e-06  5.1755021e-07  2.7780816e-06  1.3406694e+08
    689000   4.2601135e-11  133740.6       109540.7       8227719.6      3.2956266e-06  5.176099e-07   2.7780167e-06  1.3406487e+08
    690000   4.2662965e-11  133741.89      109556.56      8222846.3      3.2956352e-06  5.1759178e-07  2.7780435e-06  1.3406597e+08
    691000   4.2724795e-11  133740.86      109574.83      8216390.9      3.2956172e-06  5.1759506e-07  2.7780222e-06  1.3406478e+08
    692000   4.2786626e-11  133733.55      109578.21      8212807.4      3.2956331e-06  5.1776282e-07  2.7778702e-06  1.3406464e+08
    693000   4.2848456e-11  133734.58      109593.15      8208156.5      3.295636e-06   5.1774441e-07  2.7778916e-06  1.3406649e+08
    694000   4.2910287e-11  133748.35      109616.69      8204904.2      3.2956384e-06  5.1746076e-07  2.7781776e-06  1.3407177e+08
    695000   4.2972117e-11  133743.62      109627.45      8199719.3      3.2956439e-06  5.1756444e-07  2.7780795e-06  1.3406937e+08
    696000   4.3033947e-11  133721.94      109625.15      8193212.5      3.2956399e-06  5.1801089e-07  2.777629e-06   1.3406023e+08
    697000   4.3095778e-11  133734.15      109654.12      8187622.6      3.2956275e-06  5.1774466e-07  2.7778828e-06  1.3406426e+08
    698000   4.3157608e-11  133736.67      109674.56      8181630.2      3.2956253e-06  5.176903e-07   2.777935e-06   1.3406556e+08
    699000   4.3219438e-11  133741.76      109688.14      8178796.3      3.2956352e-06  5.1759435e-07  2.7780408e-06  1.3406825e+08
    700000   4.3281269e-11  133739.42      109701.89      8173411.4      3.2956379e-06  5.1764584e-07  2.7779921e-06  1.3406722e+08
    701000   4.3343099e-11  133720.54      109695.4       8169251        3.2956352e-06  5.1803508e-07  2.7776001e-06  1.3405923e+08
    702000   4.340493e-11   133747.07      109732.94      8165593.3      3.2956504e-06  5.1749941e-07  2.778151e-06   1.3407052e+08
    703000   4.346676e-11   133733.35      109737.19      8159570        3.2956412e-06  5.1777523e-07  2.777866e-06   1.3406408e+08
    704000   4.352859e-11   133746.02      109749.24      8159792.6      3.2956414e-06  5.1751215e-07  2.7781292e-06  1.3406918e+08
    705000   4.3590421e-11  133744.62      109757.4       8156593.1      3.2956275e-06  5.1752737e-07  2.7781002e-06  1.3406762e+08
    706000   4.3652251e-11  133750.9       109782.93      8150162.5      3.2956433e-06  5.1741255e-07  2.7782307e-06  1.340705e+08 
    707000   4.3714081e-11  133746.75      109787.6       8147208.4      3.2956654e-06  5.1752093e-07  2.7781445e-06  1.3407052e+08
    708000   4.3775912e-11  133733.95      109792.95      8141124.9      3.2956664e-06  5.1778777e-07  2.7778787e-06  1.3406647e+08
    709000   4.3837742e-11  133742.91      109805.05      8140081.4      3.2956633e-06  5.1759874e-07  2.7780646e-06  1.3407018e+08
    710000   4.3899573e-11  133737.82      109814.24      8135302.6      3.295655e-06   5.1769597e-07  2.777959e-06   1.3406818e+08
    711000   4.3961403e-11  133732.58      109819.93      8131639.5      3.2956378e-06  5.1778779e-07  2.77785e-06    1.3406526e+08
    712000   4.4023233e-11  133733.65      109838.67      8125733.5      3.2956566e-06  5.1778424e-07  2.7778723e-06  1.3406774e+08
    713000   4.4085064e-11  133727.87      109856.71      8117759.9      3.2956507e-06  5.1789839e-07  2.7777523e-06  1.3406512e+08
    714000   4.4146894e-11  133728.9       109866.43      8114856.3      3.2956633e-06  5.1788953e-07  2.7777738e-06  1.3406592e+08
    715000   4.4208725e-11  133746.45      109888.46      8113374.4      3.2956646e-06  5.1752652e-07  2.7781381e-06  1.3407322e+08
    716000   4.4270555e-11  133733.82      109894.36      8107164.9      3.2956694e-06  5.1779356e-07  2.7778758e-06  1.3406933e+08
    717000   4.4332385e-11  133724.29      109906.5       8099908.5      3.2956726e-06  5.1799464e-07  2.7776779e-06  1.3406627e+08
    718000   4.4394216e-11  133730.14      109924.65      8095799.4      3.2956568e-06  5.1785738e-07  2.7777994e-06  1.3406737e+08
    719000   4.4456046e-11  133745.33      109956.91      8090104.6      3.2956499e-06  5.1753498e-07  2.7781149e-06  1.3407237e+08
    720000   4.4517876e-11  133739.7       109962.33      8086407.1      3.2956479e-06  5.1764977e-07  2.7779981e-06  1.3406965e+08
    721000   4.4579707e-11  133733.91      109963.64      8084025        3.2956347e-06  5.1775686e-07  2.7778778e-06  1.3406592e+08
    722000   4.4641537e-11  133739.79      109987.12      8078143.4      3.2956203e-06  5.1762044e-07  2.7779999e-06  1.3406687e+08
    723000   4.4703368e-11  133733.67      109997.24      8072707.6      3.2956167e-06  5.1774396e-07  2.7778728e-06  1.3406507e+08
    724000   4.4765198e-11  133724.55      110008.32      8065942        3.2956159e-06  5.1793273e-07  2.7776832e-06  1.3406207e+08
    725000   4.4827028e-11  133730.08      110024.89      8062255.7      3.2956265e-06  5.1782834e-07  2.7777982e-06  1.3406484e+08
    726000   4.4888859e-11  133731.87      110034.34      8059694.9      3.2956319e-06  5.177966e-07   2.7778353e-06  1.3406521e+08
    727000   4.4950689e-11  133723.02      110039.41      8055031.1      3.2956443e-06  5.1799264e-07  2.7776516e-06  1.3406232e+08
    728000   4.501252e-11   133720.29      110042.06      8053227.9      3.295639e-06   5.1804418e-07  2.7775948e-06  1.340602e+08 
    729000   4.507435e-11   133718.27      110044.46      8051747.2      3.2956397e-06  5.1808681e-07  2.7775529e-06  1.3405861e+08
    730000   4.513618e-11   133730.08      110076.85      8044875.7      3.295635e-06   5.178369e-07   2.7777981e-06  1.3406223e+08
    731000   4.5198011e-11  133737.08      110111.03      8035793        3.295634e-06   5.1769045e-07  2.7779436e-06  1.3406501e+08
    732000   4.5259841e-11  133742.85      110129.71      8031484.5      3.2956394e-06  5.1757586e-07  2.7780635e-06  1.3406857e+08
    733000   4.5321671e-11  133734.98      110128.42      8029274.9      3.2956522e-06  5.1775225e-07  2.7778999e-06  1.3406697e+08
    734000   4.5383502e-11  133729.6       110133.59      8025738        3.2956341e-06  5.1784596e-07  2.7777882e-06  1.3406349e+08
    735000   4.5445332e-11  133727.34      110148.45      8020010.4      3.29563e-06    5.1788879e-07  2.7777412e-06  1.3406184e+08
    736000   4.5507163e-11  133733.53      110174.76      8013287.4      3.2956452e-06  5.177754e-07   2.7778698e-06  1.3406539e+08
    737000   4.5568993e-11  133732.57      110185.66      8009319.8      3.2956321e-06  5.177823e-07   2.7778498e-06  1.3406452e+08
    738000   4.5630823e-11  133740.38      110201.12      8006770.6      3.2956387e-06  5.1762667e-07  2.7780121e-06  1.3406857e+08
    739000   4.5692654e-11  133740.13      110220.05      8000353.4      3.295637e-06   5.1763015e-07  2.7780069e-06  1.3406909e+08
    740000   4.5754484e-11  133726.76      110218.27      7996467        3.2956406e-06  5.1791142e-07  2.7777292e-06  1.3406416e+08
    741000   4.5816315e-11  133741.46      110250.18      7990724.8      3.295636e-06   5.1760148e-07  2.7780345e-06  1.3406865e+08
    742000   4.5878145e-11  133749.99      110286.08      7981577.9      3.29562e-06    5.1740829e-07  2.7782117e-06  1.3407032e+08
    743000   4.5939975e-11  133738.68      110295.4       7974670.4      3.2956255e-06  5.176487e-07   2.7779769e-06  1.3406668e+08
    744000   4.6001806e-11  133728.11      110303.47      7968425.5      3.2956375e-06  5.1788024e-07  2.7777572e-06  1.34063e+08  
    745000   4.6063636e-11  133725.21      110315.81      7963325        3.2956489e-06  5.1795182e-07  2.7776971e-06  1.3406225e+08
    746000   4.6125466e-11  133744.15      110348.85      7958625.7      3.2956453e-06  5.1755499e-07  2.7780903e-06  1.3406974e+08
    747000   4.6187297e-11  133728.62      110344.02      7955035.2      3.2956545e-06  5.1788655e-07  2.7777679e-06  1.3406508e+08
    748000   4.6249127e-11  133735.51      110368.42      7949186.1      3.2956596e-06  5.1774867e-07  2.777911e-06   1.3406915e+08
    749000   4.6310958e-11  133729.51      110384.87      7941672.6      3.2956532e-06  5.1786681e-07  2.7777864e-06  1.3406752e+08
    750000   4.6372788e-11  133725.03      110392.19      7937719.7      3.2956571e-06  5.1796371e-07  2.7776934e-06  1.3406633e+08
    751000   4.6434618e-11  133738.71      110416.44      7934196.9      3.2956596e-06  5.1768219e-07  2.7779775e-06  1.3407128e+08
    752000   4.6496449e-11  133732.5       110417.43      7931783.3      3.2956457e-06  5.1779732e-07  2.7778484e-06  1.3406707e+08
    753000   4.6558279e-11  133728.59      110429.63      7926393.4      3.2956456e-06  5.1787835e-07  2.7777672e-06  1.3406465e+08
    754000   4.662011e-11   133727.3       110449.54      7919299.5      3.2956399e-06  5.1789953e-07  2.7777404e-06  1.3406194e+08
    755000   4.668194e-11   133734.22      110470.77      7914520.6      3.2956445e-06  5.1776039e-07  2.7778841e-06  1.3406338e+08
    756000   4.674377e-11   133754.21      110497.68      7912225.9      3.2956332e-06  5.1733385e-07  2.7782994e-06  1.3407025e+08
    757000   4.6805601e-11  133742.14      110502.12      7906696.7      3.2956365e-06  5.1758771e-07  2.7780488e-06  1.3406724e+08
    758000   4.6867431e-11  133732.57      110509.87      7900892.6      3.295637e-06   5.1778709e-07  2.7778499e-06  1.3406448e+08
    759000   4.6929261e-11  133741.51      110531.39      7896692.2      3.2956353e-06  5.1759969e-07  2.7780356e-06  1.3406784e+08
    760000   4.6991092e-11  133746.63      110545.39      7893726.7      3.295631e-06   5.174891e-07   2.7781419e-06  1.3406858e+08
    761000   4.7052922e-11  133751.56      110555.8       7891902.2      3.2956212e-06  5.1737682e-07  2.7782444e-06  1.3406913e+08
    762000   4.7114753e-11  133735.89      110553.45      7887431        3.2956165e-06  5.1769757e-07  2.7779189e-06  1.3406243e+08
    763000   4.7176583e-11  133754.81      110586.14      7882844.6      3.2956348e-06  5.173229e-07   2.7783119e-06  1.3407049e+08
    764000   4.7238413e-11  133764.23      110606.09      7879332.7      3.2956326e-06  5.1712502e-07  2.7785076e-06  1.3407324e+08
    765000   4.7300244e-11  133747.86      110602.42      7875067.5      3.2956366e-06  5.1746913e-07  2.7781675e-06  1.3406694e+08
    766000   4.7362074e-11  133744.06      110606.3       7872495        3.2956395e-06  5.1755088e-07  2.7780886e-06  1.3406591e+08
    767000   4.7423905e-11  133748.64      110622.39      7868651.7      3.2956327e-06  5.1744899e-07  2.7781837e-06  1.3406773e+08
    768000   4.7485735e-11  133744.11      110631.59      7864052.7      3.2956388e-06  5.1754931e-07  2.7780895e-06  1.340672e+08 
    769000   4.7547565e-11  133739.19      110638.12      7860220.7      3.295633e-06   5.1764548e-07  2.7779875e-06  1.3406563e+08
    770000   4.7609396e-11  133744.12      110654.51      7856392.6      3.2956431e-06  5.1755331e-07  2.7780898e-06  1.3406917e+08
    771000   4.7671226e-11  133733.26      110657.76      7851663.4      3.2956335e-06  5.1776916e-07  2.7778643e-06  1.3406482e+08
    772000   4.7733056e-11  133731.53      110662.82      7849389.6      3.2956296e-06  5.178014e-07   2.7778282e-06  1.3406371e+08
    773000   4.7794887e-11  133732.98      110668.68      7847916.2      3.2956356e-06  5.1777723e-07  2.7778584e-06  1.3406453e+08
    774000   4.7856717e-11  133733.33      110685.09      7842545.3      3.295631e-06   5.1776534e-07  2.7778657e-06  1.3406444e+08
    775000   4.7918548e-11  133740.48      110706.77      7837690.5      3.2956447e-06  5.1763051e-07  2.7780142e-06  1.340677e+08 
    776000   4.7980378e-11  133736.96      110716.3       7833324.7      3.2956333e-06  5.1769221e-07  2.7779411e-06  1.3406507e+08
    777000   4.8042208e-11  133741.47      110743.49      7825744.9      3.2956443e-06  5.1760951e-07  2.7780348e-06  1.3406651e+08
    778000   4.8104039e-11  133751.98      110764.13      7822369.4      3.2956546e-06  5.1740139e-07  2.7782532e-06  1.3407028e+08
    779000   4.8165869e-11  133754.82      110781.93      7817366.3      3.2956406e-06  5.1732854e-07  2.778312e-06   1.3407031e+08
    780000   4.82277e-11    133753.25      110791.44      7813657.7      3.2956431e-06  5.1736364e-07  2.7782795e-06  1.3407098e+08
    781000   4.828953e-11   133743.79      110802.41      7806816.1      3.2956238e-06  5.1754084e-07  2.778083e-06   1.3406621e+08
    782000   4.835136e-11   133734.93      110801.86      7804028.8      3.2956257e-06  5.177268e-07   2.7778989e-06  1.3406301e+08
    783000   4.8413191e-11  133743.53      110819.1       7801146.9      3.2956259e-06  5.1754845e-07  2.7780775e-06  1.3406585e+08
    784000   4.8475021e-11  133734.43      110827.23      7795376        3.2956154e-06  5.1772687e-07  2.7778886e-06  1.3406082e+08
    785000   4.8536851e-11  133726.89      110836.32      7789807.4      3.2956143e-06  5.1788234e-07  2.777732e-06   1.3405699e+08
    786000   4.8598682e-11  133741.37      110868.03      7784060.1      3.2956215e-06  5.1758875e-07  2.7780328e-06  1.3406333e+08
    787000   4.8660512e-11  133717.69      110857.67      7779580        3.2956201e-06  5.1807926e-07  2.7775408e-06  1.340547e+08 
    788000   4.8722343e-11  133734.36      110891         7774027.6      3.2956306e-06  5.1774342e-07  2.7778872e-06  1.3406362e+08
    789000   4.8784173e-11  133739.76      110918.1       7766773.5      3.2956242e-06  5.1762498e-07  2.7779993e-06  1.3406524e+08
    790000   4.8846003e-11  133722.54      110914.69      7762135.9      3.2956402e-06  5.1799876e-07  2.7776415e-06  1.3405973e+08
    791000   4.8907834e-11  133725.91      110936.72      7755899.8      3.29564e-06    5.1792837e-07  2.7777116e-06  1.3406148e+08
    792000   4.8969664e-11  133743.25      110963.91      7752622.6      3.2956422e-06  5.175704e-07   2.7780718e-06  1.3406822e+08
    793000   4.9031495e-11  133732.85      110978.96      7744101.6      3.2956436e-06  5.1778791e-07  2.7778557e-06  1.3406473e+08
    794000   4.9093325e-11  133729.14      111004.33      7734372        3.2956704e-06  5.1789172e-07  2.7777787e-06  1.3406626e+08
    795000   4.9155155e-11  133734.26      111025.87      7728885        3.2956585e-06  5.1777345e-07  2.777885e-06   1.3406714e+08
    796000   4.9216986e-11  133737.62      111045.07      7723589.4      3.2956488e-06  5.1769403e-07  2.7779548e-06  1.3406668e+08
    797000   4.9278816e-11  133742.77      111061.9       7719687.2      3.2956471e-06  5.1758537e-07  2.7780617e-06  1.3406812e+08
    798000   4.9340646e-11  133746.95      111075.15      7716662.6      3.2956451e-06  5.1749645e-07  2.7781487e-06  1.3406921e+08
    799000   4.9402477e-11  133750.91      111102.33      7708899.2      3.2956466e-06  5.1741569e-07  2.7782309e-06  1.3407074e+08
    800000   4.9464307e-11  133741.28      111109.77      7703177.4      3.2956366e-06  5.1760586e-07  2.7780307e-06  1.3406774e+08
    801000   4.9526138e-11  133723.77      111107.16      7698178.6      3.295637e-06   5.1796989e-07  2.7776671e-06  1.340618e+08 
    802000   4.9587968e-11  133740.37      111137.56      7693579.2      3.2956472e-06  5.1763532e-07  2.7780118e-06  1.3406932e+08
    803000   4.9649798e-11  133749.42      111155.43      7690638.8      3.295658e-06   5.1745813e-07  2.7781999e-06  1.3407395e+08
    804000   4.9711629e-11  133727.58      111151.34      7684682.5      3.2956358e-06  5.178895e-07   2.7777463e-06  1.340645e+08 
    805000   4.9773459e-11  133729.92      111166.62      7680354.4      3.2956383e-06  5.1784354e-07  2.7777948e-06  1.3406491e+08
    806000   4.983529e-11   133738.84      111196.53      7673342.3      3.2956316e-06  5.1765151e-07  2.7779801e-06  1.3406684e+08
    807000   4.989712e-11   133739.35      111207.36      7669891.9      3.2956363e-06  5.176456e-07   2.7779907e-06  1.3406699e+08
    808000   4.995895e-11   133745.27      111225.49      7665816.2      3.2956472e-06  5.1753355e-07  2.7781136e-06  1.3407011e+08
    809000   5.0020781e-11  133722.5       111218.47      7660524.9      3.2956523e-06  5.1801154e-07  2.7776407e-06  1.3406142e+08
    810000   5.0082611e-11  133730.08      111242.98      7654871.5      3.2956404e-06  5.1784226e-07  2.7777981e-06  1.340627e+08 
    811000   5.0144441e-11  133747.89      111284.14      7647080.1      3.2956369e-06  5.1746873e-07  2.7781682e-06  1.3406702e+08
    812000   5.0206272e-11  133773.84      111318.84      7644178.6      3.2956217e-06  5.1691458e-07  2.7787071e-06  1.3407406e+08
    813000   5.0268102e-11  133754.08      111314.06      7639151.8      3.2956233e-06  5.173266e-07   2.7782967e-06  1.3406667e+08
    814000   5.0329933e-11  133755.41      111328.84      7634653.6      3.2956329e-06  5.1730846e-07  2.7783244e-06  1.3406882e+08
    815000   5.0391763e-11  133743.56      111337.44      7627802.8      3.2956317e-06  5.175535e-07   2.7780782e-06  1.3406535e+08
    816000   5.0453593e-11  133755.26      111367.01      7621835.9      3.2956369e-06  5.1731575e-07  2.7783212e-06  1.3407094e+08
    817000   5.0515424e-11  133753.1       111382.69      7615869.8      3.2956537e-06  5.1737726e-07  2.7782764e-06  1.340717e+08 
    818000   5.0577254e-11  133751.3       111397.17      7610419.1      3.295643e-06   5.1740415e-07  2.7782389e-06  1.340704e+08 
    819000   5.0639085e-11  133741.73      111404.77      7604669.1      3.2956377e-06  5.1759743e-07  2.7780402e-06  1.3406652e+08
    820000   5.0700915e-11  133736.88      111414.41      7599817        3.2956409e-06  5.1770152e-07  2.7779393e-06  1.3406523e+08
    821000   5.0762745e-11  133739.62      111445.06      7590488.2      3.2956374e-06  5.1764097e-07  2.7779964e-06  1.3406623e+08
    822000   5.0824576e-11  133728.41      111449.39      7585280.1      3.2956427e-06  5.1787916e-07  2.7777635e-06  1.3406246e+08
    823000   5.0886406e-11  133733.39      111470.56      7579870        3.2956532e-06  5.1778621e-07  2.777867e-06   1.3406481e+08
    824000   5.0948236e-11  133733.59      111491.05      7573083.7      3.2956396e-06  5.177685e-07   2.7778711e-06  1.3406388e+08
    825000   5.1010067e-11  133743.27      111520.91      7566343.4      3.2956396e-06  5.1756743e-07  2.7780722e-06  1.3406781e+08
    826000   5.1071897e-11  133739.88      111545.04      7557136.7      3.2956261e-06  5.1762431e-07  2.7780018e-06  1.3406446e+08
    827000   5.1133728e-11  133755.52      111565.83      7555430.3      3.2956186e-06  5.1729192e-07  2.7783267e-06  1.3406825e+08
    828000   5.1195558e-11  133771.32      111590.45      7552496.7      3.2956225e-06  5.1696769e-07  2.7786549e-06  1.3407321e+08
    829000   5.1257388e-11  133730.78      111580.1       7542358.1      3.2956068e-06  5.1779411e-07  2.7778127e-06  1.3405671e+08
    830000   5.1319219e-11  133746         111604.78      7539208.7      3.2956227e-06  5.1749381e-07  2.7781289e-06  1.340659e+08 
    831000   5.1381049e-11  133733.93      111609.55      7533567.2      3.2956338e-06  5.1775556e-07  2.7778783e-06  1.340639e+08 
    832000   5.1442879e-11  133727.84      111618.77      7528439.2      3.295627e-06   5.1787538e-07  2.7777516e-06  1.3406213e+08
    833000   5.150471e-11   133732.53      111636.67      7524024.1      3.2956208e-06  5.1777176e-07  2.777849e-06   1.340638e+08 
    834000   5.156654e-11   133722.02      111653.6       7514840.8      3.2956221e-06  5.1799126e-07  2.7776309e-06  1.3405951e+08
    835000   5.1628371e-11  133737.23      111679.19      7511383.2      3.2956315e-06  5.1768474e-07  2.7779467e-06  1.3406476e+08
    836000   5.1690201e-11  133749.78      111700.87      7508340.4      3.2956361e-06  5.1742882e-07  2.7782073e-06  1.3406846e+08
    837000   5.1752031e-11  133755.83      111716.27      7505220.5      3.2956462e-06  5.1731315e-07  2.778333e-06   1.3407038e+08
    838000   5.1813862e-11  133750.11      111740.61      7495163.4      3.2956358e-06  5.174215e-07   2.7782143e-06  1.3406751e+08
    839000   5.1875692e-11  133740.04      111745.1       7490281.5      3.295635e-06   5.1762992e-07  2.7780051e-06  1.3406515e+08
    840000   5.1937523e-11  133732.61      111753.72      7484908        3.2956177e-06  5.1776684e-07  2.7778508e-06  1.3406203e+08
    841000   5.1999353e-11  133729.72      111761.26      7481414.6      3.2956063e-06  5.1781552e-07  2.7777907e-06  1.3406032e+08
    842000   5.2061183e-11  133723.54      111767.11      7477387.2      3.2956301e-06  5.1796768e-07  2.7776624e-06  1.3405975e+08
    843000   5.2123014e-11  133735.02      111795.46      7471756.4      3.2956315e-06  5.1773064e-07  2.7779009e-06  1.3406419e+08
    844000   5.2184844e-11  133739.15      111824.56      7463408.7      3.2956242e-06  5.1763759e-07  2.7779866e-06  1.3406561e+08
    845000   5.2246674e-11  133731.3       111829.7       7459054.3      3.2956249e-06  5.1780141e-07  2.7778235e-06  1.3406328e+08
    846000   5.2308505e-11  133732.18      111858.32      7449780.3      3.2956392e-06  5.1779731e-07  2.7778419e-06  1.3406546e+08
    847000   5.2370335e-11  133730.84      111868.2       7446024.3      3.2956345e-06  5.1782043e-07  2.777814e-06   1.3406535e+08
    848000   5.2432166e-11  133721.74      111878.19      7439633.1      3.2956554e-06  5.1803036e-07  2.777625e-06   1.3406336e+08
    849000   5.2493996e-11  133727.17      111894.94      7435849.2      3.2956626e-06  5.1792491e-07  2.7777377e-06  1.3406524e+08
    850000   5.2555826e-11  133735.39      111926.25      7428137.3      3.295659e-06   5.1775047e-07  2.7779085e-06  1.3406642e+08
    851000   5.2617657e-11  133758.51      111961.08      7424242.8      3.2956517e-06  5.1726305e-07  2.7783886e-06  1.3407396e+08
    852000   5.2679487e-11  133745.17      111968.31      7417348.6      3.295639e-06   5.175274e-07   2.7781116e-06  1.3406826e+08
    853000   5.2741318e-11  133748.56      111981.64      7414029        3.2956303e-06  5.1744826e-07  2.778182e-06   1.3406976e+08
    854000   5.2803148e-11  133729.41      111974.76      7409906.7      3.2956474e-06  5.1786326e-07  2.7777842e-06  1.3406545e+08
    855000   5.2864978e-11  133727.45      111994.39      7402682.8      3.2956522e-06  5.1790858e-07  2.7777436e-06  1.3406647e+08
    856000   5.2926809e-11  133724.72      112001.79      7399293.8      3.2956474e-06  5.1796063e-07  2.7776868e-06  1.3406555e+08
    857000   5.2988639e-11  133736.53      112026.55      7394972.5      3.2956538e-06  5.1772173e-07  2.7779321e-06  1.3407033e+08
    858000   5.3050469e-11  133735.52      112032.64      7392600.6      3.2956648e-06  5.1775356e-07  2.7779113e-06  1.3406931e+08
    859000   5.31123e-11    133741.01      112053.49      7387469        3.2956646e-06  5.1763931e-07  2.7780253e-06  1.3407063e+08
    860000   5.317413e-11   133727.31      112052.32      7383262        3.295661e-06   5.1792038e-07  2.7777406e-06  1.3406587e+08
    861000   5.3235961e-11  133737.72      112081.23      7377083.7      3.2956569e-06  5.1770006e-07  2.7779568e-06  1.3407029e+08
    862000   5.3297791e-11  133743.2       112108.87      7369681        3.2956621e-06  5.1759125e-07  2.7780708e-06  1.3407333e+08
    863000   5.3359621e-11  133741.1       112125.56      7363395.1      3.2956681e-06  5.1764094e-07  2.7780272e-06  1.3407299e+08
    864000   5.3421452e-11  133732.16      112125.58      7360388.8      3.2956642e-06  5.1782271e-07  2.7778415e-06  1.3406926e+08
    865000   5.3483282e-11  133731.66      112142.08      7354701.3      3.2956663e-06  5.178353e-07   2.777831e-06   1.3406835e+08
    866000   5.3545113e-11  133739.65      112158.85      7351776        3.2956618e-06  5.1766474e-07  2.7779971e-06  1.3406938e+08
    867000   5.3606943e-11  133728.1       112165.33      7345731.6      3.2956738e-06  5.1791682e-07  2.777757e-06   1.3406455e+08
    868000   5.3668773e-11  133738.76      112191.69      7340490.8      3.2956705e-06  5.1769203e-07  2.7779784e-06  1.340681e+08 
    869000   5.3730604e-11  133752.53      112209.5       7339154.7      3.295661e-06   5.1739652e-07  2.7782645e-06  1.3407287e+08
    870000   5.3792434e-11  133737.21      112208.35      7334401.8      3.2956552e-06  5.1770892e-07  2.7779463e-06  1.3406699e+08
    871000   5.3854264e-11  133739.78      112226.67      7329135.3      3.2956574e-06  5.1765765e-07  2.7779997e-06  1.3406892e+08
    872000   5.3916095e-11  133762.75      112261.61      7325153.9      3.2956564e-06  5.1717962e-07  2.7784768e-06  1.3407764e+08
    873000   5.3977925e-11  133742.03      112249.8       7322153.7      3.2956465e-06  5.1760009e-07  2.7780464e-06  1.3406855e+08
    874000   5.4039756e-11  133726.94      112246.43      7318220        3.2956451e-06  5.1791201e-07  2.7777331e-06  1.3406231e+08
    875000   5.4101586e-11  133741.48      112277.1       7312839.7      3.2956338e-06  5.1759886e-07  2.7780349e-06  1.3406668e+08
    876000   5.4163416e-11  133728.3       112288.24      7304691.6      3.2956308e-06  5.1786969e-07  2.7777611e-06  1.3406042e+08
    877000   5.4225247e-11  133743.64      112318.45      7299736.3      3.2956182e-06  5.1753823e-07  2.7780799e-06  1.3406483e+08
    878000   5.4287077e-11  133739.72      112325.33      7296119.4      3.2956133e-06  5.176149e-07   2.7779984e-06  1.3406169e+08
    879000   5.4348908e-11  133755.28      112351.76      7292497.7      3.2956272e-06  5.1730552e-07  2.7783216e-06  1.3406791e+08
    880000   5.4410738e-11  133755         112369.74      7286390.9      3.2956286e-06  5.1731277e-07  2.7783158e-06  1.340674e+08 
    881000   5.4472568e-11  133756.23      112395.28      7278263.4      3.2956286e-06  5.1728718e-07  2.7783414e-06  1.3406866e+08
    882000   5.4534399e-11  133737.3       112392.91      7272702.5      3.2956368e-06  5.1768872e-07  2.7779481e-06  1.3406431e+08
    883000   5.4596229e-11  133721.75      112390.22      7268388.6      3.2956213e-06  5.1799613e-07  2.7776252e-06  1.3405912e+08
    884000   5.4658059e-11  133724.68      112415.64      7260868.7      3.295625e-06   5.1793909e-07  2.7776859e-06  1.3406139e+08
    885000   5.471989e-11   133721         112430.18      7254775.2      3.2956279e-06  5.1801821e-07  2.7776097e-06  1.3406093e+08
    886000   5.478172e-11   133720.69      112438.28      7251961        3.2956292e-06  5.1802601e-07  2.7776032e-06  1.3406202e+08
    887000   5.4843551e-11  133718.4       112444.46      7249123.1      3.2956317e-06  5.1807622e-07  2.7775555e-06  1.3406148e+08
    888000   5.4905381e-11  133708.68      112451.4       7243542        3.2956387e-06  5.182851e-07   2.7773536e-06  1.3405767e+08
    889000   5.4967211e-11  133724.86      112470.08      7242722.6      3.2956359e-06  5.1794613e-07  2.7776898e-06  1.3406369e+08
    890000   5.5029042e-11  133713.46      112476.59      7236719.8      3.2956253e-06  5.181724e-07   2.7774529e-06  1.3405909e+08
    891000   5.5090872e-11  133724.65      112501.05      7232292.4      3.2956302e-06  5.179449e-07   2.7776853e-06  1.3406408e+08
    892000   5.5152703e-11  133731.75      112522.48      7227509.4      3.2956252e-06  5.1779238e-07  2.7778328e-06  1.3406549e+08
    893000   5.5214533e-11  133733.97      112536.92      7223422.8      3.2956372e-06  5.177583e-07   2.7778789e-06  1.3406587e+08
    894000   5.5276363e-11  133727.23      112539.48      7220305.1      3.2956368e-06  5.1789791e-07  2.7777389e-06  1.3406237e+08
    895000   5.5338194e-11  133732.55      112558.01      7215896.5      3.2956464e-06  5.1779677e-07  2.7778496e-06  1.3406575e+08
    896000   5.5400024e-11  133718.97      112563.69      7209440.3      3.2956293e-06  5.180619e-07   2.7775674e-06  1.340595e+08 
    897000   5.5461854e-11  133726.98      112578.44      7207193.2      3.2956205e-06  5.1788675e-07  2.7777338e-06  1.3406125e+08
    898000   5.5523685e-11  133729.73      112593.96      7202923.8      3.2956343e-06  5.1784347e-07  2.7777909e-06  1.3406261e+08
    899000   5.5585515e-11  133736.07      112615.16      7197963.9      3.2956263e-06  5.1770372e-07  2.7779226e-06  1.3406338e+08
    900000   5.5647346e-11  133736.35      112626.39      7194299.5      3.2956116e-06  5.1768323e-07  2.7779284e-06  1.3406137e+08
    901000   5.5709176e-11  133746.92      112654.08      7188584.6      3.2956128e-06  5.1746483e-07  2.7781479e-06  1.3406444e+08
    902000   5.5771006e-11  133748.98      112675.38      7182154.2      3.2956032e-06  5.1741235e-07  2.7781908e-06  1.3406411e+08
    903000   5.5832837e-11  133747.8       112683.39      7179077.5      3.2956044e-06  5.1743805e-07  2.7781663e-06  1.340639e+08 
    904000   5.5894667e-11  133728.88      112687.5       7171356.7      3.2956104e-06  5.1783704e-07  2.7777734e-06  1.3405669e+08
    905000   5.5956498e-11  133746.03      112729.33      7163119        3.2956066e-06  5.1747715e-07  2.7781294e-06  1.340614e+08 
    906000   5.6018328e-11  133777.87      112770.17      7160141.3      3.2956144e-06  5.1682356e-07  2.7787908e-06  1.3407231e+08
    907000   5.6080158e-11  133763.78      112767.97      7156152.8      3.2956238e-06  5.1712561e-07  2.7784982e-06  1.3406811e+08
    908000   5.6141989e-11  133733.81      112747.32      7153004.1      3.2956206e-06  5.1774491e-07  2.7778757e-06  1.3405919e+08
    909000   5.6203819e-11  133731.24      112760.26      7147815.5      3.2956147e-06  5.1779247e-07  2.7778223e-06  1.3405978e+08
    910000   5.6265649e-11  133730.16      112772.29      7143430.1      3.2956191e-06  5.1781924e-07  2.7777999e-06  1.3405946e+08
    911000   5.632748e-11   133744.82      112796.33      7140304.5      3.2956177e-06  5.175134e-07   2.7781043e-06  1.3406397e+08
    912000   5.638931e-11   133730.34      112791.26      7137143.8      3.2956185e-06  5.17815e-07    2.7778035e-06  1.3405839e+08
    913000   5.6451141e-11  133726.31      112802.32      7132090.3      3.2956231e-06  5.1790332e-07  2.7777198e-06  1.3405802e+08
    914000   5.6512971e-11  133742.8       112825.19      7129976.5      3.2956163e-06  5.1755376e-07  2.7780625e-06  1.340651e+08 
    915000   5.6574801e-11  133734.76      112837.46      7123178.5      3.2956004e-06  5.177049e-07   2.7778955e-06  1.3406289e+08
    916000   5.6636632e-11  133723.06      112832.83      7120798.7      3.2956165e-06  5.1796407e-07  2.7776524e-06  1.3406119e+08
    917000   5.6698462e-11  133730.02      112851.16      7117004.4      3.2956373e-06  5.1784036e-07  2.777797e-06   1.3406571e+08
    918000   5.6760293e-11  133726.04      112870.42      7109228.1      3.2956313e-06  5.1791705e-07  2.7777143e-06  1.3406291e+08
    919000   5.6822123e-11  133730.29      112902.28      7099999.4      3.2956316e-06  5.1782906e-07  2.7778026e-06  1.3406423e+08
    920000   5.6883953e-11  133724.79      112910.76      7095314.6      3.295627e-06   5.1793875e-07  2.7776883e-06  1.3406221e+08
    921000   5.6945784e-11  133727.65      112928.82      7090235.6      3.2956492e-06  5.1790154e-07  2.7777476e-06  1.3406566e+08
    922000   5.7007614e-11  133728.17      112949.22      7083588.6      3.2956456e-06  5.178871e-07   2.7777585e-06  1.3406504e+08
    923000   5.7069444e-11  133735.09      112967.27      7079872.3      3.2956621e-06  5.1775986e-07  2.7779023e-06  1.3406947e+08
    924000   5.7131275e-11  133741.5       112985.97      7075766.5      3.2956695e-06  5.1763418e-07  2.7780354e-06  1.3407288e+08
    925000   5.7193105e-11  133741.92      112990.38      7074433.9      3.2956762e-06  5.1763202e-07  2.7780441e-06  1.3407359e+08
    926000   5.7254936e-11  133719.6       112985.6       7068545.9      3.2956838e-06  5.1810335e-07  2.7775804e-06  1.3406529e+08
    927000   5.7316766e-11  133724.59      113001.92      7064762.6      3.2956762e-06  5.1799199e-07  2.7776842e-06  1.340665e+08 
    928000   5.7378596e-11  133736.92      113021.71      7062278.1      3.29568e-06    5.1773976e-07  2.7779402e-06  1.3407141e+08
    929000   5.7440427e-11  133734.01      113029.41      7058727.7      3.2956988e-06  5.1781887e-07  2.7778799e-06  1.3407289e+08
    930000   5.7502257e-11  133731.19      113039.6       7054375.2      3.2956904e-06  5.1786911e-07  2.7778212e-06  1.3407251e+08
    931000   5.7564088e-11  133726.04      113039.45      7052698.3      3.2956835e-06  5.1796914e-07  2.7777144e-06  1.3407056e+08
    932000   5.7625918e-11  133714.02      113037.42      7049343.4      3.2956863e-06  5.1822167e-07  2.7774647e-06  1.3406585e+08
    933000   5.7687748e-11  133720.74      113054.5       7045884.4      3.2956737e-06  5.1806958e-07  2.7776041e-06  1.3406695e+08
    934000   5.7749579e-11  133728.46      113076.74      7041036.4      3.295669e-06   5.1790458e-07  2.7777645e-06  1.3406849e+08
    935000   5.7811409e-11  133726.19      113098.12      7033123.8      3.2956682e-06  5.1795092e-07  2.7777173e-06  1.3406742e+08
    936000   5.7873239e-11  133713.4       113097.04      7029195.9      3.2956525e-06  5.1820079e-07  2.7774517e-06  1.3406175e+08
    937000   5.793507e-11   133720.83      113117.86      7024725.3      3.2956432e-06  5.180371e-07   2.7776061e-06  1.3406407e+08
    938000   5.79969e-11    133730.32      113144.7       7018932.7      3.2956457e-06  5.1784252e-07  2.7778032e-06  1.3406758e+08
    939000   5.8058731e-11  133730.44      113170.55      7010327.1      3.2956598e-06  5.1785411e-07  2.7778057e-06  1.3406815e+08
    940000   5.8120561e-11  133731.81      113188.74      7004702.8      3.2956733e-06  5.1783915e-07  2.7778341e-06  1.3406936e+08
    941000   5.8182391e-11  133732.51      113199.57      7001315.4      3.2956608e-06  5.1781221e-07  2.7778486e-06  1.3406862e+08
    942000   5.8244222e-11  133740.2       113225.14      6995342.5      3.295651e-06   5.1764265e-07  2.7780084e-06  1.3407059e+08
    943000   5.8306052e-11  133737.82      113233.24      6991835.2      3.2956552e-06  5.1769626e-07  2.7779589e-06  1.340693e+08 
    944000   5.8367883e-11  133745.52      113251.41      6988340.9      3.2956553e-06  5.1753646e-07  2.7781188e-06  1.3407163e+08
    945000   5.8429713e-11  133741.12      113260.39      6983862.6      3.2956727e-06  5.1764517e-07  2.7780276e-06  1.3407069e+08
    946000   5.8491543e-11  133726.78      113259.55      6979333.4      3.2956703e-06  5.1794062e-07  2.7777297e-06  1.3406498e+08
    947000   5.8553374e-11  133728.99      113284.6       6971695.9      3.2956702e-06  5.1789465e-07  2.7777755e-06  1.3406642e+08
    948000   5.8615204e-11  133717.52      113293.06      6965020.3      3.2956684e-06  5.1813113e-07  2.7775372e-06  1.3406205e+08
    949000   5.8677034e-11  133732.61      113319.18      6961344.3      3.2956479e-06  5.1779725e-07  2.7778506e-06  1.3406621e+08
    950000   5.8738865e-11  133730.53      113336         6955022.5      3.2956416e-06  5.1783419e-07  2.7778075e-06  1.3406435e+08
    951000   5.8800695e-11  133747.01      113358.13      6953150.8      3.2956235e-06  5.1747365e-07  2.7781499e-06  1.3406775e+08
    952000   5.8862526e-11  133741.33      113375.3       6945501.1      3.2956224e-06  5.1759057e-07  2.7780319e-06  1.3406389e+08
    953000   5.8924356e-11  133764.47      113405.61      6943129.1      3.2956163e-06  5.171037e-07   2.7785126e-06  1.3407178e+08
    954000   5.8986186e-11  133759.28      113412.45      6939099.3      3.2956149e-06  5.1721022e-07  2.7784047e-06  1.3406991e+08
    955000   5.9048017e-11  133742.11      113409.8       6934224.2      3.2956342e-06  5.1758612e-07  2.7780481e-06  1.340652e+08 
    956000   5.9109847e-11  133748.25      113434.85      6927904.1      3.2956166e-06  5.1744106e-07  2.7781755e-06  1.3406591e+08
    957000   5.9171677e-11  133744.71      113448.74      6922074.9      3.2956351e-06  5.1753291e-07  2.7781022e-06  1.3406593e+08
    958000   5.9233508e-11  133751.09      113471.51      6916598.4      3.2956493e-06  5.1741467e-07  2.7782346e-06  1.3406958e+08
    959000   5.9295338e-11  133749.7       113492.05      6909264        3.2956525e-06  5.1744678e-07  2.7782057e-06  1.3406939e+08
    960000   5.9357169e-11  133744.73      113498.07      6905583.2      3.2956496e-06  5.1754703e-07  2.7781025e-06  1.3406779e+08
    961000   5.9418999e-11  133735         113511.12      6897953.2      3.2956438e-06  5.1774343e-07  2.7779004e-06  1.3406422e+08
    962000   5.9480829e-11  133733.35      113528.59      6891559.7      3.2956322e-06  5.1776597e-07  2.7778662e-06  1.3406302e+08
    963000   5.954266e-11   133744.2       113548.75      6888457.5      3.2956201e-06  5.1752851e-07  2.7780915e-06  1.3406676e+08
    964000   5.960449e-11   133733.45      113555.03      6882747.2      3.2956302e-06  5.1776215e-07  2.7778681e-06  1.3406343e+08
    965000   5.9666321e-11  133724.29      113554.86      6879735        3.2956269e-06  5.1794898e-07  2.777678e-06   1.3405978e+08
    966000   5.9728151e-11  133729.84      113567.39      6877404        3.2956317e-06  5.1783849e-07  2.7777932e-06  1.3406281e+08
    967000   5.9789981e-11  133731.73      113578.68      6874260        3.2956362e-06  5.1780388e-07  2.7778324e-06  1.3406491e+08
    968000   5.9851812e-11  133722.95      113594.95      6865875.8      3.295638e-06   5.1798793e-07  2.7776501e-06  1.3406234e+08
    969000   5.9913642e-11  133728.93      113613.48      6861686.5      3.2956547e-06  5.178803e-07   2.7777744e-06  1.3406631e+08
    970000   5.9975472e-11  133711.1       113604.65      6858657        3.2956467e-06  5.1824284e-07  2.7774039e-06  1.3405874e+08
    971000   6.0037303e-11  133736.29      113652.26      6851183.3      3.2956382e-06  5.1771102e-07  2.7779272e-06  1.3406734e+08
    972000   6.0099133e-11  133726.84      113654.34      6847316        3.2956471e-06  5.1791624e-07  2.7777308e-06  1.3406367e+08
    973000   6.0160964e-11  133738.13      113673.24      6844782.6      3.2956497e-06  5.1768441e-07  2.7779653e-06  1.3406738e+08
    974000   6.0222794e-11  133731.75      113672.38      6842930.2      3.2956488e-06  5.1781593e-07  2.7778328e-06  1.3406487e+08
    975000   6.0284624e-11  133730.98      113688.34      6837335.3      3.2956545e-06  5.178376e-07   2.7778169e-06  1.3406645e+08
    976000   6.0346455e-11  133721.47      113691.96      6832936        3.2956382e-06  5.180188e-07   2.7776194e-06  1.3406277e+08
    977000   6.0408285e-11  133723.94      113707.66      6828512.8      3.2956381e-06  5.1796741e-07  2.7776707e-06  1.3406419e+08
    978000   6.0470116e-11  133719.78      113712.87      6825372.8      3.2956554e-06  5.1807117e-07  2.7775842e-06  1.3406413e+08
    979000   6.0531946e-11  133718.47      113724.07      6821186.1      3.2956616e-06  5.181047e-07   2.7775569e-06  1.3406391e+08
    980000   6.0593776e-11  133724.64      113734.76      6819683.3      3.295659e-06   5.1797378e-07  2.7776852e-06  1.3406568e+08
    981000   6.0655607e-11  133727.2       113747.08      6816422.5      3.2956679e-06  5.1792956e-07  2.7777384e-06  1.3406805e+08
    982000   6.0717437e-11  133732.61      113773.32      6809460.3      3.2956666e-06  5.1781589e-07  2.7778507e-06  1.3407083e+08
    983000   6.0779267e-11  133717         113776.39      6803198.7      3.2956562e-06  5.1812959e-07  2.7775266e-06  1.3406416e+08
    984000   6.0841098e-11  133716.69      113795.08      6796842.9      3.2956541e-06  5.1813407e-07  2.7775201e-06  1.3406289e+08
    985000   6.0902928e-11  133714.36      113807.5       6791906.9      3.2956639e-06  5.1819231e-07  2.7774716e-06  1.3406048e+08
    986000   6.0964759e-11  133721.75      113829.19      6787134.6      3.2956606e-06  5.1803535e-07  2.7776252e-06  1.3406118e+08
    987000   6.1026589e-11  133740.13      113867.32      6780544.9      3.2956618e-06  5.176549e-07   2.7780069e-06  1.3406779e+08
    988000   6.1088419e-11  133743.71      113892.52      6773317.9      3.2956545e-06  5.1757316e-07  2.7780814e-06  1.3406966e+08
    989000   6.115025e-11   133724.56      113892.27      6766975.4      3.2956567e-06  5.179733e-07   2.7776834e-06  1.3406341e+08
    990000   6.121208e-11   133726.39      113900.22      6764930.5      3.295639e-06   5.1791758e-07  2.7777215e-06  1.3406239e+08
    991000   6.1273911e-11  133721.3       113911.31      6759519.5      3.2956262e-06  5.1801034e-07  2.7776159e-06  1.3405948e+08
    992000   6.1335741e-11  133721.55      113924.38      6755228.5      3.2956407e-06  5.1801975e-07  2.7776209e-06  1.3406037e+08
    993000   6.1397571e-11  133725.09      113948.33      6748405.6      3.2956438e-06  5.1794929e-07  2.7776945e-06  1.3406211e+08
    994000   6.1459402e-11  133725.17      113958.35      6745084.2      3.2956241e-06  5.1792788e-07  2.7776962e-06  1.3406112e+08
    995000   6.1521232e-11  133736.09      113978.34      6742059        3.2956313e-06  5.1770837e-07  2.777923e-06   1.3406571e+08
    996000   6.1583062e-11  133728.99      113979.29      6739361        3.2956417e-06  5.1786619e-07  2.7777755e-06  1.3406245e+08
    997000   6.1644893e-11  133737.41      113998.28      6735834        3.2956426e-06  5.1769219e-07  2.7779504e-06  1.3406478e+08
    998000   6.1706723e-11  133750.07      114028.63      6729930.7      3.2956446e-06  5.1743117e-07  2.7782134e-06  1.3406946e+08
    999000   6.1768554e-11  133741.77      114033         6725683.6      3.2956526e-06  5.1761155e-07  2.778041e-06   1.3406758e+08
   1000000   6.1830384e-11  133741.34      114044.8       6721593.9      3.2956551e-06  5.1762296e-07  2.7780321e-06  1.3406873e+08
   1001000   6.1892214e-11  133731.67      114050.18      6716550.4      3.2956575e-06  5.1782631e-07  2.7778312e-06  1.3406595e+08
   1002000   6.1954045e-11  133739.03      114074.3       6710953.2      3.2956587e-06  5.1767462e-07  2.7779841e-06  1.3406905e+08
   1003000   6.2015875e-11  133736.26      114085.86      6706159.4      3.2956534e-06  5.1772686e-07  2.7779265e-06  1.3406823e+08
   1004000   6.2077706e-11  133731.03      114102.08      6698980.6      3.2956557e-06  5.1783774e-07  2.777818e-06   1.3406725e+08
   1005000   6.2139536e-11  133724.36      114110.7       6693857.8      3.2956485e-06  5.1796916e-07  2.7776794e-06  1.3406426e+08
   1006000   6.2201366e-11  133723.94      114126.55      6688414.8      3.2956563e-06  5.1798577e-07  2.7776705e-06  1.3406339e+08
   1007000   6.2263197e-11  133735.02      114143.83      6686352.4      3.2956552e-06  5.1775452e-07  2.7779007e-06  1.3406657e+08
   1008000   6.2325027e-11  133731.75      114151.95      6682541.4      3.2956487e-06  5.1781584e-07  2.7778329e-06  1.3406478e+08
   1009000   6.2386857e-11  133743.03      114166.33      6681514.4      3.2956519e-06  5.1758482e-07  2.7780671e-06  1.3406955e+08
   1010000   6.2448688e-11  133750.67      114183.06      6678482.7      3.2956355e-06  5.1740963e-07  2.7782259e-06  1.3407094e+08
   1011000   6.2510518e-11  133730.99      114167.89      6676958        3.295641e-06   5.178238e-07   2.7778172e-06  1.3406303e+08
   1012000   6.2572349e-11  133756.32      114204.45      6673223.9      3.2956432e-06  5.1730001e-07  2.7783432e-06  1.3407208e+08
   1013000   6.2634179e-11  133762.65      114214.85      6671870.8      3.2956431e-06  5.1716828e-07  2.7784748e-06  1.3407398e+08
   1014000   6.2696009e-11  133751.93      114217.64      6667341        3.2956344e-06  5.173824e-07   2.778252e-06   1.340697e+08 
   1015000   6.275784e-11   133746.98      114223.84      6663609.3      3.2956421e-06  5.1749281e-07  2.7781493e-06  1.3406925e+08
   1016000   6.281967e-11   133742.67      114230.97      6659776.1      3.2956499e-06  5.1759028e-07  2.7780596e-06  1.340691e+08 
   1017000   6.2881501e-11  133722.24      114229.94      6653266.4      3.2956551e-06  5.1801979e-07  2.7776353e-06  1.3406145e+08
   1018000   6.2943331e-11  133740.62      114264.57      6647853.2      3.2956568e-06  5.1763973e-07  2.7780171e-06  1.3406793e+08
   1019000   6.3005161e-11  133747.55      114286.55      6642825.5      3.295645e-06   5.1748389e-07  2.7781611e-06  1.340697e+08 
   1020000   6.3066992e-11  133738.77      114287.73      6639487.4      3.295644e-06   5.1766528e-07  2.7779788e-06  1.3406645e+08
   1021000   6.3128822e-11  133739.3       114299.44      6635746.7      3.2956343e-06  5.1764466e-07  2.7779896e-06  1.3406541e+08
   1022000   6.3190652e-11  133730.69      114303.51      6631497.2      3.2956431e-06  5.1783233e-07  2.7778108e-06  1.3406214e+08
   1023000   6.3252483e-11  133737.88      114320.74      6628144.8      3.2956324e-06  5.1767222e-07  2.7779602e-06  1.3406413e+08
   1024000   6.3314313e-11  133748.34      114346.85      6622920.9      3.295627e-06   5.1744954e-07  2.7781774e-06  1.3406874e+08
   1025000   6.3376144e-11  133739.85      114351.61      6618482.8      3.2956155e-06  5.1761434e-07  2.7780012e-06  1.3406575e+08
   1026000   6.3437974e-11  133727.37      114352.37      6614043.2      3.295616e-06   5.178741e-07   2.7777419e-06  1.3406187e+08
   1027000   6.3499804e-11  133732.01      114370.62      6609496.8      3.2956316e-06  5.1779331e-07  2.7778383e-06  1.3406566e+08
   1028000   6.3561635e-11  133718.66      114369.8       6605291.1      3.2956376e-06  5.1807662e-07  2.777561e-06   1.3406049e+08
   1029000   6.3623465e-11  133728.86      114389.51      6602121.4      3.2956405e-06  5.1786774e-07  2.7777728e-06  1.340637e+08 
   1030000   6.3685296e-11  133731.99      114407.28      6597227.8      3.2956355e-06  5.1779768e-07  2.7778378e-06  1.3406388e+08
   1031000   6.3747126e-11  133738.6       114428.85      6592233        3.2956339e-06  5.1765867e-07  2.7779752e-06  1.3406621e+08
   1032000   6.3808956e-11  133735.55      114430.84      6590543.2      3.2956277e-06  5.1771576e-07  2.7779119e-06  1.3406459e+08
   1033000   6.3870787e-11  133721.2       114430.37      6585886.9      3.2956169e-06  5.180032e-07   2.7776137e-06  1.3405839e+08
   1034000   6.3932617e-11  133728.81      114458.1       6579164.6      3.2956428e-06  5.1787104e-07  2.7777718e-06  1.3406419e+08
   1035000   6.3994447e-11  133726.84      114468.09      6575161.6      3.2956372e-06  5.179064e-07   2.7777308e-06  1.3406335e+08
   1036000   6.4056278e-11  133726.48      114471.08      6574041.7      3.295633e-06   5.1790963e-07  2.7777234e-06  1.3406319e+08
   1037000   6.4118108e-11  133718         114467.64      6572346.7      3.2956311e-06  5.1808389e-07  2.7775472e-06  1.3405997e+08
   1038000   6.4179939e-11  133715.87      114483.95      6566178.9      3.2956325e-06  5.1812953e-07  2.7775029e-06  1.3405941e+08
   1039000   6.4241769e-11  133723.22      114513.86      6558639.4      3.295644e-06   5.1798836e-07  2.7776556e-06  1.3406268e+08
   1040000   6.4303599e-11  133728.62      114538.68      6552151.7      3.2956334e-06  5.1786554e-07  2.7777679e-06  1.3406277e+08
   1041000   6.436543e-11   133738.87      114571.69      6544552.6      3.2956182e-06  5.1763735e-07  2.7779809e-06  1.3406381e+08
   1042000   6.442726e-11   133740.54      114587.66      6539768.7      3.2956237e-06  5.1760824e-07  2.7780154e-06  1.340633e+08 
   1043000   6.4489091e-11  133734.17      114588.58      6537325.3      3.2956221e-06  5.1773895e-07  2.7778832e-06  1.340608e+08 
   1044000   6.4550921e-11  133748.59      114618.89      6532023.5      3.2956143e-06  5.1743166e-07  2.7781826e-06  1.3406678e+08
   1045000   6.4612751e-11  133753.6       114639.25      6526897.7      3.2956163e-06  5.1732951e-07  2.7782868e-06  1.3406934e+08
   1046000   6.4674582e-11  133737.81      114636.95      6522367        3.2956264e-06  5.1766776e-07  2.7779587e-06  1.3406463e+08
   1047000   6.4736412e-11  133742.21      114649.66      6519593.8      3.2956309e-06  5.1758084e-07  2.7780501e-06  1.3406745e+08
   1048000   6.4798242e-11  133729.21      114659.01      6512107.5      3.2956392e-06  5.1785903e-07  2.7777802e-06  1.3406342e+08
   1049000   6.4860073e-11  133732.85      114677.64      6507098.4      3.2956304e-06  5.1777462e-07  2.7778558e-06  1.3406486e+08
   1050000   6.4921903e-11  133728.29      114679.33      6505002.6      3.2956415e-06  5.1788048e-07  2.777761e-06   1.3406394e+08
   1051000   6.4983734e-11  133726.56      114690.29      6500757.6      3.295631e-06   5.1790589e-07  2.7777251e-06  1.3406267e+08
   1052000   6.5045564e-11  133729.15      114705.52      6496530.6      3.2956374e-06  5.178586e-07   2.7777788e-06  1.3406403e+08
   1053000   6.5107394e-11  133748.05      114738.08      6491981.3      3.2956471e-06  5.1747556e-07  2.7781715e-06  1.3407207e+08
   1054000   6.5169225e-11  133737.38      114753.59      6483214.9      3.2956356e-06  5.1768584e-07  2.7779497e-06  1.3406683e+08
   1055000   6.5231055e-11  133736.07      114770.87      6476993.6      3.295628e-06   5.1770546e-07  2.7779225e-06  1.3406513e+08
   1056000   6.5292886e-11  133747.16      114799.51      6471140.4      3.295646e-06   5.1749296e-07  2.778153e-06   1.3406998e+08
   1057000   6.5354716e-11  133739.82      114808.14      6465786.4      3.2956572e-06  5.1765682e-07  2.7780004e-06  1.3406795e+08
   1058000   6.5416546e-11  133740.23      114821.09      6461592.7      3.2956561e-06  5.1764713e-07  2.7780089e-06  1.3406808e+08
   1059000   6.5478377e-11  133741.73      114830.36      6458999.3      3.2956435e-06  5.1760332e-07  2.7780402e-06  1.3406756e+08
   1060000   6.5540207e-11  133732.45      114835.74      6454088        3.2956437e-06  5.1779624e-07  2.7778475e-06  1.3406465e+08
   1061000   6.5602037e-11  133724.81      114829.46      6453623.4      3.2956428e-06  5.1795404e-07  2.7776888e-06  1.3406218e+08
   1062000   6.5663868e-11  133738.99      114856.53      6449327.4      3.2956339e-06  5.1765058e-07  2.7779833e-06  1.3406632e+08
   1063000   6.5725698e-11  133733.82      114858.46      6446948.2      3.2956314e-06  5.1775556e-07  2.7778759e-06  1.3406399e+08
   1064000   6.5787529e-11  133722.26      114868.15      6439826.1      3.295636e-06   5.1800031e-07  2.7776357e-06  1.3405977e+08
   1065000   6.5849359e-11  133743.1       114892.85      6438561        3.2956233e-06  5.1755457e-07  2.7780687e-06  1.3406646e+08
   1066000   6.5911189e-11  133731.76      114904.32      6430915.8      3.2956244e-06  5.1779143e-07  2.777833e-06   1.3406194e+08
   1067000   6.597302e-11   133728.64      114916.94      6425652        3.2956375e-06  5.1786917e-07  2.7777683e-06  1.3406197e+08
   1068000   6.603485e-11   133735.53      114939.04      6420572.5      3.2956408e-06  5.1772942e-07  2.7779114e-06  1.3406581e+08
   1069000   6.6096681e-11  133721.19      114936.34      6416664.4      3.2956336e-06  5.1801995e-07  2.7776136e-06  1.3406112e+08
   1070000   6.6158511e-11  133714.91      114944.2       6411931.7      3.2956368e-06  5.1815362e-07  2.7774832e-06  1.3405979e+08
   1071000   6.6220341e-11  133715.57      114981.27      6399753.7      3.2956409e-06  5.1814415e-07  2.7774968e-06  1.340599e+08 
   1072000   6.6282172e-11  133725.8       115001.41      6396448.1      3.2956486e-06  5.179394e-07   2.7777092e-06  1.3406385e+08
   1073000   6.6344002e-11  133732.92      115027.18      6390217.4      3.2956507e-06  5.1779358e-07  2.7778571e-06  1.3406729e+08
   1074000   6.6405832e-11  133709.62      115029.79      6381528.9      3.2956405e-06  5.1826734e-07  2.7773731e-06  1.3405823e+08
   1075000   6.6467663e-11  133733.66      115066.92      6377176.7      3.2956368e-06  5.1776418e-07  2.7778726e-06  1.3406757e+08
   1076000   6.6529493e-11  133727.07      115065.19      6375542.6      3.2956401e-06  5.1790444e-07  2.7777357e-06  1.34065e+08  
   1077000   6.6591324e-11  133717.71      115076.75      6368539.8      3.2956351e-06  5.1809374e-07  2.7775413e-06  1.3406068e+08
   1078000   6.6653154e-11  133728.55      115092.48      6366912.6      3.2956283e-06  5.1786185e-07  2.7777665e-06  1.3406323e+08
   1079000   6.6714984e-11  133732.1       115109.9       6362277.4      3.2956324e-06  5.1779218e-07  2.7778402e-06  1.3406335e+08
   1080000   6.6776815e-11  133746.8       115137.86      6357860.4      3.2956384e-06  5.174928e-07   2.7781456e-06  1.3406864e+08
   1081000   6.6838645e-11  133739.81      115138.06      6355446.1      3.295648e-06   5.1764779e-07  2.7780002e-06  1.3406623e+08
   1082000   6.6900475e-11  133726.65      115142.23      6349637.6      3.2956592e-06  5.1793217e-07  2.777727e-06   1.3406224e+08
   1083000   6.6962306e-11  133741.36      115176.26      6343190        3.2956446e-06  5.1761221e-07  2.7780324e-06  1.340667e+08 
   1084000   6.7024136e-11  133749.68      115191.48      6340889.7      3.2956404e-06  5.1743513e-07  2.7782052e-06  1.340695e+08 
   1085000   6.7085967e-11  133728.42      115183.32      6336489        3.2956375e-06  5.1787378e-07  2.7777637e-06  1.3406101e+08
   1086000   6.7147797e-11  133732.58      115198.24      6332894.7      3.2956268e-06  5.1777667e-07  2.7778502e-06  1.3406164e+08
   1087000   6.7209627e-11  133726.51      115207.42      6327790.6      3.295625e-06   5.179009e-07   2.7777241e-06  1.3405849e+08
   1088000   6.7271458e-11  133746.89      115241.07      6323370.1      3.295626e-06   5.1747859e-07  2.7781474e-06  1.3406549e+08
   1089000   6.7333288e-11  133749.08      115260.33      6317663.5      3.2956258e-06  5.1743299e-07  2.7781929e-06  1.340663e+08 
   1090000   6.7395119e-11  133745.4       115268.94      6313549.8      3.2956257e-06  5.1750925e-07  2.7781165e-06  1.3406537e+08
   1091000   6.7456949e-11  133739.04      115273.41      6309921        3.295619e-06   5.176347e-07   2.7779843e-06  1.340628e+08 
   1092000   6.7518779e-11  133740.85      115284.38      6306859.1      3.2956224e-06  5.1760047e-07  2.778022e-06   1.340649e+08 
   1093000   6.758061e-11   133741.39      115291.85      6304542        3.2956361e-06  5.1760294e-07  2.7780332e-06  1.3406754e+08
   1094000   6.764244e-11   133735.14      115305.26      6297958.9      3.2956574e-06  5.177542e-07   2.7779032e-06  1.3406785e+08
   1095000   6.770427e-11   133726.35      115303.88      6295473.6      3.2956641e-06  5.1794331e-07  2.7777208e-06  1.340655e+08 
   1096000   6.7766101e-11  133729.06      115317.13      6291949.1      3.295663e-06   5.1788601e-07  2.777777e-06   1.340663e+08 
   1097000   6.7827931e-11  133747.14      115352.16      6286298.8      3.2956598e-06  5.1750728e-07  2.7781525e-06  1.3407294e+08
   1098000   6.7889762e-11  133728.52      115349.82      6280837.8      3.2956625e-06  5.1789668e-07  2.7777658e-06  1.3406668e+08
   1099000   6.7951592e-11  133718.23      115362.11      6273277.6      3.2956721e-06  5.1811993e-07  2.7775521e-06  1.3406446e+08
   1100000   6.8013422e-11  133731.6       115385.6       6269904        3.2956649e-06  5.1783511e-07  2.7778298e-06  1.3406904e+08
   1101000   6.8075253e-11  133736.2       115402.36      6265840.3      3.2956577e-06  5.1773234e-07  2.7779254e-06  1.3406903e+08
   1102000   6.8137083e-11  133740.18      115429.38      6258138.6      3.2956557e-06  5.1764779e-07  2.7780079e-06  1.3406953e+08
   1103000   6.8198914e-11  133736.09      115441.19      6252818.1      3.2956532e-06  5.1773027e-07  2.777923e-06   1.3406809e+08
   1104000   6.8260744e-11  133721.13      115438.19      6248803.9      3.2956548e-06  5.1804249e-07  2.7776123e-06  1.3406348e+08
   1105000   6.8322574e-11  133716.31      115458.6       6240363.1      3.29565e-06    5.181377e-07   2.7775123e-06  1.3406189e+08
   1106000   6.8384405e-11  133720.33      115486.46      6232390.2      3.2956442e-06  5.1804855e-07  2.7775957e-06  1.340623e+08 
   1107000   6.8446235e-11  133731.92      115512.48      6227576.8      3.295629e-06   5.1779264e-07  2.7778364e-06  1.3406375e+08
   1108000   6.8508065e-11  133742.04      115535.96      6223118.1      3.2956391e-06  5.1759243e-07  2.7780467e-06  1.3406709e+08
   1109000   6.8569896e-11  133743.79      115549.56      6219158.3      3.2956335e-06  5.1755048e-07  2.778083e-06   1.3406789e+08
   1110000   6.8631726e-11  133746.94      115565.78      6214789.5      3.2956326e-06  5.1748411e-07  2.7781485e-06  1.3406995e+08
   1111000   6.8693557e-11  133728.79      115564.74      6209049.3      3.2956402e-06  5.1786877e-07  2.7777714e-06  1.3406395e+08
   1112000   6.8755387e-11  133721.56      115570.98      6204537.4      3.2956451e-06  5.1802388e-07  2.7776212e-06  1.3406112e+08
   1113000   6.8817217e-11  133728.83      115573.78      6206040.6      3.2956488e-06  5.1787653e-07  2.7777723e-06  1.3406276e+08
   1114000   6.8879048e-11  133749.14      115599.26      6204330.4      3.2956471e-06  5.174529e-07   2.7781942e-06  1.3406937e+08
   1115000   6.8940878e-11  133740.6       115607.44      6198731        3.2956376e-06  5.1762086e-07  2.7780168e-06  1.340662e+08 
   1116000   6.9002709e-11  133731.16      115611.73      6194128.5      3.2956416e-06  5.1782092e-07  2.7778207e-06  1.3406429e+08
   1117000   6.9064539e-11  133725.32      115624.07      6188039.7      3.2956545e-06  5.1795525e-07  2.7776993e-06  1.3406437e+08
   1118000   6.9126369e-11  133740.53      115651.49      6183974.3      3.2956636e-06  5.1764832e-07  2.7780152e-06  1.3407215e+08
   1119000   6.91882e-11    133712.57      115635.28      6180017.4      3.2956491e-06  5.1821455e-07  2.7774345e-06  1.3406077e+08
   1120000   6.925003e-11   133719.94      115659.59      6174358        3.2956487e-06  5.1806124e-07  2.7775875e-06  1.3406348e+08
   1121000   6.931186e-11   133720.35      115669.97      6171024.1      3.2956544e-06  5.1805819e-07  2.7775962e-06  1.3406302e+08
   1122000   6.9373691e-11  133733.21      115692.31      6167865.8      3.295654e-06   5.1779072e-07  2.7778633e-06  1.340679e+08 
   1123000   6.9435521e-11  133727.13      115700.38      6163127.7      3.2956515e-06  5.1791467e-07  2.7777369e-06  1.3406665e+08
   1124000   6.9497352e-11  133713.24      115707.25      6156171.5      3.2956495e-06  5.1820104e-07  2.7774485e-06  1.340614e+08 
   1125000   6.9559182e-11  133719.75      115726.65      6151864.9      3.2956556e-06  5.1807206e-07  2.7775835e-06  1.3406396e+08
   1126000   6.9621012e-11  133733.7       115759.88      6145431.4      3.2956773e-06  5.1780391e-07  2.7778734e-06  1.3407048e+08
   1127000   6.9682843e-11  133738.71      115782.33      6139604.2      3.2956713e-06  5.1769389e-07  2.7779774e-06  1.3407106e+08
   1128000   6.9744673e-11  133742.51      115794.07      6136953.3      3.2956515e-06  5.1759505e-07  2.7780564e-06  1.3407051e+08
   1129000   6.9806504e-11  133731.89      115788.34      6135308.1      3.2956436e-06  5.1780775e-07  2.7778359e-06  1.3406517e+08
   1130000   6.9868334e-11  133742.18      115802.46      6134036.1      3.2956495e-06  5.1760005e-07  2.7780495e-06  1.340684e+08 
   1131000   6.9930164e-11  133751.36      115821.37      6130789        3.2956337e-06  5.1739355e-07  2.7782402e-06  1.340692e+08 
   1132000   6.9991995e-11  133751.4       115830.78      6127658.7      3.295639e-06   5.1739794e-07  2.778241e-06   1.3406867e+08
   1133000   7.0053825e-11  133738.8       115834.43      6122211.4      3.2956341e-06  5.1765476e-07  2.7779793e-06  1.3406291e+08
   1134000   7.0115655e-11  133755.4       115853.65      6121349.6      3.2956378e-06  5.173137e-07   2.7783241e-06  1.3406909e+08
   1135000   7.0177486e-11  133738.88      115854.33      6115582.8      3.2956185e-06  5.1763753e-07  2.777981e-06   1.3406143e+08
   1136000   7.0239316e-11  133752.39      115882.43      6110714.3      3.2956164e-06  5.1735482e-07  2.7782616e-06  1.3406775e+08
   1137000   7.0301147e-11  133741.98      115884.41      6106560.9      3.2956158e-06  5.1757031e-07  2.7780455e-06  1.3406459e+08
   1138000   7.0362977e-11  133731.38      115883.83      6103200.2      3.2956262e-06  5.178009e-07   2.7778253e-06  1.3406258e+08
   1139000   7.0424807e-11  133732.3       115894.3       6100007.3      3.2956232e-06  5.1777886e-07  2.7778443e-06  1.3406353e+08
   1140000   7.0486638e-11  133732.27      115916.5       6092571.4      3.2956273e-06  5.1778362e-07  2.7778437e-06  1.3406429e+08
   1141000   7.0548468e-11  133727.31      115922.5       6088900.8      3.2956371e-06  5.1789655e-07  2.7777405e-06  1.3406404e+08
   1142000   7.0610299e-11  133717.65      115930.66      6082932        3.2956367e-06  5.1809662e-07  2.7775401e-06  1.3406064e+08
   1143000   7.0672129e-11  133714.17      115938.54      6079129.9      3.2956388e-06  5.1817111e-07  2.7774677e-06  1.3405951e+08
   1144000   7.0733959e-11  133715.43      115950         6075720.5      3.2956323e-06  5.1813838e-07  2.777494e-06   1.3405885e+08
   1145000   7.079579e-11   133733.37      115978.74      6072125.6      3.2956429e-06  5.1777634e-07  2.7778665e-06  1.3406551e+08
   1146000   7.085762e-11   133721.3       115986.83      6065370.7      3.2956485e-06  5.1803267e-07  2.7776159e-06  1.3406139e+08
   1147000   7.091945e-11   133725.88      116005.33      6060718.9      3.2956402e-06  5.1792928e-07  2.7777109e-06  1.3406254e+08
   1148000   7.0981281e-11  133747.99      116045.17      6054811.3      3.2956311e-06  5.1746093e-07  2.7781701e-06  1.3406921e+08
   1149000   7.1043111e-11  133743.44      116056.31      6049558.8      3.2956446e-06  5.1756886e-07  2.7780757e-06  1.340677e+08 
   1150000   7.1104942e-11  133736.94      116065.04      6044459.3      3.2956508e-06  5.1771016e-07  2.7779407e-06  1.3406611e+08
   1151000   7.1166772e-11  133730.71      116073.48      6039546.5      3.2956408e-06  5.1782956e-07  2.7778112e-06  1.340634e+08 
   1152000   7.1228602e-11  133738.24      116088.73      6036971.3      3.295641e-06   5.1767333e-07  2.7779676e-06  1.3406672e+08
   1153000   7.1290433e-11  133742.92      116103.38      6033643        3.2956257e-06  5.1756075e-07  2.7780649e-06  1.3406677e+08
   1154000   7.1352263e-11  133732.03      116105.89      6029147.9      3.295629e-06   5.1779042e-07  2.7778386e-06  1.3406243e+08
   1155000   7.1414094e-11  133729.47      116114.11      6025540        3.2956214e-06  5.1783601e-07  2.7777854e-06  1.3406168e+08
   1156000   7.1475924e-11  133732.61      116131.14      6020899.1      3.2956239e-06  5.177732e-07   2.7778507e-06  1.3406426e+08
   1157000   7.1537754e-11  133722.21      116131.44      6017312.8      3.2956426e-06  5.1800786e-07  2.7776347e-06  1.3406297e+08
   1158000   7.1599585e-11  133723.12      116136.64      6015878.6      3.2956393e-06  5.1798569e-07  2.7776536e-06  1.3406367e+08
   1159000   7.1661415e-11  133717.98      116147.74      6010438.7      3.2956448e-06  5.1809802e-07  2.7775467e-06  1.3406148e+08
   1160000   7.1723245e-11  133721.73      116164.25      6006176.9      3.2956306e-06  5.1800588e-07  2.7776247e-06  1.3406014e+08
   1161000   7.1785076e-11  133751.86      116197.76      6005076.5      3.2956296e-06  5.1737897e-07  2.7782506e-06  1.3406941e+08
   1162000   7.1846906e-11  133762.24      116213.98      6003131.6      3.2956174e-06  5.1715132e-07  2.7784661e-06  1.340711e+08 
   1163000   7.1908737e-11  133743.35      116204.52      5999962.5      3.2956193e-06  5.1754536e-07  2.7780739e-06  1.3406459e+08
   1164000   7.1970567e-11  133745.99      116220.96      5995349.9      3.2956134e-06  5.1748468e-07  2.7781288e-06  1.340657e+08 
   1165000   7.2032397e-11  133746.25      116234.56      5990885.1      3.2956064e-06  5.1747242e-07  2.778134e-06   1.3406459e+08
   1166000   7.2094228e-11  133744.77      116248.87      5985605.7      3.2956208e-06  5.1751757e-07  2.7781033e-06  1.3406559e+08
   1167000   7.2156058e-11  133732.5       116256.16      5979050.9      3.2956284e-06  5.1777995e-07  2.7778485e-06  1.3406232e+08
   1168000   7.2217889e-11  133718.82      116257.84      5973900.2      3.2956405e-06  5.1807623e-07  2.7775643e-06  1.3405874e+08
   1169000   7.2279719e-11  133724.77      116285.47      5966654        3.2956381e-06  5.1795027e-07  2.7776878e-06  1.3406148e+08
   1170000   7.2341549e-11  133735.84      116314.96      5960507.3      3.2956448e-06  5.1772702e-07  2.7779178e-06  1.3406706e+08
   1171000   7.240338e-11   133740.03      116336.25      5954789.7      3.2956497e-06  5.1764489e-07  2.7780048e-06  1.3406998e+08
   1172000   7.246521e-11   133728.75      116341.16      5949364.1      3.2956502e-06  5.1787968e-07  2.7777705e-06  1.3406706e+08
   1173000   7.252704e-11   133720.5       116350.18      5943579.8      3.2956463e-06  5.180472e-07   2.7775991e-06  1.3406496e+08
   1174000   7.2588871e-11  133718.32      116361.82      5938957.4      3.2956547e-06  5.1810083e-07  2.7775538e-06  1.3406422e+08
   1175000   7.2650701e-11  133722.46      116375.04      5935923.6      3.2956492e-06  5.180093e-07   2.7776399e-06  1.3406351e+08
   1176000   7.2712532e-11  133732.96      116395.79      5932509.6      3.2956517e-06  5.1779363e-07  2.7778581e-06  1.3406715e+08
   1177000   7.2774362e-11  133725.72      116406.82      5926388.9      3.2956522e-06  5.1794457e-07  2.7777076e-06  1.3406436e+08
   1178000   7.2836192e-11  133709.28      116403.86      5921865.1      3.29565e-06    5.1828392e-07  2.7773661e-06  1.3405743e+08
   1179000   7.2898023e-11  133735.04      116439.22      5918681.7      3.2956455e-06  5.1774426e-07  2.7779013e-06  1.3406557e+08
   1180000   7.2959853e-11  133738.8       116456.2       5914263.3      3.2956428e-06  5.1766347e-07  2.7779794e-06  1.3406592e+08
   1181000   7.3021684e-11  133729.42      116464         5908508.4      3.2956478e-06  5.1786328e-07  2.7777845e-06  1.3406216e+08
   1182000   7.3083514e-11  133745.5       116496.41      5903059.8      3.2956515e-06  5.1753309e-07  2.7781184e-06  1.3406985e+08
   1183000   7.3145344e-11  133715.61      116478.37      5899067.7      3.2956601e-06  5.1816248e-07  2.7774976e-06  1.3406098e+08
   1184000   7.3207175e-11  133709.18      116490.94      5892710.7      3.2956557e-06  5.182915e-07   2.7773642e-06  1.3406043e+08
   1185000   7.3269005e-11  133720.07      116521.5       5886141.8      3.2956545e-06  5.1806422e-07  2.7775903e-06  1.3406561e+08
   1186000   7.3330835e-11  133735.61      116556.87      5879522.9      3.29566e-06    5.1774699e-07  2.777913e-06   1.3407131e+08
   1187000   7.3392666e-11  133731.94      116572.52      5873058.4      3.2956555e-06  5.1781879e-07  2.7778367e-06  1.3406791e+08
   1188000   7.3454496e-11  133723.16      116582.01      5866939.7      3.2956324e-06  5.1797801e-07  2.7776544e-06  1.3406114e+08
   1189000   7.3516327e-11  133733.89      116604.18      5863124.4      3.2956314e-06  5.1775403e-07  2.7778774e-06  1.3406394e+08
   1190000   7.3578157e-11  133731.97      116613.52      5859355.5      3.2956285e-06  5.1779109e-07  2.7778374e-06  1.3406216e+08
   1191000   7.3639987e-11  133745.71      116641.48      5854613.1      3.2956286e-06  5.1750585e-07  2.7781227e-06  1.3406786e+08
   1192000   7.3701818e-11  133718.77      116624.01      5851418.4      3.2956255e-06  5.1806232e-07  2.7775632e-06  1.3405754e+08
   1193000   7.3763648e-11  133729.95      116649.81      5846540.6      3.2956401e-06  5.178446e-07   2.7777955e-06  1.340646e+08 
   1194000   7.3825479e-11  133723.79      116660.06      5841046.8      3.2956442e-06  5.1797675e-07  2.7776674e-06  1.3406476e+08
   1195000   7.3887309e-11  133714.08      116668.99      5834802.7      3.2956572e-06  5.1819139e-07  2.7774658e-06  1.3406338e+08
   1196000   7.3949139e-11  133720.64      116687.76      5830724.9      3.2956648e-06  5.1806267e-07  2.7776021e-06  1.3406636e+08
   1197000   7.401097e-11   133720.57      116703.29      5825509.8      3.2956664e-06  5.1806571e-07  2.7776006e-06  1.3406554e+08
   1198000   7.40728e-11    133717.63      116719.86      5818980.1      3.2956637e-06  5.1812406e-07  2.7775396e-06  1.3406309e+08
   1199000   7.413463e-11   133725.94      116751.59      5811155.9      3.2956581e-06  5.1794589e-07  2.7777122e-06  1.3406447e+08
   1200000   7.4196461e-11  133740.52      116785.3       5804772        3.2956488e-06  5.1763387e-07  2.778015e-06   1.3406841e+08
   1201000   7.4258291e-11  133736.82      116796.81      5799682.6      3.2956409e-06  5.1770275e-07  2.7779382e-06  1.3406502e+08
   1202000   7.4320122e-11  133741.8       116809.24      5797194.5      3.2956329e-06  5.1759127e-07  2.7780416e-06  1.3406472e+08
   1203000   7.4381952e-11  133744.82      116822.94      5793626.6      3.2956277e-06  5.1752323e-07  2.7781044e-06  1.3406499e+08
   1204000   7.4443782e-11  133743.72      116852.39      5783406.7      3.2956282e-06  5.1754675e-07  2.7780814e-06  1.340652e+08 
   1205000   7.4505613e-11  133726.25      116843.74      5780439.6      3.2956219e-06  5.1790329e-07  2.7777186e-06  1.3405901e+08
   1206000   7.4567443e-11  133720.89      116856.42      5774402.8      3.2956346e-06  5.180273e-07   2.7776073e-06  1.3405966e+08
   1207000   7.4629273e-11  133732.43      116879.75      5770470.7      3.2956392e-06  5.1779219e-07  2.7778471e-06  1.3406518e+08
   1208000   7.4691104e-11  133734.81      116898.72      5764923.3      3.2956536e-06  5.1775722e-07  2.7778964e-06  1.340673e+08 
   1209000   7.4752934e-11  133731.69      116911.14      5759723        3.2956617e-06  5.178302e-07   2.7778315e-06  1.3406723e+08
   1210000   7.4814765e-11  133735.96      116923.62      5756984.4      3.2956602e-06  5.177398e-07   2.7779204e-06  1.340696e+08 
   1211000   7.4876595e-11  133725.17      116926.9       5752266.7      3.2956571e-06  5.1796089e-07  2.7776962e-06  1.3406681e+08
   1212000   7.4938425e-11  133702.08      116924.89      5745194.6      3.2956376e-06  5.1842109e-07  2.7772166e-06  1.3405768e+08
   1213000   7.5000256e-11  133704.94      116938.72      5741527        3.2956399e-06  5.1836394e-07  2.777276e-06   1.3405841e+08
   1214000   7.5062086e-11  133712.69      116958.9       5737378.8      3.2956421e-06  5.1820516e-07  2.777437e-06   1.3406062e+08
   1215000   7.5123917e-11  133718.76      116979.47      5732533.8      3.2956405e-06  5.1807743e-07  2.777563e-06   1.3406177e+08
   1216000   7.5185747e-11  133707.37      116988.68      5725631.8      3.2956305e-06  5.1830405e-07  2.7773264e-06  1.3405563e+08
   1217000   7.5247577e-11  133712.5       117014.67      5718662.5      3.2956321e-06  5.1819913e-07  2.7774329e-06  1.3405677e+08
   1218000   7.5309408e-11  133735.56      117049.32      5714809.5      3.2956351e-06  5.1772308e-07  2.777912e-06   1.34065e+08  
   1219000   7.5371238e-11  133733.77      117065.44      5708815.7      3.2956384e-06  5.1776362e-07  2.7778747e-06  1.3406365e+08
   1220000   7.5433068e-11  133742.76      117090.08      5703593.1      3.2956416e-06  5.1757996e-07  2.7780617e-06  1.3406709e+08
   1221000   7.5494899e-11  133745.52      117105.31      5699421.8      3.2956504e-06  5.1753161e-07  2.7781188e-06  1.3406854e+08
   1222000   7.5556729e-11  133738.7       117108.52      5696061.6      3.2956429e-06  5.1766573e-07  2.7779772e-06  1.3406585e+08
   1223000   7.561856e-11   133725.58      117115.45      5689343.6      3.2956371e-06  5.1793242e-07  2.7777046e-06  1.3406118e+08
   1224000   7.568039e-11   133725.24      117131.47      5683873.7      3.2956242e-06  5.1792659e-07  2.7776977e-06  1.3406132e+08
   1225000   7.574222e-11   133711.66      117131.2       5679408        3.2956294e-06  5.1821372e-07  2.7774156e-06  1.3405725e+08
   1226000   7.5804051e-11  133710.97      117146.96      5673905.6      3.2956469e-06  5.1824565e-07  2.7774013e-06  1.3405867e+08
   1227000   7.5865881e-11  133724.28      117174.04      5669313.5      3.2956506e-06  5.1797288e-07  2.7776778e-06  1.3406414e+08
   1228000   7.5927712e-11  133727.47      117190.91      5664741.1      3.2956489e-06  5.1790504e-07  2.7777439e-06  1.3406524e+08
   1229000   7.5989542e-11  133735.38      117212.12      5660301.3      3.2956524e-06  5.1774412e-07  2.7779083e-06  1.3406905e+08
   1230000   7.6051372e-11  133722.78      117205.24      5658376.9      3.2956523e-06  5.1800573e-07  2.7776465e-06  1.340642e+08 
   1231000   7.6113203e-11  133733.04      117215.67      5658330.3      3.2956502e-06  5.1779049e-07  2.7778597e-06  1.3406749e+08
   1232000   7.6175033e-11  133738.65      117234.1       5654049.8      3.2956525e-06  5.1767626e-07  2.7779763e-06  1.3406952e+08
   1233000   7.6236863e-11  133727.09      117233.09      5650507.4      3.2956545e-06  5.1791838e-07  2.7777361e-06  1.3406568e+08
   1234000   7.6298694e-11  133717.4       117239.11      5645245.2      3.2956544e-06  5.1811946e-07  2.7775349e-06  1.3406167e+08
   1235000   7.6360524e-11  133727.14      117260.12      5641483.4      3.2956529e-06  5.1791579e-07  2.7777371e-06  1.340649e+08 
   1236000   7.6422355e-11  133736.55      117284.17      5636599.4      3.2956444e-06  5.1771174e-07  2.7779327e-06  1.340674e+08 
   1237000   7.6484185e-11  133731.42      117296.38      5630792.9      3.2956407e-06  5.1781457e-07  2.7778261e-06  1.3406437e+08
   1238000   7.6546015e-11  133745.47      117317.54      5628429.8      3.2956436e-06  5.1752562e-07  2.7781179e-06  1.3406996e+08
   1239000   7.6607846e-11  133733.99      117312.91      5626127.2      3.2956333e-06  5.1775386e-07  2.7778795e-06  1.3406614e+08
   1240000   7.6669676e-11  133726.13      117320.51      5620947.1      3.2956445e-06  5.179285e-07   2.777716e-06   1.3406588e+08
   1241000   7.6731507e-11  133718.71      117327.37      5616163.6      3.2956522e-06  5.1809023e-07  2.7775619e-06  1.3406489e+08
   1242000   7.6793337e-11  133716.12      117335.46      5612589.3      3.2956647e-06  5.1815651e-07  2.7775082e-06  1.3406539e+08
   1243000   7.6855167e-11  133720.85      117354.97      5607652.1      3.2956734e-06  5.180669e-07   2.7776065e-06  1.3406798e+08
   1244000   7.6916998e-11  133729.14      117372.25      5604652.3      3.2956712e-06  5.1789257e-07  2.7777786e-06  1.3407049e+08
   1245000   7.6978828e-11  133726.32      117377.75      5601867.8      3.2956932e-06  5.1797316e-07  2.77772e-06    1.3406943e+08
   1246000   7.7040658e-11  133744.86      117411.85      5596683.6      3.2956751e-06  5.1756986e-07  2.7781052e-06  1.3407404e+08
   1247000   7.7102489e-11  133732.2       117413.38      5591926.7      3.2956612e-06  5.1781889e-07  2.7778423e-06  1.3406782e+08
   1248000   7.7164319e-11  133726.94      117426.15      5585889.8      3.2956658e-06  5.1793289e-07  2.7777329e-06  1.3406617e+08
   1249000   7.722615e-11   133731.65      117447.2       5580429.2      3.2956537e-06  5.1782281e-07  2.7778308e-06  1.3406627e+08
   1250000   7.728798e-11   133730.16      117462.56      5574793.1      3.2956543e-06  5.1785438e-07  2.7777999e-06  1.34066e+08  
   1251000   7.734981e-11   133718.26      117465.57      5569794.4      3.295645e-06   5.1809234e-07  2.7775526e-06  1.3406179e+08
   1252000   7.7411641e-11  133729.37      117477.25      5569614.5      3.2956353e-06  5.1785179e-07  2.7777835e-06  1.3406506e+08
   1253000   7.7473471e-11  133732.44      117489.82      5566441.2      3.2956448e-06  5.1779752e-07  2.7778473e-06  1.3406618e+08
   1254000   7.7535302e-11  133727.53      117488.55      5565217.3      3.2956456e-06  5.1790029e-07  2.7777453e-06  1.3406394e+08
   1255000   7.7597132e-11  133739.06      117508         5562579.3      3.2956409e-06  5.1765622e-07  2.7779847e-06  1.3406728e+08
   1256000   7.7658962e-11  133736.08      117526.32      5555451.1      3.2956231e-06  5.1770035e-07  2.7779227e-06  1.3406446e+08
   1257000   7.7720793e-11  133730.92      117533.21      5551419.6      3.2956294e-06  5.1781369e-07  2.7778157e-06  1.3406321e+08
   1258000   7.7782623e-11  133715.1       117534.39      5545717.1      3.2956315e-06  5.1814453e-07  2.777487e-06   1.3405815e+08
   1259000   7.7844453e-11  133715.32      117547.19      5541510.6      3.2956329e-06  5.1814129e-07  2.7774916e-06  1.340592e+08 
   1260000   7.7906284e-11  133720.38      117564.35      5537469.4      3.295643e-06   5.1804632e-07  2.7775967e-06  1.3406156e+08
   1261000   7.7968114e-11  133714.4       117567.93      5534265.6      3.2956414e-06  5.1816888e-07  2.7774725e-06  1.340578e+08 
   1262000   7.8029945e-11  133725.16      117586.36      5531710        3.2956377e-06  5.1794179e-07  2.7776959e-06  1.3406207e+08
   1263000   7.8091775e-11  133710.41      117586.72      5526640.8      3.2956403e-06  5.182508e-07   2.7773895e-06  1.3405751e+08
   1264000   7.8153605e-11  133716.17      117614.77      5519193.8      3.2956333e-06  5.1812406e-07  2.7775093e-06  1.3406021e+08
   1265000   7.8215436e-11  133731.88      117645.46      5514201        3.2956251e-06  5.1778946e-07  2.7778356e-06  1.3406571e+08
   1266000   7.8277266e-11  133719         117647.94      5509049.1      3.2956209e-06  5.1805279e-07  2.7775681e-06  1.3405947e+08
   1267000   7.8339097e-11  133730.62      117664.18      5507514.8      3.2956342e-06  5.1782489e-07  2.7778093e-06  1.3406451e+08
   1268000   7.8400927e-11  133743.2       117682.63      5505564.9      3.2956249e-06  5.1755418e-07  2.7780708e-06  1.3406862e+08
   1269000   7.8462757e-11  133731.87      117679.49      5502814.9      3.2956309e-06  5.177956e-07   2.7778353e-06  1.3406552e+08
   1270000   7.8524588e-11  133724.13      117680.19      5499982.9      3.2956417e-06  5.1796717e-07  2.7776745e-06  1.3406411e+08
   1271000   7.8586418e-11  133731.79      117697.9       5496628.6      3.2956301e-06  5.1779645e-07  2.7778337e-06  1.3406598e+08
   1272000   7.8648248e-11  133721.09      117703.94      5491020.2      3.295641e-06   5.180296e-07   2.7776114e-06  1.340614e+08 
   1273000   7.8710079e-11  133717.62      117724.69      5482915.3      3.2956567e-06  5.1811738e-07  2.7775393e-06  1.340598e+08 
   1274000   7.8771909e-11  133725.44      117741.82      5479812.8      3.2956559e-06  5.1795406e-07  2.7777019e-06  1.3406218e+08
   1275000   7.883374e-11   133727.93      117760.03      5474558.4      3.2956342e-06  5.1788068e-07  2.7777536e-06  1.3406075e+08
   1276000   7.889557e-11   133754.36      117795.11      5471690.4      3.2956257e-06  5.1732317e-07  2.7783025e-06  1.3407011e+08
   1277000   7.89574e-11    133740.75      117790.88      5468538.5      3.2956251e-06  5.1760541e-07  2.7780197e-06  1.3406608e+08
   1278000   7.9019231e-11  133738.16      117801.96      5463965.6      3.2956312e-06  5.1766522e-07  2.777966e-06   1.3406706e+08
   1279000   7.9081061e-11  133722.83      117799.76      5459557.7      3.2956362e-06  5.1798865e-07  2.7776476e-06  1.3406284e+08
   1280000   7.9142892e-11  133719.78      117803.11      5457413.7      3.2956431e-06  5.180589e-07   2.7775842e-06  1.340634e+08 
   1281000   7.9204722e-11  133717.28      117811.47      5453778.4      3.2956463e-06  5.1811408e-07  2.7775322e-06  1.340631e+08 
   1282000   7.9266552e-11  133707.87      117824.91      5446129.9      3.2956528e-06  5.1831596e-07  2.7773369e-06  1.3406086e+08
   1283000   7.9328383e-11  133705.6       117846.47      5438158.4      3.2956573e-06  5.1836751e-07  2.7772897e-06  1.3406119e+08
   1284000   7.9390213e-11  133707.51      117857.9       5434973.8      3.2956663e-06  5.1833704e-07  2.7773293e-06  1.3406067e+08
   1285000   7.9452043e-11  133731.85      117893.42      5431259.2      3.2956663e-06  5.1783137e-07  2.7778349e-06  1.3406804e+08
   1286000   7.9513874e-11  133715.36      117888.16      5427489.1      3.2956535e-06  5.1816099e-07  2.7774925e-06  1.3406023e+08
   1287000   7.9575704e-11  133715.2       117902.52      5422630.7      3.2956442e-06  5.1815522e-07  2.777489e-06   1.3406016e+08
   1288000   7.9637535e-11  133701.72      117915.88      5413640.4      3.2956375e-06  5.1842843e-07  2.777209e-06   1.3405445e+08
   1289000   7.9699365e-11  133723.64      117950.23      5409504.2      3.2956347e-06  5.1797037e-07  2.7776643e-06  1.340618e+08 
   1290000   7.9761195e-11  133728.02      117966.18      5405643.6      3.2956222e-06  5.1786671e-07  2.7777555e-06  1.3406164e+08
   1291000   7.9823026e-11  133714.77      117962.82      5402317.6      3.2956334e-06  5.1815331e-07  2.7774801e-06  1.3405766e+08
   1292000   7.9884856e-11  133713.64      117974.55      5398020.1      3.2956331e-06  5.1817639e-07  2.7774567e-06  1.3405689e+08
   1293000   7.9946687e-11  133732.56      117996.2       5397123.1      3.2956485e-06  5.1779875e-07  2.7778497e-06  1.3406488e+08
   1294000   8.0008517e-11  133730.84      118010.42      5391788.8      3.2956641e-06  5.1785024e-07  2.7778139e-06  1.3406648e+08
   1295000   8.0070347e-11  133733.86      118029.35      5386472.7      3.2956609e-06  5.177841e-07   2.7778768e-06  1.3406928e+08
   1296000   8.0132178e-11  133726.77      118037.19      5381471.7      3.2956585e-06  5.1792909e-07  2.7777294e-06  1.3406711e+08
   1297000   8.0194008e-11  133724.52      118054.68      5374869.5      3.2956443e-06  5.1796169e-07  2.7776827e-06  1.3406576e+08
   1298000   8.0255838e-11  133714.92      118069.21      5366788.6      3.2956521e-06  5.1816885e-07  2.7774832e-06  1.3406284e+08
   1299000   8.0317669e-11  133713.94      118085.62      5360971        3.2956646e-06  5.1820175e-07  2.7774628e-06  1.3406295e+08
   1300000   8.0379499e-11  133726.16      118113.17      5355854.1      3.2956639e-06  5.1794725e-07  2.7777167e-06  1.3406764e+08
   1301000   8.044133e-11   133711.96      118113.23      5351074.9      3.2956751e-06  5.182532e-07   2.7774219e-06  1.3406336e+08
   1302000   8.050316e-11   133727.06      118138.28      5347760        3.2956575e-06  5.1792203e-07  2.7777355e-06  1.3406788e+08
   1303000   8.056499e-11   133712.91      118141.77      5341845.3      3.2956657e-06  5.1822428e-07  2.7774414e-06  1.3406226e+08
   1304000   8.0626821e-11  133734.3       118178.31      5336801.9      3.2956524e-06  5.1776655e-07  2.7778859e-06  1.3406802e+08
   1305000   8.0688651e-11  133745.04      118196.2       5334421.8      3.2956642e-06  5.175553e-07   2.7781089e-06  1.3407169e+08
   1306000   8.0750482e-11  133745.34      118203.3       5332148.9      3.295655e-06   5.1753985e-07  2.7781152e-06  1.3407006e+08
   1307000   8.0812312e-11  133750.31      118223.53      5327049.1      3.2956386e-06  5.1742027e-07  2.7782184e-06  1.340694e+08 
   1308000   8.0874142e-11  133747.86      118229.71      5324160.8      3.295645e-06   5.1747744e-07  2.7781676e-06  1.3406934e+08
   1309000   8.0935973e-11  133729.56      118220.4       5321134.6      3.2956476e-06  5.1786032e-07  2.7777873e-06  1.3406371e+08
   1310000   8.0997803e-11  133728.91      118233.38      5316577.1      3.2956555e-06  5.1788166e-07  2.7777739e-06  1.3406419e+08
   1311000   8.1059633e-11  133727.43      118241.02      5313525.5      3.2956361e-06  5.1789298e-07  2.7777432e-06  1.3406176e+08
   1312000   8.1121464e-11  133728.46      118257.22      5308452.7      3.2956344e-06  5.178698e-07   2.7777646e-06  1.3406206e+08
   1313000   8.1183294e-11  133728.48      118268         5304853.6      3.2956297e-06  5.1786474e-07  2.7777649e-06  1.340617e+08 
   1314000   8.1245125e-11  133748.38      118300.44      5300677.3      3.2956318e-06  5.1745359e-07  2.7781783e-06  1.3406893e+08
   1315000   8.1306955e-11  133739.79      118316.64      5292377.9      3.2956379e-06  5.1763805e-07  2.7779999e-06  1.340663e+08 
   1316000   8.1368785e-11  133738.91      118326.79      5288689.2      3.295641e-06   5.176594e-07   2.7779816e-06  1.3406726e+08
   1317000   8.1430616e-11  133735.65      118335.39      5284720.6      3.2956445e-06  5.1773054e-07  2.777914e-06   1.340677e+08 
   1318000   8.1492446e-11  133724.14      118333.72      5281419.8      3.2956545e-06  5.179796e-07   2.7776749e-06  1.3406432e+08
   1319000   8.1554277e-11  133734.6       118348.75      5279898.2      3.2956634e-06  5.1777134e-07  2.777892e-06   1.3406818e+08
   1320000   8.1616107e-11  133734.3       118367.66      5273473.5      3.295672e-06   5.177862e-07   2.7778858e-06  1.3406797e+08
   1321000   8.1677937e-11  133732.31      118391.24      5264922        3.2956576e-06  5.1781307e-07  2.7778445e-06  1.3406579e+08
   1322000   8.1739768e-11  133730.73      118397.5       5262299.7      3.2956447e-06  5.1783296e-07  2.7778118e-06  1.3406488e+08
   1323000   8.1801598e-11  133737.9       118418.15      5257795.8      3.2956495e-06  5.1768881e-07  2.7779606e-06  1.3406905e+08
   1324000   8.1863428e-11  133719.41      118421.71      5250404.3      3.2956539e-06  5.1807721e-07  2.7775766e-06  1.3406264e+08
   1325000   8.1925259e-11  133727.08      118448.52      5244010.2      3.2956488e-06  5.1791292e-07  2.7777359e-06  1.3406443e+08
   1326000   8.1987089e-11  133736.05      118469.77      5239911.1      3.295649e-06   5.177269e-07   2.7779221e-06  1.3406674e+08
   1327000   8.204892e-11   133741.49      118481.05      5237962        3.295657e-06   5.1762189e-07  2.7780351e-06  1.3406876e+08
   1328000   8.211075e-11   133749.12      118495.6       5235656        3.2956484e-06  5.1745469e-07  2.7781937e-06  1.3407089e+08
   1329000   8.217258e-11   133733.99      118496.03      5230439        3.295645e-06   5.1776555e-07  2.7778795e-06  1.3406468e+08
   1330000   8.2234411e-11  133738.81      118507.66      5228165.5      3.2956412e-06  5.176616e-07   2.7779796e-06  1.3406619e+08
   1331000   8.2296241e-11  133722.18      118499.89      5225185.7      3.2956397e-06  5.1800555e-07  2.7776341e-06  1.3405951e+08
   1332000   8.2358071e-11  133728.95      118521.57      5220206.5      3.2956359e-06  5.1786117e-07  2.7777747e-06  1.3406149e+08
   1333000   8.2419902e-11  133744.97      118560.57      5212536.5      3.2956356e-06  5.1752803e-07  2.7781076e-06  1.3406745e+08
   1334000   8.2481732e-11  133747.36      118580.43      5206696.2      3.2956225e-06  5.174653e-07   2.7781572e-06  1.3406735e+08
   1335000   8.2543563e-11  133742.7       118586.1       5203238.4      3.2956399e-06  5.1757954e-07  2.7780604e-06  1.340677e+08 
   1336000   8.2605393e-11  133743.76      118601.8       5198341.4      3.2956362e-06  5.1755387e-07  2.7780823e-06  1.3406868e+08
   1337000   8.2667223e-11  133738.9       118613.2       5192897.9      3.2956323e-06  5.1765083e-07  2.7779814e-06  1.3406665e+08
   1338000   8.2729054e-11  133727.37      118611.18      5189706.9      3.2956379e-06  5.17896e-07    2.7777419e-06  1.3406301e+08
   1339000   8.2790884e-11  133727.22      118620.67      5186480.4      3.295638e-06   5.1789923e-07  2.7777388e-06  1.3406331e+08
   1340000   8.2852715e-11  133731.19      118639.28      5181588.1      3.2956356e-06  5.1781433e-07  2.7778212e-06  1.3406499e+08
   1341000   8.2914545e-11  133732.47      118651.44      5177949.9      3.2956441e-06  5.1779636e-07  2.7778478e-06  1.3406622e+08
   1342000   8.2976375e-11  133721.91      118649.47      5175067.8      3.2956423e-06  5.1801394e-07  2.7776284e-06  1.3406246e+08
   1343000   8.3038206e-11  133718.71      118653.07      5172792.3      3.2956384e-06  5.1807638e-07  2.777562e-06   1.3406125e+08
   1344000   8.3100036e-11  133730.03      118666.14      5172218.8      3.2956183e-06  5.1782109e-07  2.7777972e-06  1.3406412e+08
   1345000   8.3161866e-11  133720.51      118674.6       5166193        3.2956405e-06  5.1804114e-07  2.7775994e-06  1.3406193e+08
   1346000   8.3223697e-11  133721.92      118687.55      5162337.1      3.2956445e-06  5.180158e-07   2.7776287e-06  1.3406155e+08
   1347000   8.3285527e-11  133738.15      118716.79      5158003.4      3.295647e-06   5.1768109e-07  2.7779659e-06  1.3406779e+08
   1348000   8.3347358e-11  133735.3       118718.31      5156535.2      3.2956545e-06  5.1774789e-07  2.7779066e-06  1.3406784e+08
   1349000   8.3409188e-11  133735.08      118738.46      5149723.7      3.2956643e-06  5.1776228e-07  2.777902e-06   1.3406955e+08
   1350000   8.3471018e-11  133726.01      118750.53      5142645.5      3.2956528e-06  5.1793924e-07  2.7777136e-06  1.3406547e+08
   1351000   8.3532849e-11  133722.05      118761.89      5137516        3.2956525e-06  5.1802118e-07  2.7776313e-06  1.3406353e+08
   1352000   8.3594679e-11  133733.66      118796.71      5129765.5      3.2956458e-06  5.1777326e-07  2.7778725e-06  1.3406707e+08
   1353000   8.365651e-11   133728.81      118816.68      5121460.8      3.2956355e-06  5.178638e-07   2.7777717e-06  1.3406347e+08
   1354000   8.371834e-11   133741.82      118839.1       5118327.4      3.2956346e-06  5.1759258e-07  2.778042e-06   1.3406701e+08
   1355000   8.378017e-11   133732.26      118848.67      5111918.6      3.2956433e-06  5.1779976e-07  2.7778435e-06  1.3406247e+08
   1356000   8.3842001e-11  133746.91      118875.9       5107724.1      3.2956356e-06  5.1748796e-07  2.7781477e-06  1.3406653e+08
   1357000   8.3903831e-11  133757.61      118897.02      5104253.5      3.2956266e-06  5.1725644e-07  2.7783701e-06  1.3406903e+08
   1358000   8.3965661e-11  133760.85      118908.28      5101572.5      3.2956277e-06  5.1719033e-07  2.7784373e-06  1.3407043e+08
   1359000   8.4027492e-11  133744.51      118909.06      5095833.4      3.2956338e-06  5.1753586e-07  2.778098e-06   1.3406526e+08
   1360000   8.4089322e-11  133747.5       118923.88      5091877.5      3.2956271e-06  5.1746709e-07  2.77816e-06    1.3406677e+08
   1361000   8.4151153e-11  133736.4       118931.22      5085697.6      3.2956379e-06  5.1770854e-07  2.7779294e-06  1.3406407e+08
   1362000   8.4212983e-11  133731.31      118946.5       5078879.9      3.2956397e-06  5.1781606e-07  2.7778236e-06  1.3406277e+08
   1363000   8.4274813e-11  133735.95      118962.1       5075219.6      3.2956437e-06  5.1772359e-07  2.7779201e-06  1.3406557e+08
   1364000   8.4336644e-11  133749.27      118993.75      5069104        3.2956455e-06  5.1744867e-07  2.7781969e-06  1.3407092e+08
   1365000   8.4398474e-11  133742.36      119006.26      5062601.3      3.2956389e-06  5.1758577e-07  2.7780532e-06  1.3406859e+08
   1366000   8.4460305e-11  133720.39      119001.06      5056971.9      3.2956293e-06  5.1803241e-07  2.7775969e-06  1.3406008e+08
   1367000   8.4522135e-11  133731.16      119025.71      5052341.2      3.295618e-06   5.1779734e-07  2.7778207e-06  1.3406332e+08
   1368000   8.4583965e-11  133728.15      119033.57      5048699        3.2956159e-06  5.1785783e-07  2.777758e-06   1.3406164e+08
   1369000   8.4645796e-11  133715.86      119033.46      5044617.1      3.2956212e-06  5.1811832e-07  2.7775029e-06  1.3405701e+08
   1370000   8.4707626e-11  133734.52      119062.2       5041263.7      3.2956343e-06  5.1774388e-07  2.7778904e-06  1.3406442e+08
   1371000   8.4769456e-11  133732.8       119071.33      5037635.3      3.2956341e-06  5.1777938e-07  2.7778547e-06  1.3406315e+08
   1372000   8.4831287e-11  133743.81      119094.84      5033463.2      3.295639e-06   5.1755552e-07  2.7780835e-06  1.3406752e+08
   1373000   8.4893117e-11  133740.08      119098.56      5030965.8      3.295644e-06   5.176382e-07   2.7780058e-06  1.3406586e+08
   1374000   8.4954948e-11  133720.66      119089.48      5027490.6      3.2956428e-06  5.1804033e-07  2.7776025e-06  1.3405863e+08
   1375000   8.5016778e-11  133728.9       119107.53      5024218.2      3.2956461e-06  5.1787248e-07  2.7777736e-06  1.3406326e+08
   1376000   8.5078608e-11  133720.28      119109.09      5020802        3.2956373e-06  5.1804275e-07  2.7775945e-06  1.3406077e+08
   1377000   8.5140439e-11  133728.5       119129.13      5016859.3      3.2956495e-06  5.1788416e-07  2.7777653e-06  1.3406625e+08
   1378000   8.5202269e-11  133712.74      119127.02      5012280.4      3.2956506e-06  5.1821253e-07  2.7774381e-06  1.3406164e+08
   1379000   8.52641e-11    133694.63      119122.25      5007797.1      3.2956635e-06  5.1860173e-07  2.7770617e-06  1.3405746e+08
   1380000   8.532593e-11   133704.06      119152.62      5000803.3      3.2956604e-06  5.1840274e-07  2.7772576e-06  1.3406111e+08
   1381000   8.538776e-11   133716.26      119182.84      4994789.4      3.2956479e-06  5.1813689e-07  2.777511e-06   1.3406356e+08
   1382000   8.5449591e-11  133715.68      119194.74      4990615.6      3.2956513e-06  5.181522e-07   2.7774991e-06  1.3406211e+08
   1383000   8.5511421e-11  133726.36      119217.55      4986571.2      3.2956552e-06  5.1793414e-07  2.777721e-06   1.34066e+08  
   1384000   8.5573251e-11  133710.45      119214.09      4982390.9      3.2956603e-06  5.1826984e-07  2.7773904e-06  1.3405995e+08
   1385000   8.5635082e-11  133731.27      119243.05      4979686.2      3.2956666e-06  5.1784372e-07  2.7778229e-06  1.3406792e+08
   1386000   8.5696912e-11  133726.88      119255.58      4974027.5      3.2956593e-06  5.1792747e-07  2.7777318e-06  1.3406593e+08
   1387000   8.5758743e-11  133728.02      119271.42      4969113.1      3.2956578e-06  5.1790227e-07  2.7777555e-06  1.3406765e+08
   1388000   8.5820573e-11  133709.69      119262.56      4965924.3      3.2956651e-06  5.1829051e-07  2.7773746e-06  1.3406183e+08
   1389000   8.5882403e-11  133725.75      119289.47      4962312        3.2956754e-06  5.1796705e-07  2.7777083e-06  1.3406959e+08
   1390000   8.5944234e-11  133709.79      119285.29      4958359.2      3.2956806e-06  5.1830383e-07  2.7773768e-06  1.3406416e+08
   1391000   8.6006064e-11  133720.97      119311.21      4953436.8      3.2956654e-06  5.1805647e-07  2.7776089e-06  1.3406755e+08
   1392000   8.6067895e-11  133707.66      119312.67      4948485.8      3.2956639e-06  5.1833141e-07  2.7773325e-06  1.340616e+08 
   1393000   8.6129725e-11  133720.01      119345.42      4941676        3.2956563e-06  5.1806725e-07  2.777589e-06   1.3406525e+08
   1394000   8.6191555e-11  133726.35      119365.54      4937070.2      3.2956636e-06  5.1794296e-07  2.7777206e-06  1.3406723e+08
   1395000   8.6253386e-11  133710.93      119362.32      4932978.3      3.2956549e-06  5.1825439e-07  2.7774005e-06  1.3405994e+08
   1396000   8.6315216e-11  133714.31      119377.02      4929194.3      3.295646e-06   5.1817541e-07  2.7774706e-06  1.3406114e+08
   1397000   8.6377046e-11  133708.27      119382.89      4925202.9      3.2956458e-06  5.1830074e-07  2.7773451e-06  1.3405905e+08
   1398000   8.6438877e-11  133713.29      119402.23      4920422.5      3.2956431e-06  5.1819365e-07  2.7774495e-06  1.3406144e+08
   1399000   8.6500707e-11  133696.97      119394.53      4917522.4      3.2956444e-06  5.1853388e-07  2.7771105e-06  1.340556e+08 
   1400000   8.6562538e-11  133703.21      119413.6       4913236.6      3.295648e-06   5.1840798e-07  2.77724e-06    1.3405835e+08
   1401000   8.6624368e-11  133719         119430.91      4912742.9      3.2956487e-06  5.1808074e-07  2.777568e-06   1.3406429e+08
   1402000   8.6686198e-11  133726.27      119450.39      4908669        3.2956366e-06  5.1791742e-07  2.7777191e-06  1.34066e+08  
   1403000   8.6748029e-11  133719.38      119459.94      4903164.8      3.2956468e-06  5.180708e-07   2.777576e-06   1.340637e+08 
   1404000   8.6809859e-11  133725.05      119477.05      4899342.2      3.2956536e-06  5.1795978e-07  2.7776938e-06  1.3406575e+08
   1405000   8.687169e-11   133733.96      119491.35      4897549        3.2956484e-06  5.1776962e-07  2.7778787e-06  1.3406835e+08
   1406000   8.693352e-11   133726.14      119488.34      4895930.8      3.2956578e-06  5.1794158e-07  2.7777163e-06  1.3406574e+08
   1407000   8.699535e-11   133724.41      119497.46      4892298.3      3.2956556e-06  5.1797527e-07  2.7776803e-06  1.3406403e+08
   1408000   8.7057181e-11  133732.75      119517.24      4888482.8      3.2956606e-06  5.1780701e-07  2.7778536e-06  1.3406708e+08
   1409000   8.7119011e-11  133728.07      119529         4882982        3.2956726e-06  5.1791618e-07  2.7777564e-06  1.3406575e+08
   1410000   8.7180841e-11  133736.5       119547.39      4879660.7      3.29567e-06    5.1773834e-07  2.7779316e-06  1.340688e+08 
   1411000   8.7242672e-11  133730.03      119556.12      4874566.7      3.2956542e-06  5.1785702e-07  2.7777971e-06  1.3406496e+08
   1412000   8.7304502e-11  133731.82      119572.3       4869758.6      3.2956545e-06  5.1782015e-07  2.7778343e-06  1.3406566e+08
   1413000   8.7366333e-11  133729.25      119587.56      4863791.7      3.2956494e-06  5.1786833e-07  2.777781e-06   1.3406372e+08
   1414000   8.7428163e-11  133741.19      119611.96      4859635.7      3.2956303e-06  5.1760139e-07  2.7780289e-06  1.3406608e+08
   1415000   8.7489993e-11  133733.48      119614.13      4856323.8      3.2956304e-06  5.1776157e-07  2.7778688e-06  1.3406289e+08
   1416000   8.7551824e-11  133728.39      119616.49      4853826.2      3.295643e-06   5.1787999e-07  2.777763e-06   1.340627e+08 
   1417000   8.7613654e-11  133733.88      119638.76      4848221.9      3.2956428e-06  5.1776556e-07  2.7778772e-06  1.3406581e+08
   1418000   8.7675485e-11  133731.08      119652.23      4842777.3      3.2956423e-06  5.1782332e-07  2.777819e-06   1.3406458e+08
   1419000   8.7737315e-11  133740.68      119672.81      4839116.1      3.2956336e-06  5.1761517e-07  2.7780184e-06  1.3406633e+08
   1420000   8.7799145e-11  133749.88      119696.94      4834129        3.2956428e-06  5.1743336e-07  2.7782095e-06  1.3406896e+08
   1421000   8.7860976e-11  133746.68      119707.43      4829548.8      3.2956336e-06  5.1749058e-07  2.778143e-06   1.3406559e+08
   1422000   8.7922806e-11  133758.52      119736.24      4823883.5      3.2956357e-06  5.1724685e-07  2.7783888e-06  1.3406997e+08
   1423000   8.7984636e-11  133741.3       119725.8       4821599.6      3.2956234e-06  5.1759213e-07  2.7780313e-06  1.3406284e+08
   1424000   8.8046467e-11  133729.81      119729.03      4816666.2      3.2956266e-06  5.1783405e-07  2.7777925e-06  1.340586e+08 
   1425000   8.8108297e-11  133741.69      119752.57      4812778.4      3.2956374e-06  5.1759813e-07  2.7780393e-06  1.3406344e+08
   1426000   8.8170128e-11  133737.38      119763.83      4807566.3      3.2956136e-06  5.1766378e-07  2.7779499e-06  1.3405983e+08
   1427000   8.8231958e-11  133746.4       119780.99      4804851.3      3.2956222e-06  5.1748506e-07  2.7781371e-06  1.340642e+08 
   1428000   8.8293788e-11  133728.25      119773.06      4801416.2      3.295619e-06   5.1785886e-07  2.7777601e-06  1.3405698e+08
   1429000   8.8355619e-11  133744.29      119794.69      4799561.6      3.2956187e-06  5.1752536e-07  2.7780933e-06  1.3406297e+08
   1430000   8.8417449e-11  133739.43      119804.1       4794782.8      3.2956286e-06  5.1763626e-07  2.7779923e-06  1.3406147e+08
   1431000   8.847928e-11   133758.76      119836.67      4790378.1      3.2956275e-06  5.1723357e-07  2.7783939e-06  1.3406871e+08
   1432000   8.854111e-11   133749.34      119846.62      4783887.3      3.2956227e-06  5.1742445e-07  2.7781982e-06  1.3406523e+08
   1433000   8.860294e-11   133741.58      119853.27      4779060.7      3.2956274e-06  5.1759039e-07  2.7780371e-06  1.3406374e+08
   1434000   8.8664771e-11  133738.5       119856.13      4777073.9      3.2956279e-06  5.1765477e-07  2.7779732e-06  1.340641e+08 
   1435000   8.8726601e-11  133720.6       119853.72      4771875.4      3.2956151e-06  5.1801373e-07  2.7776014e-06  1.3405692e+08
   1436000   8.8788431e-11  133739.27      119884.9       4767707.7      3.295633e-06   5.1764393e-07  2.7779891e-06  1.3406557e+08
   1437000   8.8850262e-11  133737.27      119896.49      4763162.3      3.2956532e-06  5.177057e-07   2.7779475e-06  1.3406675e+08
   1438000   8.8912092e-11  133737.18      119907.06      4759597.2      3.2956394e-06  5.1769378e-07  2.7779456e-06  1.3406664e+08
   1439000   8.8973923e-11  133725.69      119904.62      4756560.1      3.2956461e-06  5.1793899e-07  2.7777071e-06  1.3406342e+08
   1440000   8.9035753e-11  133729.84      119920.46      4752651.2      3.2956401e-06  5.1784695e-07  2.7777931e-06  1.3406579e+08
   1441000   8.9097583e-11  133711.54      119913.48      4748847.6      3.2956572e-06  5.1824422e-07  2.777413e-06   1.3406206e+08
   1442000   8.9159414e-11  133717.24      119929.18      4745508.9      3.2956512e-06  5.1811976e-07  2.7775314e-06  1.3406497e+08
   1443000   8.9221244e-11  133702.24      119928.86      4740586.9      3.295644e-06   5.18424e-07    2.77722e-06    1.3405893e+08
   1444000   8.9283075e-11  133700.45      119938.56      4736739        3.2956619e-06  5.184793e-07   2.7771826e-06  1.3405936e+08
   1445000   8.9344905e-11  133722.11      119973.64      4732274.3      3.2956712e-06  5.1803853e-07  2.7776327e-06  1.3406783e+08
   1446000   8.9406735e-11  133712.12      119968.01      4730807        3.2956645e-06  5.1823936e-07  2.7774251e-06  1.3406243e+08
   1447000   8.9468566e-11  133733.64      120001         4726988.6      3.2956668e-06  5.1779473e-07  2.7778721e-06  1.3406997e+08
   1448000   8.9530396e-11  133712.44      119993.06      4722535.9      3.2956713e-06  5.182395e-07   2.7774318e-06  1.3406108e+08
   1449000   8.9592226e-11  133720.9       120015.47      4717879.5      3.295678e-06   5.1807038e-07  2.7776076e-06  1.3406414e+08
   1450000   8.9654057e-11  133729.38      120036.76      4713601.9      3.2956709e-06  5.1788735e-07  2.7777836e-06  1.3406654e+08
   1451000   8.9715887e-11  133720.5       120045.62      4707661.8      3.2956761e-06  5.1807689e-07  2.7775992e-06  1.3406394e+08
   1452000   8.9777718e-11  133726.84      120062.41      4704170.4      3.2956794e-06  5.179486e-07   2.7777308e-06  1.3406814e+08
   1453000   8.9839548e-11  133715         120065.88      4699041.6      3.2956859e-06  5.1820094e-07  2.777485e-06   1.34066e+08  
   1454000   8.9901378e-11  133708.02      120066.44      4696512.9      3.2956899e-06  5.1834983e-07  2.77734e-06    1.3406493e+08
   1455000   8.9963209e-11  133723.1       120085.25      4695278.9      3.295682e-06   5.1802876e-07  2.7776532e-06  1.3407075e+08
   1456000   9.0025039e-11  133712.08      120084         4692001.9      3.2956782e-06  5.1825385e-07  2.7774243e-06  1.3406617e+08
   1457000   9.008687e-11   133713.9       120094.37      4689142.4      3.295662e-06   5.181999e-07   2.7774621e-06  1.3406525e+08
   1458000   9.01487e-11    133716.93      120107.51      4685765.3      3.2956578e-06  5.1813273e-07  2.777525e-06   1.3406556e+08
   1459000   9.021053e-11   133719.59      120126.71      4680236.3      3.2956524e-06  5.1807215e-07  2.7775803e-06  1.3406548e+08
   1460000   9.0272361e-11  133703.51      120124.77      4675489.7      3.2956397e-06  5.183934e-07   2.7772463e-06  1.3405793e+08
   1461000   9.0334191e-11  133703.53      120144.25      4668981.7      3.2956329e-06  5.1838624e-07  2.7772467e-06  1.3405754e+08
   1462000   9.0396021e-11  133719.28      120168.72      4666078.9      3.2956261e-06  5.1805236e-07  2.7775738e-06  1.3406211e+08
   1463000   9.0457852e-11  133729.19      120194.46      4660799.1      3.2956336e-06  5.1785382e-07  2.7777798e-06  1.3406555e+08
   1464000   9.0519682e-11  133720.33      120197.24      4656895.9      3.2956345e-06  5.1803888e-07  2.7775957e-06  1.3406224e+08
   1465000   9.0581513e-11  133713.63      120205.55      4651869.4      3.2956384e-06  5.1818192e-07  2.7774565e-06  1.3406009e+08
   1466000   9.0643343e-11  133708.32      120209.23      4648856.5      3.2956303e-06  5.182841e-07   2.7773462e-06  1.3405682e+08
   1467000   9.0705173e-11  133715.59      120231.79      4643749.5      3.295633e-06   5.1813591e-07  2.7774971e-06  1.3405905e+08
   1468000   9.0767004e-11  133726.92      120258.9       4638484.4      3.2956243e-06  5.1789169e-07  2.7777326e-06  1.3406184e+08
   1469000   9.0828834e-11  133732.28      120274.84      4634950.7      3.295639e-06   5.1779517e-07  2.7778438e-06  1.3406359e+08
   1470000   9.0890664e-11  133744.66      120295.82      4632088.5      3.2956317e-06  5.1753061e-07  2.7781011e-06  1.3406673e+08
   1471000   9.0952495e-11  133752.58      120319.33      4626879.7      3.2956329e-06  5.1736733e-07  2.7782655e-06  1.3406933e+08
   1472000   9.1014325e-11  133744.22      120319.23      4624107.7      3.2956286e-06  5.1753677e-07  2.7780918e-06  1.3406585e+08
   1473000   9.1076156e-11  133734.36      120319.66      4620657.8      3.2956348e-06  5.1774778e-07  2.777887e-06   1.340635e+08 
   1474000   9.1137986e-11  133726.88      120318.41      4618567.5      3.2956239e-06  5.1789207e-07  2.7777318e-06  1.3406144e+08
   1475000   9.1199816e-11  133711         120315.37      4614258.8      3.2956353e-06  5.1823345e-07  2.7774019e-06  1.3405736e+08
   1476000   9.1261647e-11  133724.52      120336.63      4611683.6      3.2956285e-06  5.1794575e-07  2.7776827e-06  1.340614e+08 
   1477000   9.1323477e-11  133731.44      120358.7       4606620.7      3.2956406e-06  5.1781418e-07  2.7778264e-06  1.3406453e+08
   1478000   9.1385308e-11  133743.18      120384.75      4601848.4      3.2956319e-06  5.1756156e-07  2.7780703e-06  1.3406876e+08
   1479000   9.1447138e-11  133736.07      120393.32      4596598.3      3.2956492e-06  5.1772658e-07  2.7779227e-06  1.3406862e+08
   1480000   9.1508968e-11  133719.94      120386.16      4593580.2      3.2956468e-06  5.1805919e-07  2.7775876e-06  1.3406299e+08
   1481000   9.1570799e-11  133718.74      120399.74      4588634.7      3.2956495e-06  5.1808686e-07  2.7775626e-06  1.3406315e+08
   1482000   9.1632629e-11  133728.99      120426.51      4583121.8      3.2956562e-06  5.1788063e-07  2.7777756e-06  1.3406716e+08
   1483000   9.1694459e-11  133718.88      120434.93      4576913.9      3.2956483e-06  5.1808284e-07  2.7775654e-06  1.340623e+08 
   1484000   9.175629e-11   133711.47      120450.27      4569300.3      3.2956416e-06  5.182299e-07   2.7774117e-06  1.3405947e+08
   1485000   9.181812e-11   133698.94      120456.03      4563169.2      3.295634e-06   5.1848265e-07  2.7771513e-06  1.3405354e+08
   1486000   9.1879951e-11  133717.26      120489.13      4558243.9      3.2956338e-06  5.1810203e-07  2.7775318e-06  1.3405938e+08
   1487000   9.1941781e-11  133730.21      120522.84      4551312        3.2956344e-06  5.1783357e-07  2.7778008e-06  1.3406316e+08
   1488000   9.2003611e-11  133732.88      120540.51      4546301.3      3.2956492e-06  5.1779283e-07  2.7778563e-06  1.3406466e+08
   1489000   9.2065442e-11  133736.38      120550.2       4544233.4      3.2956319e-06  5.1770279e-07  2.7779291e-06  1.3406417e+08
   1490000   9.2127272e-11  133733.55      120553.11      4542309.8      3.2956129e-06  5.1774277e-07  2.7778702e-06  1.3406083e+08
   1491000   9.2189103e-11  133727.25      120558.04      4538547.3      3.2956198e-06  5.1788039e-07  2.7777394e-06  1.3405823e+08
   1492000   9.2250933e-11  133751.65      120600.07      4532679.1      3.2956151e-06  5.1736874e-07  2.7782463e-06  1.3406746e+08
   1493000   9.2312763e-11  133741.32      120608.84      4526276.3      3.2956036e-06  5.1757198e-07  2.7780316e-06  1.3406367e+08
   1494000   9.2374594e-11  133741.35      120622.15      4521836.3      3.2956244e-06  5.1759226e-07  2.7780322e-06  1.3406712e+08
   1495000   9.2436424e-11  133722.27      120615.53      4517650        3.2956311e-06  5.1799521e-07  2.7776359e-06  1.3406092e+08
   1496000   9.2498254e-11  133729.5       120638.86      4512273.9      3.2956398e-06  5.1785371e-07  2.7777861e-06  1.3406438e+08
   1497000   9.2560085e-11  133721.66      120644.91      4507620.3      3.2956379e-06  5.1801467e-07  2.7776232e-06  1.3406122e+08
   1498000   9.2621915e-11  133723.75      120655.58      4504754.3      3.2956353e-06  5.1796846e-07  2.7776668e-06  1.3406383e+08
   1499000   9.2683746e-11  133706.86      120652.04      4500270.7      3.295645e-06   5.1832925e-07  2.7773158e-06  1.3405937e+08
   1500000   9.2745576e-11  133715.71      120674.33      4495784.4      3.2956323e-06  5.1813265e-07  2.7774997e-06  1.3406125e+08
   1501000   9.2807406e-11  133725.18      120695.93      4491736.4      3.2956423e-06  5.1794594e-07  2.7776964e-06  1.3406441e+08
   1502000   9.2869237e-11  133724.52      120709.56      4486956.1      3.2956529e-06  5.1797017e-07  2.7776827e-06  1.3406319e+08
   1503000   9.2931067e-11  133731.02      120733.19      4481237.8      3.2956446e-06  5.1782679e-07  2.7778178e-06  1.3406446e+08
   1504000   9.2992898e-11  133727.75      120735.95      4479214.6      3.295653e-06   5.1790334e-07  2.7777497e-06  1.3406454e+08
   1505000   9.3054728e-11  133723.19      120749.59      4473122.9      3.2956474e-06  5.1799246e-07  2.777655e-06   1.3406314e+08
   1506000   9.3116558e-11  133712.36      120752.76      4468428.9      3.295637e-06   5.1820698e-07  2.77743e-06    1.340593e+08 
   1507000   9.3178389e-11  133717.12      120774.71      4462684.2      3.2956369e-06  5.1810795e-07  2.7775289e-06  1.3406176e+08
   1508000   9.3240219e-11  133711.1       120784.75      4457307.9      3.2956356e-06  5.1823177e-07  2.7774039e-06  1.3405835e+08
   1509000   9.3302049e-11  133710.54      120806.06      4449995        3.2956452e-06  5.1825281e-07  2.7773924e-06  1.3405744e+08
   1510000   9.336388e-11   133726.9       120848.99      4441125        3.2956446e-06  5.1791249e-07  2.7777321e-06  1.3406344e+08
   1511000   9.342571e-11   133725.34      120864.52      4435406        3.2956272e-06  5.1792745e-07  2.7776997e-06  1.3406174e+08
   1512000   9.3487541e-11  133731.48      120891.99      4428278.6      3.2956247e-06  5.1779748e-07  2.7778272e-06  1.3406327e+08
   1513000   9.3549371e-11  133736.11      120906.45      4424997.2      3.2956415e-06  5.1771803e-07  2.7779235e-06  1.3406502e+08
   1514000   9.3611201e-11  133735.49      120917.08      4421234.5      3.2956494e-06  5.1773876e-07  2.7779106e-06  1.3406467e+08
   1515000   9.3673032e-11  133746.5       120937.26      4418176.1      3.2956581e-06  5.1751891e-07  2.7781392e-06  1.3407028e+08
   1516000   9.3734862e-11  133725.89      120920.44      4416889.5      3.2956539e-06  5.1794272e-07  2.7777112e-06  1.3406376e+08
   1517000   9.3796693e-11  133706.24      120916.44      4411635.9      3.2956551e-06  5.18352e-07    2.777303e-06   1.3405852e+08
   1518000   9.3858523e-11  133697.03      120914.34      4409248.7      3.2956432e-06  5.1853147e-07  2.7771118e-06  1.3405512e+08
   1519000   9.3920353e-11  133720.57      120943.6       4407359.7      3.2956508e-06  5.1805011e-07  2.7776007e-06  1.3406381e+08
   1520000   9.3982184e-11  133722.5       120956.07      4403834.5      3.2956419e-06  5.1800115e-07  2.7776407e-06  1.3406178e+08
   1521000   9.4044014e-11  133739.43      120984.07      4400151.5      3.2956499e-06  5.1765741e-07  2.7779925e-06  1.3406689e+08
   1522000   9.4105844e-11  133732.74      120985.51      4397425.1      3.2956401e-06  5.1778664e-07  2.7778535e-06  1.3406248e+08
   1523000   9.4167675e-11  133734.58      121005.75      4391272.5      3.2956331e-06  5.1774136e-07  2.7778917e-06  1.3406367e+08
   1524000   9.4229505e-11  133736.26      121015.44      4388594.4      3.295624e-06   5.1769746e-07  2.7779265e-06  1.3406453e+08
   1525000   9.4291336e-11  133725.43      121015.7       4384874.1      3.2956247e-06  5.1792319e-07  2.7777015e-06  1.3406144e+08
   1526000   9.4353166e-11  133712.19      121022.31      4378224.9      3.295634e-06   5.182074e-07   2.7774266e-06  1.3405671e+08
   1527000   9.4414996e-11  133724.3       121051.41      4372553.8      3.2956382e-06  5.1796009e-07  2.7776781e-06  1.3406112e+08
   1528000   9.4476827e-11  133736.35      121076.23      4368295.5      3.2956272e-06  5.1769886e-07  2.7779284e-06  1.3406474e+08
   1529000   9.4538657e-11  133730.33      121079.54      4365167.5      3.2956381e-06  5.1783483e-07  2.7778033e-06  1.3406346e+08
   1530000   9.4600488e-11  133732.78      121090.43      4362349        3.2956498e-06  5.1779555e-07  2.7778542e-06  1.3406548e+08
   1531000   9.4662318e-11  133733.71      121099.34      4359679.8      3.295661e-06   5.1778753e-07  2.7778735e-06  1.3406647e+08
   1532000   9.4724148e-11  133746.62      121117.89      4357806.8      3.2956476e-06  5.175059e-07   2.7781417e-06  1.3407002e+08
   1533000   9.4785979e-11  133744.39      121126.99      4354017        3.2956418e-06  5.1754627e-07  2.7780955e-06  1.340682e+08 
   1534000   9.4847809e-11  133749.99      121143.76      4350288.4      3.2956183e-06  5.1740642e-07  2.7782118e-06  1.3406828e+08
   1535000   9.4909639e-11  133738.82      121141.08      4347435.2      3.2956074e-06  5.1762763e-07  2.7779797e-06  1.3406324e+08
   1536000   9.497147e-11   133737.03      121150.32      4343744.1      3.2956123e-06  5.1766981e-07  2.7779425e-06  1.3406312e+08
   1537000   9.50333e-11    133734.32      121155.52      4341096.2      3.2956284e-06  5.1774209e-07  2.7778863e-06  1.3406285e+08
   1538000   9.5095131e-11  133739.24      121175.15      4336180.6      3.2956408e-06  5.1765236e-07  2.7779884e-06  1.3406521e+08
   1539000   9.5156961e-11  133753.47      121189.04      4336308        3.2956438e-06  5.1735986e-07  2.778284e-06   1.3407221e+08
   1540000   9.5218791e-11  133726.09      121167.85      4334214.5      3.2956356e-06  5.1792016e-07  2.7777154e-06  1.3406309e+08
   1541000   9.5280622e-11  133726.79      121176.62      4331513.1      3.2956373e-06  5.1790742e-07  2.7777299e-06  1.3406548e+08
   1542000   9.5342452e-11  133720.81      121186.31      4326267.5      3.2956431e-06  5.1803742e-07  2.7776056e-06  1.3406453e+08
   1543000   9.5404283e-11  133734.52      121209.38      4323151        3.2956529e-06  5.1776237e-07  2.7778905e-06  1.3407024e+08
   1544000   9.5466113e-11  133719.92      121203.64      4320171.2      3.2956434e-06  5.1805628e-07  2.7775872e-06  1.340619e+08 
   1545000   9.5527943e-11  133735.08      121228.25      4317026.7      3.2956384e-06  5.1773636e-07  2.777902e-06   1.3406548e+08
   1546000   9.5589774e-11  133745.42      121248.1       4313855.3      3.2956524e-06  5.175356e-07   2.7781168e-06  1.3406997e+08
   1547000   9.5651604e-11  133726.59      121241.2       4309847.9      3.2956419e-06  5.1791629e-07  2.7777256e-06  1.3406208e+08
   1548000   9.5713434e-11  133724.38      121249.96      4306177.1      3.2956533e-06  5.1797342e-07  2.7776799e-06  1.340621e+08 
   1549000   9.5775265e-11  133719.46      121260.75      4300918.7      3.2956392e-06  5.1806163e-07  2.7775776e-06  1.3405921e+08
   1550000   9.5837095e-11  133716.72      121259.42      4300443.9      3.295645e-06   5.1812427e-07  2.7775208e-06  1.3405999e+08
   1551000   9.5898926e-11  133711.35      121265.05      4296759.1      3.2956457e-06  5.1823658e-07  2.7774091e-06  1.340595e+08 
   1552000   9.5960756e-11  133707.43      121271.3       4293352.4      3.2956445e-06  5.1831693e-07  2.7773276e-06  1.3405889e+08
   1553000   9.6022586e-11  133709.84      121287.83      4288635        3.2956613e-06  5.1828351e-07  2.7773778e-06  1.3406132e+08
   1554000   9.6084417e-11  133723.33      121308.22      4286339        3.2956544e-06  5.1799646e-07  2.7776579e-06  1.3406577e+08
   1555000   9.6146247e-11  133708.58      121303.46      4282982.2      3.295642e-06   5.1829041e-07  2.7773515e-06  1.340593e+08 
   1556000   9.6208078e-11  133701.45      121307.8       4279140.4      3.2956641e-06  5.184606e-07   2.7772035e-06  1.3405904e+08
   1557000   9.6269908e-11  133716.6       121340.21      4273381.5      3.2956508e-06  5.1813264e-07  2.7775181e-06  1.3406366e+08
   1558000   9.6331738e-11  133718.61      121360.07      4267417.1      3.295648e-06   5.1808794e-07  2.77756e-06    1.3406285e+08
   1559000   9.6393569e-11  133732.06      121385.56      4263401.7      3.2956536e-06  5.1781429e-07  2.7778393e-06  1.3406733e+08
   1560000   9.6455399e-11  133729.03      121397.8       4258291.6      3.2956681e-06  5.178918e-07   2.7777763e-06  1.3406652e+08
   1561000   9.6517229e-11  133718.84      121411.77      4250203.3      3.2956451e-06  5.1808038e-07  2.7775647e-06  1.3405989e+08
   1562000   9.657906e-11   133749.97      121459.03      4244838.1      3.2956267e-06  5.1741542e-07  2.7782113e-06  1.3406943e+08
   1563000   9.664089e-11   133748.63      121471.02      4240379.4      3.2956302e-06  5.1744673e-07  2.7781835e-06  1.3406888e+08
   1564000   9.6702721e-11  133724.69      121461.82      4235425.1      3.2956355e-06  5.1794923e-07  2.7776863e-06  1.3405985e+08
   1565000   9.6764551e-11  133728.49      121482.33      4229843.1      3.2956483e-06  5.1788304e-07  2.7777652e-06  1.3406217e+08
   1566000   9.6826381e-11  133731.63      121494.55      4226807.3      3.2956347e-06  5.178043e-07   2.7778304e-06  1.3406227e+08
   1567000   9.6888212e-11  133730.27      121504.6       4222990.2      3.2956442e-06  5.1784201e-07  2.7778022e-06  1.3406272e+08
   1568000   9.6950042e-11  133741.69      121524.24      4220252.6      3.2956222e-06  5.175829e-07   2.7780393e-06  1.3406539e+08
   1569000   9.7011873e-11  133731.37      121520.84      4217925        3.2956263e-06  5.1780133e-07  2.7778249e-06  1.3406136e+08
   1570000   9.7073703e-11  133722.26      121516.27      4216399.3      3.2956377e-06  5.1800195e-07  2.7776357e-06  1.3405894e+08
   1571000   9.7135533e-11  133740.13      121541.89      4213824.2      3.2956404e-06  5.1763347e-07  2.7780069e-06  1.34067e+08  
   1572000   9.7197364e-11  133734.37      121546.65      4210301.7      3.2956394e-06  5.1775201e-07  2.7778874e-06  1.3406581e+08
   1573000   9.7259194e-11  133726.14      121545.14      4208046.1      3.2956443e-06  5.1792788e-07  2.7777164e-06  1.340641e+08 
   1574000   9.7321024e-11  133727.17      121560.52      4203249        3.2956468e-06  5.1790902e-07  2.7777378e-06  1.3406538e+08
   1575000   9.7382855e-11  133729.43      121570.89      4200535.4      3.2956373e-06  5.1785262e-07  2.7777846e-06  1.3406443e+08
   1576000   9.7444685e-11  133727.55      121582.72      4195949.8      3.2956484e-06  5.1790281e-07  2.7777456e-06  1.3406368e+08
   1577000   9.7506516e-11  133722.18      121591.42      4191238.7      3.2956356e-06  5.1800148e-07  2.7776341e-06  1.3406019e+08
   1578000   9.7568346e-11  133715.19      121601.06      4185670.4      3.2956243e-06  5.1813532e-07  2.7774889e-06  1.3405613e+08
   1579000   9.7630176e-11  133736.01      121641.05      4179279.1      3.2956401e-06  5.1771872e-07  2.7779214e-06  1.3406601e+08
   1580000   9.7692007e-11  133723.54      121643.95      4174127.6      3.2956375e-06  5.1797511e-07  2.7776624e-06  1.3406153e+08
   1581000   9.7753837e-11  133711.42      121646.36      4169255.9      3.2956448e-06  5.1823414e-07  2.7774106e-06  1.3405928e+08
   1582000   9.7815668e-11  133710.89      121659.03      4164840.4      3.2956524e-06  5.1825274e-07  2.7773996e-06  1.340614e+08 
   1583000   9.7877498e-11  133708.24      121666.52      4161445.2      3.2956546e-06  5.1831009e-07  2.7773446e-06  1.3406085e+08
   1584000   9.7939328e-11  133725.44      121696.29      4157262.4      3.2956576e-06  5.1795574e-07  2.7777019e-06  1.3406691e+08
   1585000   9.8001159e-11  133716.06      121694.53      4154700.3      3.2956601e-06  5.1815309e-07  2.777507e-06   1.340626e+08 
   1586000   9.8062989e-11  133724.66      121712.17      4151687.4      3.2956561e-06  5.1797051e-07  2.7776856e-06  1.3406548e+08
   1587000   9.8124819e-11  133726.05      121731.12      4145814.9      3.2956597e-06  5.1794536e-07  2.7777144e-06  1.3406684e+08
   1588000   9.818665e-11   133709.41      121732.68      4139712.1      3.2956436e-06  5.1827486e-07  2.7773688e-06  1.3405796e+08
   1589000   9.824848e-11   133733.49      121766.97      4136320.2      3.2956474e-06  5.1777848e-07  2.777869e-06   1.3406569e+08
   1590000   9.8310311e-11  133744.65      121788.89      4132733.4      3.2956305e-06  5.175296e-07   2.7781009e-06  1.3406729e+08
   1591000   9.8372141e-11  133737.15      121793.29      4128746.7      3.2956282e-06  5.1768326e-07  2.777945e-06   1.3406357e+08
   1592000   9.8433971e-11  133755.14      121817.9       4126552.2      3.295619e-06   5.1730026e-07  2.7783187e-06  1.3407001e+08
   1593000   9.8495802e-11  133724.16      121805.59      4120276.3      3.2956184e-06  5.1794316e-07  2.7776752e-06  1.3405873e+08
   1594000   9.8557632e-11  133710.84      121806.07      4115649.1      3.2956069e-06  5.1820827e-07  2.7773986e-06  1.3405289e+08
   1595000   9.8619462e-11  133723.44      121825.59      4113343.2      3.2955983e-06  5.1793808e-07  2.7776602e-06  1.3405609e+08
   1596000   9.8681293e-11  133733.44      121854.11      4107161.7      3.2956127e-06  5.1774463e-07  2.777868e-06   1.3406069e+08
   1597000   9.8743123e-11  133744.43      121872.28      4104771.4      3.2956357e-06  5.1753937e-07  2.7780963e-06  1.3406759e+08
   1598000   9.8804954e-11  133741.95      121877.86      4102069.8      3.2956505e-06  5.176058e-07   2.7780447e-06  1.3406898e+08
   1599000   9.8866784e-11  133734.62      121882.26      4098140.5      3.2956487e-06  5.1775627e-07  2.7778924e-06  1.3406634e+08
   1600000   9.8928614e-11  133743.5       121899.42      4095381.8      3.2956524e-06  5.1757536e-07  2.778077e-06   1.3406981e+08
   1601000   9.8990445e-11  133734.18      121898.55      4092549.1      3.295649e-06   5.1776554e-07  2.7778834e-06  1.3406554e+08
   1602000   9.9052275e-11  133738.04      121907.09      4090986        3.2956366e-06  5.1767302e-07  2.7779636e-06  1.3406624e+08
   1603000   9.9114106e-11  133726.95      121908.47      4086803.7      3.2956487e-06  5.1791555e-07  2.7777332e-06  1.3406364e+08
   1604000   9.9175936e-11  133728.18      121918.52      4083855.5      3.2956542e-06  5.1789558e-07  2.7777586e-06  1.3406557e+08
   1605000   9.9237766e-11  133722.25      121922.18      4080640.6      3.2956545e-06  5.1801898e-07  2.7776356e-06  1.3406396e+08
   1606000   9.9299597e-11  133711.34      121925.15      4075986.1      3.295643e-06   5.1823417e-07  2.7774088e-06  1.3405908e+08
   1607000   9.9361427e-11  133731.57      121956.78      4072195.5      3.295648e-06   5.1781899e-07  2.7778291e-06  1.3406651e+08
   1608000   9.9423257e-11  133725.24      121967.99      4066321.5      3.2956472e-06  5.1794965e-07  2.7776976e-06  1.3406289e+08
   1609000   9.9485088e-11  133735.41      121988.86      4062755.4      3.2956499e-06  5.1774111e-07  2.7779088e-06  1.3406649e+08
   1610000   9.9546918e-11  133727.83      121991.09      4059465.9      3.2956355e-06  5.178841e-07   2.7777514e-06  1.3406215e+08
   1611000   9.9608749e-11  133729.01      122009.49      4053710.1      3.2956274e-06  5.1785133e-07  2.7777761e-06  1.3406215e+08
   1612000   9.9670579e-11  133731.86      122018.04      4051807.3      3.2956275e-06  5.1779228e-07  2.7778352e-06  1.3406265e+08
   1613000   9.9732409e-11  133738.36      122040.6       4046442.3      3.2956274e-06  5.176571e-07   2.7779703e-06  1.3406379e+08
   1614000   9.979424e-11   133740.65      122053.87      4042769.2      3.2956259e-06  5.1760817e-07  2.7780177e-06  1.3406271e+08
   1615000   9.985607e-11   133747.75      122072.53      4038911.6      3.2956146e-06  5.1744927e-07  2.7781653e-06  1.340635e+08 
   1616000   9.9917901e-11  133741.38      122079.07      4034588.5      3.2956235e-06  5.175906e-07   2.7780329e-06  1.3406252e+08
   1617000   9.9979731e-11  133741.88      122087.81      4031829.7      3.2956239e-06  5.1758067e-07  2.7780432e-06  1.3406472e+08
   1618000   1.0004156e-10  133724.25      122089.63      4025309.8      3.295639e-06   5.179619e-07   2.7776771e-06  1.3406146e+08
   1619000   1.0010339e-10  133721.11      122098.84      4021174.2      3.2956389e-06  5.1802709e-07  2.7776118e-06  1.3406217e+08
   1620000   1.0016522e-10  133729.95      122121.37      4016606        3.295648e-06   5.1785258e-07  2.7777954e-06  1.3406746e+08
   1621000   1.0022705e-10  133720.39      122124.56      4012333.7      3.2956655e-06  5.1806854e-07  2.7775969e-06  1.3406584e+08
   1622000   1.0028888e-10  133707.73      122118.61      4010078.4      3.2956661e-06  5.1833211e-07  2.777334e-06   1.3406106e+08
   1623000   1.0035071e-10  133717.91      122136.18      4007614.9      3.2956652e-06  5.1811966e-07  2.7775455e-06  1.3406498e+08
   1624000   1.0041254e-10  133722.41      122146.57      4005648        3.2956686e-06  5.1802972e-07  2.7776389e-06  1.3406667e+08
   1625000   1.0047437e-10  133728.72      122157.63      4004066.8      3.2956656e-06  5.1789566e-07  2.77777e-06    1.3406835e+08
   1626000   1.005362e-10   133721.36      122162.87      3999845.2      3.2956598e-06  5.1804277e-07  2.777617e-06   1.3406418e+08
   1627000   1.0059803e-10  133731.94      122181.94      3997017.8      3.2956715e-06  5.1783464e-07  2.7778369e-06  1.3406855e+08
   1628000   1.0065987e-10  133733.43      122188.44      3995341.3      3.2956482e-06  5.1778057e-07  2.7778677e-06  1.3406705e+08
   1629000   1.007217e-10   133722.38      122186.02      3992448.2      3.2956414e-06  5.180031e-07   2.7776383e-06  1.3406267e+08
   1630000   1.0078353e-10  133710.91      122189.83      3987322.3      3.2956339e-06  5.1823388e-07  2.7774e-06     1.3405757e+08
   1631000   1.0084536e-10  133715.32      122208.1       3982691.4      3.2956423e-06  5.1815075e-07  2.7774915e-06  1.3405936e+08
   1632000   1.0090719e-10  133729.28      122232.91      3979080.1      3.2956476e-06  5.1786591e-07  2.7777816e-06  1.3406526e+08
   1633000   1.0096902e-10  133723.27      122237.96      3975373.6      3.2956308e-06  5.1797411e-07  2.7776567e-06  1.340622e+08 
   1634000   1.0103085e-10  133734.94      122260.55      3971732        3.2956366e-06  5.1773751e-07  2.7778991e-06  1.3406698e+08
   1635000   1.0109268e-10  133722.22      122262.24      3966901.1      3.2956451e-06  5.1801005e-07  2.777635e-06   1.3406225e+08
   1636000   1.0115451e-10  133730.46      122279.67      3963835.4      3.2956388e-06  5.178327e-07   2.7778061e-06  1.3406435e+08
   1637000   1.0121634e-10  133743.19      122301.27      3960882.7      3.2956487e-06  5.1757819e-07  2.7780705e-06  1.3406971e+08
   1638000   1.0127817e-10  133718.11      122283.33      3958467.4      3.2956506e-06  5.181011e-07   2.7775495e-06  1.3406029e+08
   1639000   1.0134e-10     133723.79      122299.91      3954827.8      3.295653e-06   5.1798552e-07  2.7776675e-06  1.3406283e+08
   1640000   1.0140183e-10  133723.29      122313.05      3950265.4      3.2956342e-06  5.17977e-07    2.7776572e-06  1.3406124e+08
   1641000   1.0146366e-10  133740.16      122337.63      3947704.5      3.2956198e-06  5.1761234e-07  2.7780075e-06  1.340667e+08 
   1642000   1.0152549e-10  133737.34      122339.62      3946094.8      3.2956253e-06  5.1767626e-07  2.777949e-06   1.3406453e+08
   1643000   1.0158732e-10  133737.42      122349.02      3942978        3.2956321e-06  5.1768144e-07  2.7779507e-06  1.3406391e+08
   1644000   1.0164915e-10  133738.46      122362.18      3938922.9      3.2956358e-06  5.176635e-07   2.7779723e-06  1.3406547e+08
   1645000   1.0171098e-10  133713.99      122348.83      3935182.5      3.2956382e-06  5.1817412e-07  2.777464e-06   1.340587e+08 
   1646000   1.0177281e-10  133711.93      122354.98      3932431.1      3.2956637e-06  5.1824248e-07  2.7774212e-06  1.340631e+08 
   1647000   1.0183464e-10  133710.85      122368         3927716.6      3.2956642e-06  5.1826535e-07  2.7773988e-06  1.3406386e+08
   1648000   1.0189647e-10  133692.95      122353.7       3926493        3.295662e-06   5.1863514e-07  2.7770269e-06  1.3405676e+08
   1649000   1.019583e-10   133704.06      122374.9       3923129.6      3.2956638e-06  5.1840609e-07  2.7772577e-06  1.3406113e+08
   1650000   1.0202013e-10  133713.92      122397.73      3918802.4      3.2956396e-06  5.1817708e-07  2.7774625e-06  1.3406204e+08
   1651000   1.0208196e-10  133713.71      122408.02      3915289.5      3.2956417e-06  5.1818357e-07  2.7774581e-06  1.3406099e+08
   1652000   1.0214379e-10  133719.12      122421.94      3912447.9      3.2956402e-06  5.1806976e-07  2.7775705e-06  1.3406172e+08
   1653000   1.0220562e-10  133732.84      122444.56      3909486.1      3.2956354e-06  5.1777985e-07  2.7778556e-06  1.3406652e+08
   1654000   1.0226746e-10  133725.33      122449.97      3905159.1      3.2956415e-06  5.179419e-07   2.7776996e-06  1.3406388e+08
   1655000   1.0232929e-10  133738.03      122467.29      3903625.7      3.2956489e-06  5.1768561e-07  2.7779633e-06  1.3406908e+08
   1656000   1.0239112e-10  133739.44      122478.44      3900369        3.2956572e-06  5.1766457e-07  2.7779926e-06  1.3407035e+08
   1657000   1.0245295e-10  133703.98      122450.86      3897698.1      3.2956513e-06  5.1839526e-07  2.7772561e-06  1.3405654e+08
   1658000   1.0251478e-10  133718.53      122473.68      3894948.4      3.2956502e-06  5.1809191e-07  2.7775583e-06  1.3406192e+08
   1659000   1.0257661e-10  133711.29      122477.95      3891088.8      3.295644e-06   5.1823615e-07  2.7774079e-06  1.3405834e+08
   1660000   1.0263844e-10  133717.05      122497.39      3886520.1      3.2956435e-06  5.1811605e-07  2.7775275e-06  1.3406036e+08
   1661000   1.0270027e-10  133724.63      122514.01      3883506        3.295637e-06   5.1795199e-07  2.777685e-06   1.3406275e+08
   1662000   1.027621e-10   133728.92      122527.79      3880338.6      3.2956259e-06  5.1785172e-07  2.7777741e-06  1.3406343e+08
   1663000   1.0282393e-10  133737.13      122545.76      3877082.2      3.2956242e-06  5.1767952e-07  2.7779447e-06  1.3406629e+08
   1664000   1.0288576e-10  133729.25      122545.48      3874529.3      3.2956334e-06  5.178525e-07   2.7777809e-06  1.340633e+08 
   1665000   1.0294759e-10  133720.15      122550.54      3869785.3      3.29564e-06    5.1804817e-07  2.7775918e-06  1.3406033e+08
   1666000   1.0300942e-10  133718.56      122565.86      3864127.3      3.2956518e-06  5.1809287e-07  2.7775589e-06  1.3406136e+08
   1667000   1.0307125e-10  133717.09      122575.41      3860440.3      3.2956548e-06  5.1812649e-07  2.7775283e-06  1.3406168e+08
   1668000   1.0313308e-10  133716.47      122580.22      3858624.1      3.2956385e-06  5.1812301e-07  2.7775155e-06  1.340608e+08 
   1669000   1.0319491e-10  133715.04      122589.27      3855121.1      3.2956416e-06  5.1815573e-07  2.7774859e-06  1.3405985e+08
   1670000   1.0325674e-10  133723.02      122607.13      3851819.4      3.2956486e-06  5.1799713e-07  2.7776515e-06  1.3406237e+08
   1671000   1.0331857e-10  133727.91      122618.91      3849523.1      3.2956531e-06  5.1789996e-07  2.7777531e-06  1.3406407e+08
   1672000   1.033804e-10   133726.92      122624.47      3847329.4      3.2956497e-06  5.179172e-07   2.7777325e-06  1.3406352e+08
   1673000   1.0344223e-10  133723.85      122635.87      3842489.8      3.2956481e-06  5.179793e-07   2.7776688e-06  1.3406255e+08
   1674000   1.0350406e-10  133738.73      122665.78      3837477.5      3.2956451e-06  5.1766722e-07  2.7779779e-06  1.3406819e+08
   1675000   1.0356589e-10  133729.06      122672.46      3831998.6      3.295643e-06   5.1786609e-07  2.7777769e-06  1.3406513e+08
   1676000   1.0362772e-10  133729.03      122682.82      3828523.8      3.295653e-06   5.1787654e-07  2.7777765e-06  1.3406616e+08
   1677000   1.0368955e-10  133726.21      122684.7       3826948.6      3.2956463e-06  5.179285e-07   2.7777178e-06  1.3406331e+08
   1678000   1.0375138e-10  133742.76      122706.04      3825362.8      3.2956178e-06  5.1755625e-07  2.7780615e-06  1.3406642e+08
   1679000   1.0381321e-10  133722.82      122694.91      3822396.2      3.2956342e-06  5.1798682e-07  2.7776474e-06  1.3406017e+08
   1680000   1.0387505e-10  133711.94      122690.01      3820384.7      3.2956293e-06  5.1820794e-07  2.7774214e-06  1.3405602e+08
   1681000   1.0393688e-10  133728.35      122720.5       3815691        3.2956393e-06  5.1787713e-07  2.7777622e-06  1.340635e+08 
   1682000   1.0399871e-10  133720.52      122727.69      3810661        3.2956419e-06  5.1804239e-07  2.7775995e-06  1.3406157e+08
   1683000   1.0406054e-10  133713.17      122730.85      3807139.3      3.2956469e-06  5.1819999e-07  2.7774469e-06  1.3405947e+08
   1684000   1.0412237e-10  133728.66      122755.17      3804200.8      3.2956414e-06  5.178728e-07   2.7777686e-06  1.3406459e+08
   1685000   1.041842e-10   133726.97      122761.01      3801683.8      3.2956328e-06  5.1789914e-07  2.7777337e-06  1.3406206e+08
   1686000   1.0424603e-10  133731.94      122776.93      3798025.1      3.295636e-06   5.1779917e-07  2.7778368e-06  1.3406447e+08
   1687000   1.0430786e-10  133736.09      122798.98      3792042.4      3.2956329e-06  5.1770986e-07  2.777923e-06   1.340671e+08 
   1688000   1.0436969e-10  133726.26      122804.86      3786779.2      3.2956409e-06  5.1792202e-07  2.7777189e-06  1.3406504e+08
   1689000   1.0443152e-10  133712.78      122795.22      3785479.2      3.2956379e-06  5.1819912e-07  2.7774388e-06  1.3405955e+08
   1690000   1.0449335e-10  133723.52      122817.2       3781730.7      3.2956351e-06  5.1797321e-07  2.7776619e-06  1.3406201e+08
   1691000   1.0455518e-10  133738.85      122843.78      3777986.2      3.295621e-06   5.1764055e-07  2.7779804e-06  1.3406479e+08
   1692000   1.0461701e-10  133740.5       122853.96      3775134.1      3.2956442e-06  5.1762952e-07  2.7780147e-06  1.3406611e+08
   1693000   1.0467884e-10  133733.09      122860.43      3770485.9      3.295649e-06   5.1778831e-07  2.7778607e-06  1.3406359e+08
   1694000   1.0474067e-10  133729.64      122866.06      3767444.9      3.2956617e-06  5.1787262e-07  2.7777891e-06  1.340643e+08 
   1695000   1.048025e-10   133729.25      122871.62      3765455        3.2956696e-06  5.1788866e-07  2.777781e-06   1.3406662e+08
   1696000   1.0486433e-10  133722.15      122872.06      3762926.5      3.2956648e-06  5.1803134e-07  2.7776334e-06  1.3406522e+08
   1697000   1.0492616e-10  133716.1       122878.3       3758808.6      3.2956716e-06  5.1816391e-07  2.7775077e-06  1.3406415e+08
   1698000   1.0498799e-10  133724.26      122894.76      3756042.7      3.295665e-06   5.1798767e-07  2.7776773e-06  1.3406721e+08
   1699000   1.0504982e-10  133712.29      122890.78      3753359.2      3.2956521e-06  5.1822338e-07  2.7774287e-06  1.3406194e+08
   1700000   1.0511165e-10  133717.52      122906.68      3749793.1      3.2956464e-06  5.1810908e-07  2.7775373e-06  1.3406351e+08
   1701000   1.0517348e-10  133721.51      122921.89      3746044.9      3.2956496e-06  5.1802949e-07  2.7776201e-06  1.3406429e+08
   1702000   1.0523531e-10  133734.69      122941.74      3743829.1      3.2956396e-06  5.1774561e-07  2.777894e-06   1.3406712e+08
   1703000   1.0529714e-10  133730.32      122942.76      3742023.5      3.2956392e-06  5.1783593e-07  2.7778033e-06  1.3406435e+08
   1704000   1.0535897e-10  133712.73      122941.27      3736621        3.2956307e-06  5.1819289e-07  2.7774378e-06  1.3405622e+08
   1705000   1.054208e-10   133719.76      122959.35      3732931.6      3.2956338e-06  5.1804998e-07  2.7775838e-06  1.3405945e+08
   1706000   1.0548264e-10  133712.2       122963.33      3729065.5      3.2956195e-06  5.1819263e-07  2.7774268e-06  1.3405576e+08
   1707000   1.0554447e-10  133736.88      122997.29      3725982.8      3.2956348e-06  5.1769544e-07  2.7779394e-06  1.3406617e+08
   1708000   1.056063e-10   133732.87      123001.4       3723261.9      3.2956387e-06  5.1778265e-07  2.777856e-06   1.3406392e+08
   1709000   1.0566813e-10  133741.12      123017.53      3720637.2      3.2956346e-06  5.1760711e-07  2.7780275e-06  1.3406597e+08
   1710000   1.0572996e-10  133746.65      123029.79      3718393.6      3.2956227e-06  5.1748028e-07  2.7781424e-06  1.340661e+08 
   1711000   1.0579179e-10  133744.11      123041.57      3713602.7      3.2956287e-06  5.1753905e-07  2.7780897e-06  1.3406534e+08
   1712000   1.0585362e-10  133735.37      123048.43      3708376.4      3.2956308e-06  5.177226e-07   2.7779082e-06  1.3406286e+08
   1713000   1.0591545e-10  133724.24      123045.45      3705635.2      3.295639e-06   5.1796223e-07  2.7776768e-06  1.3405969e+08
   1714000   1.0597728e-10  133735         123072.74      3700120        3.2956304e-06  5.1772991e-07  2.7779005e-06  1.3406217e+08
   1715000   1.0603911e-10  133740.49      123097.38      3693718.8      3.295625e-06   5.1761068e-07  2.7780143e-06  1.3406291e+08
   1716000   1.0610094e-10  133755.77      123119.68      3691388.2      3.2956261e-06  5.1729424e-07  2.7783319e-06  1.3406896e+08
   1717000   1.0616277e-10  133743.63      123120.93      3686897.6      3.2956291e-06  5.175495e-07   2.7780796e-06  1.3406604e+08
   1718000   1.062246e-10   133735.43      123118.86      3684839.1      3.2956284e-06  5.1771909e-07  2.7779093e-06  1.3406446e+08
   1719000   1.0628643e-10  133731.8       123119.93      3683265.1      3.2956283e-06  5.1779431e-07  2.777834e-06   1.3406491e+08
   1720000   1.0634826e-10  133716.28      123122.95      3677048.9      3.2956416e-06  5.1813008e-07  2.7775115e-06  1.3406096e+08
   1721000   1.0641009e-10  133711.5       123122.77      3675502.7      3.2956326e-06  5.1822043e-07  2.7774121e-06  1.3405796e+08
   1722000   1.0647192e-10  133724.52      123146.48      3671943.2      3.295646e-06   5.1796325e-07  2.7776827e-06  1.3406247e+08
   1723000   1.0653375e-10  133740.96      123169.18      3669866.2      3.2956278e-06  5.1760358e-07  2.7780242e-06  1.3406543e+08
   1724000   1.0659558e-10  133749.37      123196.33      3663604.8      3.2956157e-06  5.1741692e-07  2.7781988e-06  1.3406642e+08
   1725000   1.0665741e-10  133751.81      123218.47      3657021        3.2956337e-06  5.1738416e-07  2.7782496e-06  1.340689e+08 
   1726000   1.0671924e-10  133736.88      123215.82      3652896.3      3.2956333e-06  5.1769396e-07  2.7779394e-06  1.3406406e+08
   1727000   1.0678107e-10  133739.74      123226.37      3650331.3      3.2956234e-06  5.1762451e-07  2.7779989e-06  1.3406553e+08
   1728000   1.068429e-10   133719.48      123221.04      3645313.8      3.2956272e-06  5.1804931e-07  2.7775779e-06  1.3405844e+08
   1729000   1.0690473e-10  133730.99      123250.27      3639399.3      3.2956346e-06  5.1781757e-07  2.7778171e-06  1.3406334e+08
   1730000   1.0696656e-10  133737.1       123259.61      3638327.5      3.2956328e-06  5.176888e-07   2.777944e-06   1.3406534e+08
   1731000   1.0702839e-10  133736.34      123263.13      3636893.5      3.2956332e-06  5.1770506e-07  2.7779282e-06  1.3406577e+08
   1732000   1.0709023e-10  133732.19      123261.23      3636139.6      3.2956238e-06  5.1778171e-07  2.7778421e-06  1.3406444e+08
   1733000   1.0715206e-10  133716.88      123255.78      3632823.2      3.2956246e-06  5.1810067e-07  2.7775239e-06  1.3405808e+08
   1734000   1.0721389e-10  133718.05      123265.91      3629827.5      3.2956261e-06  5.1807788e-07  2.7775483e-06  1.3405667e+08
   1735000   1.0727572e-10  133743.02      123299.2       3627070.1      3.2956249e-06  5.1755802e-07  2.7780669e-06  1.3406354e+08
   1736000   1.0733755e-10  133749.86      123313.57      3624560.8      3.2956183e-06  5.1740925e-07  2.7782091e-06  1.3406444e+08
   1737000   1.0739938e-10  133756         123327.69      3621898.4      3.2956171e-06  5.172806e-07   2.7783365e-06  1.3406737e+08
   1738000   1.0746121e-10  133740.84      123326.98      3617050.5      3.2956121e-06  5.1759041e-07  2.7780217e-06  1.3406218e+08
   1739000   1.0752304e-10  133733.3       123324.71      3615281        3.2956134e-06  5.177483e-07   2.7778651e-06  1.3406031e+08
   1740000   1.0758487e-10  133735.05      123337.71      3611518.8      3.2956231e-06  5.1772177e-07  2.7779013e-06  1.3406227e+08
   1741000   1.076467e-10   133735.5       123349.88      3607599.1      3.2956359e-06  5.1772518e-07  2.7779107e-06  1.3406484e+08
   1742000   1.0770853e-10  133722.49      123346.71      3604294.6      3.2956318e-06  5.1799136e-07  2.7776405e-06  1.3406047e+08
   1743000   1.0777036e-10  133730.95      123362.89      3601722.6      3.2956408e-06  5.1782456e-07  2.7778163e-06  1.3406433e+08
   1744000   1.0783219e-10  133734.37      123379.56      3597294.1      3.2956372e-06  5.1774993e-07  2.7778873e-06  1.3406427e+08
   1745000   1.0789402e-10  133739.05      123392.12      3594662.8      3.2956423e-06  5.176579e-07   2.7779844e-06  1.3406559e+08
   1746000   1.0795585e-10  133737.87      123395.98      3592977.8      3.2956364e-06  5.1767633e-07  2.77796e-06    1.3406492e+08
   1747000   1.0801768e-10  133727.27      123393.28      3590324.1      3.2956351e-06  5.1789529e-07  2.7777398e-06  1.3406084e+08
   1748000   1.0807951e-10  133748.91      123426.72      3586401.2      3.2956428e-06  5.1745337e-07  2.7781894e-06  1.3406971e+08
   1749000   1.0814134e-10  133750.12      123436.96      3583381.8      3.2956636e-06  5.1744914e-07  2.7782144e-06  1.3407157e+08
   1750000   1.0820317e-10  133748.06      123439.51      3581838        3.2956678e-06  5.1749612e-07  2.7781717e-06  1.3407248e+08
   1751000   1.08265e-10    133731.64      123430.98      3579181.2      3.295674e-06   5.178434e-07   2.7778306e-06  1.3406918e+08
   1752000   1.0832683e-10  133716.6       123427.98      3575139.7      3.295659e-06   5.1814081e-07  2.7775182e-06  1.3406362e+08
   1753000   1.0838866e-10  133714.73      123440.35      3570374.5      3.2956601e-06  5.1818087e-07  2.7774793e-06  1.3406306e+08
   1754000   1.0845049e-10  133725.25      123463.18      3566269.3      3.2956606e-06  5.1796276e-07  2.7776978e-06  1.3406608e+08
   1755000   1.0851232e-10  133729.48      123479.19      3562332        3.2956568e-06  5.1787104e-07  2.7777857e-06  1.3406637e+08
   1756000   1.0857415e-10  133718.89      123479.7       3558609.6      3.2956391e-06  5.1807342e-07  2.7775657e-06  1.3406038e+08
   1757000   1.0863598e-10  133727.37      123498.46      3555181        3.295633e-06   5.1789113e-07  2.7777418e-06  1.3406317e+08
   1758000   1.0869782e-10  133700.5       123481.93      3551693.6      3.2956279e-06  5.184442e-07   2.7771837e-06  1.3405365e+08
   1759000   1.0875965e-10  133708.07      123502.58      3547329.8      3.2956308e-06  5.1828968e-07  2.7773411e-06  1.3405834e+08
   1760000   1.0882148e-10  133705.32      123506.06      3545241.7      3.2956375e-06  5.1835357e-07  2.7772839e-06  1.3405824e+08
   1761000   1.0888331e-10  133714.88      123526.18      3541717.1      3.295647e-06   5.1816467e-07  2.7774824e-06  1.3406191e+08
   1762000   1.0894514e-10  133729.73      123553.54      3537552.9      3.2956558e-06  5.1786482e-07  2.777791e-06   1.3406638e+08
   1763000   1.0900697e-10  133729.96      123576.55      3529931.9      3.2956518e-06  5.1785606e-07  2.7777957e-06  1.3406395e+08
   1764000   1.090688e-10   133730.98      123587.12      3526739.3      3.2956484e-06  5.1783158e-07  2.7778168e-06  1.3406354e+08
   1765000   1.0913063e-10  133721.85      123590.52      3522539.5      3.2956527e-06  5.1802536e-07  2.7776273e-06  1.3406069e+08
   1766000   1.0919246e-10  133735.19      123609.35      3520717.3      3.2956518e-06  5.1774733e-07  2.7779044e-06  1.3406658e+08
   1767000   1.0925429e-10  133731.48      123615.36      3517462.8      3.29566e-06    5.1783281e-07  2.7778272e-06  1.340671e+08 
   1768000   1.0931612e-10  133714.39      123607.22      3514454.5      3.2956579e-06  5.181855e-07   2.7774723e-06  1.3406113e+08
   1769000   1.0937795e-10  133704.13      123611.46      3509591.9      3.2956488e-06  5.1838956e-07  2.7772592e-06  1.3405667e+08
   1770000   1.0943978e-10  133718.2       123641.63      3504222.7      3.2956412e-06  5.1808976e-07  2.7775514e-06  1.3406045e+08
   1771000   1.0950161e-10  133732.17      123664.52      3501253.1      3.2956189e-06  5.177773e-07   2.7778416e-06  1.3406228e+08
   1772000   1.0956344e-10  133727.67      123667.48      3498751.8      3.295619e-06   5.1787098e-07  2.777748e-06   1.3405897e+08
   1773000   1.0962527e-10  133730.27      123673.8       3497512.1      3.2956301e-06  5.178279e-07   2.7778022e-06  1.3406058e+08
   1774000   1.096871e-10   133726.73      123682.38      3493452.7      3.295626e-06   5.1789741e-07  2.7777286e-06  1.3406025e+08
   1775000   1.0974893e-10  133723.53      123685.96      3491185.1      3.2956249e-06  5.1796267e-07  2.7776622e-06  1.3406029e+08
   1776000   1.0981076e-10  133711.92      123684.05      3487926.7      3.295632e-06   5.1821101e-07  2.777421e-06   1.34057e+08  
   1777000   1.0987259e-10  133723.52      123703.76      3485228.8      3.295644e-06   5.1798207e-07  2.7776619e-06  1.3406359e+08
   1778000   1.0993442e-10  133714.24      123705.19      3481635        3.2956448e-06  5.1817563e-07  2.7774692e-06  1.3406028e+08
   1779000   1.0999625e-10  133728.57      123730.38      3478018.9      3.2956534e-06  5.1788671e-07  2.7777667e-06  1.3406625e+08
   1780000   1.1005808e-10  133722.66      123729.37      3476372.5      3.2956532e-06  5.1800926e-07  2.777644e-06   1.3406352e+08
   1781000   1.1011991e-10  133719.02      123726.94      3475964.7      3.2956559e-06  5.1808739e-07  2.7775685e-06  1.3406218e+08
   1782000   1.1018174e-10  133711.49      123729.82      3472477.2      3.2956531e-06  5.1824105e-07  2.7774121e-06  1.3405939e+08
   1783000   1.1024357e-10  133728.99      123752.32      3470824.7      3.2956507e-06  5.1787503e-07  2.7777756e-06  1.3406725e+08
   1784000   1.1030541e-10  133711.08      123742.28      3468170.8      3.295648e-06   5.1824446e-07  2.7774035e-06  1.3406069e+08
   1785000   1.1036724e-10  133706.68      123742.1       3466756.1      3.2956252e-06  5.18313e-07    2.7773122e-06  1.3405785e+08
   1786000   1.1042907e-10  133715.16      123753.36      3465833.9      3.2956232e-06  5.1813505e-07  2.7774882e-06  1.3406087e+08
   1787000   1.104909e-10   133730.4       123777.79      3462776.4      3.295627e-06   5.1782218e-07  2.7778049e-06  1.3406596e+08
   1788000   1.1055273e-10  133721.77      123777.84      3459866        3.2956162e-06  5.1799061e-07  2.7776256e-06  1.3406012e+08
   1789000   1.1061456e-10  133726.28      123795.57      3455449.5      3.2956327e-06  5.1791344e-07  2.7777193e-06  1.3406194e+08
   1790000   1.1067639e-10  133715.84      123794.87      3452182.4      3.2956434e-06  5.1814089e-07  2.7775025e-06  1.3405859e+08
   1791000   1.1073822e-10  133722.52      123813.74      3448111        3.2956528e-06  5.1801171e-07  2.7776411e-06  1.3406229e+08
   1792000   1.1080005e-10  133729.45      123834.2       3443590.6      3.2956552e-06  5.1787006e-07  2.7777851e-06  1.340652e+08 
   1793000   1.1086188e-10  133735.55      123859.22      3437269.4      3.2956604e-06  5.177486e-07   2.7779118e-06  1.3406861e+08
   1794000   1.1092371e-10  133726.34      123859.12      3434213        3.2956676e-06  5.1794715e-07  2.7777204e-06  1.3406686e+08
   1795000   1.1098554e-10  133726.67      123868.5       3431186.3      3.2956629e-06  5.1793553e-07  2.7777273e-06  1.3406667e+08
   1796000   1.1104737e-10  133731.83      123885.36      3427282.1      3.2956546e-06  5.1782002e-07  2.7778346e-06  1.3406799e+08
   1797000   1.111092e-10   133723.32      123891.04      3422526.6      3.2956626e-06  5.180048e-07   2.7776578e-06  1.3406596e+08
   1798000   1.1117103e-10  133717.69      123899.31      3417871.9      3.2956662e-06  5.1812533e-07  2.7775409e-06  1.3406431e+08
   1799000   1.1123286e-10  133722.3       123913.62      3414634.1      3.295664e-06   5.1802738e-07  2.7776366e-06  1.3406477e+08
   1800000   1.1129469e-10  133721.87      123919.53      3412511.5      3.29565e-06    5.1802226e-07  2.7776277e-06  1.340622e+08 
   1801000   1.1135652e-10  133737.09      123947.64      3408214.3      3.2956447e-06  5.1770091e-07  2.7779438e-06  1.3406703e+08
   1802000   1.1141835e-10  133724.79      123946.71      3404401.1      3.2956443e-06  5.1795592e-07  2.7776883e-06  1.3406219e+08
   1803000   1.1148018e-10  133727.82      123960.16      3400919.3      3.2956424e-06  5.1789113e-07  2.7777512e-06  1.340637e+08 
   1804000   1.1154201e-10  133733.39      123979.8       3396217.8      3.2956461e-06  5.1777911e-07  2.777867e-06   1.3406681e+08
   1805000   1.1160384e-10  133719.82      123987.6       3389056.6      3.2956467e-06  5.1806157e-07  2.7775851e-06  1.3406204e+08
   1806000   1.1166567e-10  133710.59      123982.52      3387660.5      3.2956569e-06  5.1826358e-07  2.7773933e-06  1.3405901e+08
   1807000   1.117275e-10   133720.43      123999.73      3385204.8      3.2956536e-06  5.1805579e-07  2.7775978e-06  1.3406247e+08
   1808000   1.1178933e-10  133718.22      124004.93      3382725.4      3.2956473e-06  5.1809537e-07  2.7775519e-06  1.3406145e+08
   1809000   1.1185116e-10  133713.86      124010.64      3379351.3      3.2956462e-06  5.1818497e-07  2.7774612e-06  1.3406066e+08
   1810000   1.11913e-10    133709.74      124026.74      3372585.7      3.2956437e-06  5.1826811e-07  2.7773756e-06  1.3405918e+08
   1811000   1.1197483e-10  133718.72      124048.31      3368382.6      3.2956288e-06  5.1806659e-07  2.7775622e-06  1.3406091e+08
   1812000   1.1203666e-10  133733.46      124077.26      3363645.1      3.2956499e-06  5.177815e-07   2.7778684e-06  1.3406711e+08
   1813000   1.1209849e-10  133731.86      124080.57      3362003.3      3.2956411e-06  5.1780586e-07  2.7778352e-06  1.3406523e+08
   1814000   1.1216032e-10  133733.88      124087.93      3360220.8      3.2956453e-06  5.1776815e-07  2.7778772e-06  1.3406714e+08
   1815000   1.1222215e-10  133716.28      124083.82      3355690.5      3.2956574e-06  5.1814581e-07  2.7775116e-06  1.3406192e+08
   1816000   1.1228398e-10  133721.07      124097.57      3352697.7      3.2956521e-06  5.1804115e-07  2.777611e-06   1.340637e+08 
   1817000   1.1234581e-10  133719.08      124102.4       3350417.2      3.2956639e-06  5.180941e-07   2.7775698e-06  1.3406407e+08
   1818000   1.1240764e-10  133720.66      124110.54      3348223.7      3.29566e-06    5.1805749e-07  2.7776026e-06  1.3406472e+08
   1819000   1.1246947e-10  133714.44      124110.57      3346127        3.2956508e-06  5.1817738e-07  2.7774734e-06  1.3406245e+08
   1820000   1.125313e-10   133721.27      124126.36      3343136.1      3.2956557e-06  5.1804043e-07  2.7776153e-06  1.3406567e+08
   1821000   1.1259313e-10  133711.65      124127.03      3339682.6      3.2956675e-06  5.1825218e-07  2.7774153e-06  1.3406278e+08
   1822000   1.1265496e-10  133717.18      124141.35      3336753.4      3.2956601e-06  5.181298e-07   2.7775303e-06  1.3406373e+08
   1823000   1.1271679e-10  133730         124169.16      3331752.7      3.2956636e-06  5.1786704e-07  2.7777966e-06  1.3406824e+08
   1824000   1.1277862e-10  133722.61      124174.56      3327468.1      3.2956526e-06  5.1800951e-07  2.7776431e-06  1.3406397e+08
   1825000   1.1284045e-10  133725.98      124191.29      3323003.5      3.2956521e-06  5.1793895e-07  2.7777131e-06  1.3406518e+08
   1826000   1.1290228e-10  133724.44      124198.16      3320186.1      3.2956438e-06  5.1796291e-07  2.7776809e-06  1.3406386e+08
   1827000   1.1296411e-10  133717.22      124205.37      3315353.4      3.2956447e-06  5.1811364e-07  2.777531e-06   1.3406145e+08
   1828000   1.1302594e-10  133733.55      124228.93      3312951.5      3.2956374e-06  5.1776708e-07  2.7778703e-06  1.3406689e+08
   1829000   1.1308777e-10  133741.68      124243.47      3310815.2      3.2956358e-06  5.1759673e-07  2.7780391e-06  1.3406879e+08
   1830000   1.131496e-10   133727         124235.94      3308410.2      3.2956422e-06  5.1790806e-07  2.7777342e-06  1.3406257e+08
   1831000   1.1321143e-10  133722.11      124238.72      3305839.2      3.2956332e-06  5.1800064e-07  2.7776326e-06  1.3405901e+08
   1832000   1.1327326e-10  133731.51      124257.01      3302876.4      3.2956302e-06  5.1780233e-07  2.7778278e-06  1.3406246e+08
   1833000   1.1333509e-10  133724.59      124259.22      3299816        3.2956349e-06  5.1795067e-07  2.7776842e-06  1.3406076e+08
   1834000   1.1339692e-10  133728.77      124280.2       3294201        3.2956324e-06  5.1786136e-07  2.777771e-06   1.3406236e+08
   1835000   1.1345875e-10  133726.93      124287.58      3291117.4      3.295638e-06   5.1790524e-07  2.7777328e-06  1.3406223e+08
   1836000   1.1352059e-10  133712.37      124281.86      3288146.4      3.2956439e-06  5.1821345e-07  2.7774304e-06  1.3405794e+08
   1837000   1.1358242e-10  133732.5       124311.12      3285110.7      3.2956377e-06  5.1778935e-07  2.7778484e-06  1.340652e+08 
   1838000   1.1364425e-10  133743.57      124331.31      3282073.7      3.2956432e-06  5.1756485e-07  2.7780784e-06  1.3406888e+08
   1839000   1.1370608e-10  133733.88      124332.03      3278579.4      3.2956452e-06  5.1776812e-07  2.7778771e-06  1.3406532e+08
   1840000   1.1376791e-10  133729.89      124331.47      3277428        3.2956444e-06  5.1785023e-07  2.7777942e-06  1.3406453e+08
   1841000   1.1382974e-10  133728.21      124334.73      3275775.5      3.2956332e-06  5.1787392e-07  2.7777593e-06  1.3406321e+08
   1842000   1.1389157e-10  133742.82      124355.66      3273677.2      3.2956223e-06  5.1755956e-07  2.7780627e-06  1.3406756e+08
   1843000   1.139534e-10   133739.22      124366.51      3268841.3      3.2956153e-06  5.1762725e-07  2.7779881e-06  1.3406519e+08
   1844000   1.1401523e-10  133733.34      124378.02      3263018.6      3.2956101e-06  5.177442e-07   2.7778659e-06  1.3406157e+08
   1845000   1.1407706e-10  133729.57      124382.72      3260182.7      3.2956138e-06  5.1782629e-07  2.7777875e-06  1.3406034e+08
   1846000   1.1413889e-10  133717.26      124382.46      3256139.8      3.2956286e-06  5.1809667e-07  2.7775319e-06  1.34058e+08  
   1847000   1.1420072e-10  133717.68      124389.89      3253794.9      3.2956367e-06  5.1809608e-07  2.7775406e-06  1.3406024e+08
   1848000   1.1426255e-10  133711.82      124393.63      3250577        3.2956344e-06  5.182156e-07   2.7774188e-06  1.3405888e+08
   1849000   1.1432438e-10  133702.72      124393.75      3247487.4      3.2956387e-06  5.1840881e-07  2.7772299e-06  1.3405636e+08
   1850000   1.1438621e-10  133712.21      124415.37      3243439.1      3.2956365e-06  5.1820956e-07  2.777427e-06   1.340593e+08 
   1851000   1.1444804e-10  133716.95      124428.93      3240494.7      3.295627e-06   5.1810163e-07  2.7775254e-06  1.340591e+08 
   1852000   1.1450987e-10  133723.67      124446.32      3236933.2      3.2956383e-06  5.1797329e-07  2.777665e-06   1.3406145e+08
   1853000   1.145717e-10   133716.4       124445.39      3234805.9      3.2956358e-06  5.181218e-07   2.777514e-06   1.3405846e+08
   1854000   1.1463353e-10  133727.75      124466.93      3231407.3      3.2956508e-06  5.179011e-07   2.7777497e-06  1.3406587e+08
   1855000   1.1469536e-10  133713.85      124466.83      3226779.3      3.2956687e-06  5.1820775e-07  2.777461e-06   1.3406405e+08
   1856000   1.1475719e-10  133706.8       124474.31      3221911.3      3.2956691e-06  5.1835459e-07  2.7773145e-06  1.3406282e+08
   1857000   1.1481902e-10  133715.27      124495.99      3217503.8      3.2956659e-06  5.1817526e-07  2.7774906e-06  1.3406636e+08
   1858000   1.1488085e-10  133694.75      124487.4       3213489.9      3.2956621e-06  5.1859785e-07  2.7770642e-06  1.3405705e+08
   1859000   1.1494268e-10  133720.16      124520.98      3210783.4      3.2956706e-06  5.1807858e-07  2.7775921e-06  1.3406568e+08
   1860000   1.1500451e-10  133735.59      124543.89      3208296.6      3.295664e-06   5.177515e-07   2.7779126e-06  1.3406919e+08
   1861000   1.1506634e-10  133727.3       124549.9       3203509.7      3.2956566e-06  5.1791613e-07  2.7777405e-06  1.3406563e+08
   1862000   1.1512818e-10  133717.65      124550.42      3200099.1      3.2956464e-06  5.1810636e-07  2.77754e-06    1.3406292e+08
   1863000   1.1519001e-10  133697.96      124538.41      3197508.7      3.2956529e-06  5.1852187e-07  2.777131e-06   1.340573e+08 
   1864000   1.1525184e-10  133696.58      124550.06      3193150.2      3.2956474e-06  5.18545e-07    2.7771024e-06  1.3405726e+08
   1865000   1.1531367e-10  133713.23      124579.89      3188759.7      3.2956532e-06  5.1820491e-07  2.7774483e-06  1.3406346e+08
   1866000   1.153755e-10   133710.73      124586.71      3185640.9      3.2956581e-06  5.182618e-07   2.7773963e-06  1.3406046e+08
   1867000   1.1543733e-10  133703.55      124593.2       3181062.8      3.2956533e-06  5.1840616e-07  2.7772472e-06  1.3405548e+08
   1868000   1.1549916e-10  133726.11      124627.09      3177294.6      3.2956383e-06  5.1792263e-07  2.7777157e-06  1.3406155e+08
   1869000   1.1556099e-10  133735.09      124644.88      3174353        3.2956247e-06  5.1772258e-07  2.7779022e-06  1.3406314e+08
   1870000   1.1562282e-10  133726.15      124644.9       3171349.5      3.2956331e-06  5.1791669e-07  2.7777164e-06  1.3406055e+08
   1871000   1.1568465e-10  133726.74      124658.39      3167036.9      3.2956157e-06  5.17887e-07    2.7777287e-06  1.3405983e+08
   1872000   1.1574648e-10  133716.67      124659.2       3163386.5      3.295619e-06   5.1809941e-07  2.7775196e-06  1.3405627e+08
   1873000   1.1580831e-10  133736.96      124684.47      3161744.8      3.2956379e-06  5.1769675e-07  2.7779412e-06  1.3406483e+08
   1874000   1.1587014e-10  133732.08      124689.53      3158414.6      3.2956316e-06  5.1779193e-07  2.7778397e-06  1.3406216e+08
   1875000   1.1593197e-10  133735.08      124706.76      3153659.8      3.2956415e-06  5.1773938e-07  2.7779021e-06  1.3406481e+08
   1876000   1.159938e-10   133734.19      124719.48      3149105.4      3.2956425e-06  5.177589e-07   2.7778836e-06  1.3406504e+08
   1877000   1.1605563e-10  133732.52      124727.31      3145925.8      3.2956457e-06  5.1779684e-07  2.7778488e-06  1.3406476e+08
   1878000   1.1611746e-10  133723.28      124727.4       3142795.2      3.2956435e-06  5.1798661e-07  2.7776569e-06  1.3406081e+08
   1879000   1.1617929e-10  133722.87      124730.97      3141464.5      3.2956202e-06  5.1797182e-07  2.7776484e-06  1.3405859e+08
   1880000   1.1624112e-10  133728.76      124745.55      3138565.7      3.295625e-06   5.1785415e-07  2.7777708e-06  1.3406053e+08
   1881000   1.1630295e-10  133746.18      124770.28      3136134        3.2956242e-06  5.1749163e-07  2.7781325e-06  1.340668e+08 
   1882000   1.1636478e-10  133728.58      124757.73      3134430.2      3.2956314e-06  5.1786441e-07  2.7777669e-06  1.3406049e+08
   1883000   1.1642661e-10  133731.5       124770.8       3131038        3.295621e-06   5.1779326e-07  2.7778277e-06  1.3406121e+08
   1884000   1.1648844e-10  133722.2       124775.44      3126365.6      3.2956211e-06  5.1798664e-07  2.7776344e-06  1.3405822e+08
   1885000   1.1655027e-10  133731.06      124791.23      3124059.2      3.2956213e-06  5.1780273e-07  2.7778185e-06  1.3406235e+08
   1886000   1.166121e-10   133719.38      124791.96      3119897.9      3.2956243e-06  5.1804831e-07  2.7775759e-06  1.3405841e+08
   1887000   1.1667393e-10  133715.01      124797.98      3116415.9      3.2956216e-06  5.181365e-07   2.7774851e-06  1.3405699e+08
   1888000   1.1673577e-10  133722.15      124814.12      3113416.4      3.2956127e-06  5.1797912e-07  2.7776336e-06  1.3405858e+08
   1889000   1.167976e-10   133727.86      124827.29      3110922.5      3.2956152e-06  5.1786322e-07  2.777752e-06   1.340604e+08 
   1890000   1.1685943e-10  133715.83      124823.04      3108310.2      3.295616e-06   5.1811377e-07  2.7775022e-06  1.340558e+08 
   1891000   1.1692126e-10  133716.42      124833.41      3105041.5      3.2956342e-06  5.1811969e-07  2.7775145e-06  1.3405696e+08
   1892000   1.1698309e-10  133730.97      124852.42      3103563.3      3.2956389e-06  5.1782223e-07  2.7778167e-06  1.3406207e+08
   1893000   1.1704492e-10  133728.81      124855.01      3101974        3.2956438e-06  5.1787197e-07  2.7777719e-06  1.3406086e+08
   1894000   1.1710675e-10  133725.15      124856.72      3100173        3.2956419e-06  5.1794617e-07  2.7776957e-06  1.3405984e+08
   1895000   1.1716858e-10  133719.03      124854.49      3098867.7      3.2956338e-06  5.1806507e-07  2.7775687e-06  1.3405788e+08
   1896000   1.1723041e-10  133721.21      124867.39      3095284.3      3.2956497e-06  5.180357e-07   2.777614e-06   1.3406127e+08
   1897000   1.1729224e-10  133713.98      124871.56      3091463.1      3.2956361e-06  5.1817244e-07  2.7774637e-06  1.3405893e+08
   1898000   1.1735407e-10  133717.09      124882.71      3088779.3      3.295652e-06   5.1812354e-07  2.7775284e-06  1.3406155e+08
   1899000   1.174159e-10   133731.88      124909.95      3084627.4      3.2956607e-06  5.1782515e-07  2.7778355e-06  1.3406773e+08
   1900000   1.1747773e-10  133731.49      124915.76      3082554.9      3.2956482e-06  5.1782071e-07  2.7778275e-06  1.3406643e+08
   1901000   1.1753956e-10  133726.07      124915.68      3080761.7      3.2956406e-06  5.1792572e-07  2.7777148e-06  1.3406451e+08
   1902000   1.1760139e-10  133714.05      124914.72      3077052.6      3.2956285e-06  5.1816319e-07  2.7774653e-06  1.3405917e+08
   1903000   1.1766322e-10  133721.61      124933.59      3073278.4      3.2956383e-06  5.1801596e-07  2.7776223e-06  1.3406202e+08
   1904000   1.1772505e-10  133734.69      124951.76      3071585.6      3.2956473e-06  5.1775342e-07  2.7778939e-06  1.3406604e+08
   1905000   1.1778688e-10  133735.96      124957.75      3070011.9      3.2956453e-06  5.1772486e-07  2.7779204e-06  1.3406532e+08
   1906000   1.1784871e-10  133731.99      124965.13      3066209.4      3.2956462e-06  5.1780825e-07  2.7778379e-06  1.3406404e+08
   1907000   1.1791054e-10  133733         124976.76      3062659.8      3.2956344e-06  5.1777554e-07  2.7778589e-06  1.3406392e+08
   1908000   1.1797237e-10  133726.3       124979.59      3059467.4      3.2956195e-06  5.1789974e-07  2.7777197e-06  1.3406095e+08
   1909000   1.180342e-10   133716.28      124980.49      3055805.1      3.2956182e-06  5.1810661e-07  2.7775116e-06  1.3405819e+08
   1910000   1.1809603e-10  133714.16      124988.17      3052525        3.2956258e-06  5.1815827e-07  2.7774676e-06  1.3405912e+08
   1911000   1.1815786e-10  133713.26      124996.59      3049408.7      3.2956301e-06  5.1818121e-07  2.7774489e-06  1.3405871e+08
   1912000   1.1821969e-10  133719.44      125007.89      3047701.4      3.2956368e-06  5.1805955e-07  2.7775772e-06  1.3406131e+08
   1913000   1.1828152e-10  133709.17      125008.05      3044201.3      3.2956353e-06  5.1827148e-07  2.7773639e-06  1.3405688e+08
   1914000   1.1834335e-10  133722.21      125027.61      3042032.3      3.2956401e-06  5.1800554e-07  2.7776346e-06  1.3406193e+08
   1915000   1.1840519e-10  133728.21      125044.27      3038472.7      3.2956383e-06  5.1787897e-07  2.7777593e-06  1.3406356e+08
   1916000   1.1846702e-10  133727.03      125057.51      3033650.1      3.2956363e-06  5.1790152e-07  2.7777347e-06  1.3406276e+08
   1917000   1.1852885e-10  133715.72      125062.33      3028242.5      3.2956477e-06  5.1814788e-07  2.7774999e-06  1.3406016e+08
   1918000   1.1859068e-10  133717.24      125074.63      3024640.8      3.295658e-06   5.1812655e-07  2.7775314e-06  1.3406331e+08
   1919000   1.1865251e-10  133711.14      125072.94      3023157.9      3.2956591e-06  5.1825446e-07  2.7774047e-06  1.3406192e+08
   1920000   1.1871434e-10  133719.95      125090.19      3020344.2      3.2956513e-06  5.1806353e-07  2.7775878e-06  1.3406479e+08
   1921000   1.1877617e-10  133710.05      125088.18      3017697.2      3.2956663e-06  5.1828419e-07  2.7773822e-06  1.3406115e+08
   1922000   1.18838e-10    133708.79      125096.24      3014580.4      3.2956612e-06  5.183052e-07   2.777356e-06   1.3405972e+08
   1923000   1.1889983e-10  133721.37      125117.47      3011696.8      3.2956556e-06  5.1803836e-07  2.7776172e-06  1.3406389e+08
   1924000   1.1896166e-10  133720.47      125125.61      3008673.3      3.2956571e-06  5.1805852e-07  2.7775986e-06  1.3406315e+08
   1925000   1.1902349e-10  133735.31      125151.71      3004923.2      3.2956621e-06  5.1775524e-07  2.7779068e-06  1.3406829e+08
   1926000   1.1908532e-10  133733.06      125156.01      3002729.8      3.2956534e-06  5.177933e-07   2.7778601e-06  1.3406573e+08
   1927000   1.1914715e-10  133724.78      125151.98      3001301.9      3.2956681e-06  5.1797997e-07  2.7776881e-06  1.3406374e+08
   1928000   1.1920898e-10  133728.36      125165.84      2997868.7      3.2956524e-06  5.1788981e-07  2.7777626e-06  1.3406433e+08
   1929000   1.1927081e-10  133728.97      125177.97      2994014        3.2956453e-06  5.1787017e-07  2.7777752e-06  1.3406453e+08
   1930000   1.1933264e-10  133722.57      125186.86      2988893.8      3.2956457e-06  5.1800356e-07  2.7776421e-06  1.3406219e+08
   1931000   1.1939447e-10  133720.95      125194         2985961.9      3.2956233e-06  5.1801485e-07  2.7776085e-06  1.3406061e+08
   1932000   1.194563e-10   133720.11      125200.07      2983650.5      3.2956188e-06  5.1802762e-07  2.7775911e-06  1.3406013e+08
   1933000   1.1951813e-10  133734.23      125231.51      2977871.9      3.2956142e-06  5.1772984e-07  2.7778844e-06  1.3406402e+08
   1934000   1.1957996e-10  133736.41      125244.22      2974352.8      3.2956046e-06  5.176748e-07   2.7779298e-06  1.3406291e+08
   1935000   1.1964179e-10  133746.17      125260.65      2972132.7      3.2956153e-06  5.1748281e-07  2.7781325e-06  1.3406657e+08
   1936000   1.1970362e-10  133732.83      125256.26      2969122.4      3.2956096e-06  5.1775431e-07  2.7778552e-06  1.3406062e+08
   1937000   1.1976545e-10  133736.31      125267.97      2966374.2      3.2956078e-06  5.1768026e-07  2.7779275e-06  1.3406163e+08
   1938000   1.1982728e-10  133748.94      125289.73      2963333.6      3.2956181e-06  5.174283e-07   2.7781898e-06  1.3406752e+08
   1939000   1.1988911e-10  133721.14      125271.84      2959994.4      3.2956318e-06  5.180193e-07   2.7776125e-06  1.3405858e+08
   1940000   1.1995094e-10  133710.12      125267.67      2957690.2      3.2956287e-06  5.1824523e-07  2.7773835e-06  1.3405416e+08
   1941000   1.2001278e-10  133718.76      125285.75      2954543.4      3.2956321e-06  5.18069e-07    2.7775631e-06  1.3405778e+08
   1942000   1.2007461e-10  133727.53      125301.56      2952196.6      3.2956409e-06  5.1789569e-07  2.7777452e-06  1.3406149e+08
   1943000   1.2013644e-10  133725.68      125304.79      2950496.7      3.295633e-06   5.1792625e-07  2.7777068e-06  1.3406024e+08
   1944000   1.2019827e-10  133727.41      125317.93      2946679.8      3.2956434e-06  5.1790071e-07  2.7777427e-06  1.3406158e+08
   1945000   1.202601e-10   133733.34      125335.63      2942751.9      3.2956534e-06  5.1778747e-07  2.7778659e-06  1.3406446e+08
   1946000   1.2032193e-10  133725.61      125337.18      2939641.4      3.2956541e-06  5.1794879e-07  2.7777053e-06  1.3406173e+08
   1947000   1.2038376e-10  133741.15      125360.12      2937180.1      3.2956555e-06  5.1762734e-07  2.7780282e-06  1.3406819e+08
   1948000   1.2044559e-10  133743.91      125373.68      2933571.2      3.2956688e-06  5.1758331e-07  2.7780854e-06  1.3407117e+08
   1949000   1.2050742e-10  133732.98      125369.9       2931168.9      3.2956624e-06  5.1780388e-07  2.7778585e-06  1.3406754e+08
   1950000   1.2056925e-10  133719.2       125363.37      2928729.5      3.295656e-06   5.1808385e-07  2.7775721e-06  1.3406162e+08
   1951000   1.2063108e-10  133729.78      125381.26      2926297.3      3.2956515e-06  5.1785955e-07  2.7777919e-06  1.3406487e+08
   1952000   1.2069291e-10  133734.9       125394.71      2923516.1      3.2956365e-06  5.1773819e-07  2.7778983e-06  1.3406573e+08
   1953000   1.2075474e-10  133721.42      125389.96      2920583.9      3.2956406e-06  5.1802227e-07  2.7776183e-06  1.3406148e+08
   1954000   1.2081657e-10  133720.72      125398.44      2917510.6      3.2956377e-06  5.1803402e-07  2.7776037e-06  1.3406096e+08
   1955000   1.208784e-10   133729.15      125412.48      2915645        3.295653e-06   5.1787404e-07  2.7777789e-06  1.3406454e+08
   1956000   1.2094023e-10  133749.76      125442.36      2912562.5      3.2956544e-06  5.1744752e-07  2.7782069e-06  1.340716e+08 
   1957000   1.2100206e-10  133744.39      125445.49      2909717.7      3.2956606e-06  5.1756512e-07  2.7780955e-06  1.3407011e+08
   1958000   1.2106389e-10  133726.54      125433.61      2907700.8      3.2956656e-06  5.1794088e-07  2.7777247e-06  1.3406412e+08
   1959000   1.2112572e-10  133729.91      125445.12      2904984        3.2956609e-06  5.1786612e-07  2.7777947e-06  1.3406551e+08
   1960000   1.2118755e-10  133732.89      125456.02      2902339.6      3.2956589e-06  5.1780224e-07  2.7778567e-06  1.3406671e+08
   1961000   1.2124938e-10  133728.34      125457.67      2900258.1      3.2956447e-06  5.1788271e-07  2.777762e-06   1.3406439e+08
   1962000   1.2131121e-10  133727.03      125462.7       2898134.5      3.295664e-06   5.1792923e-07  2.7777348e-06  1.3406631e+08
   1963000   1.2137304e-10  133719.08      125466.37      2894242.1      3.2956612e-06  5.1809137e-07  2.7775698e-06  1.3406341e+08
   1964000   1.2143487e-10  133720.22      125480.62      2889858.9      3.2956562e-06  5.1806284e-07  2.7775934e-06  1.3406357e+08
   1965000   1.214967e-10   133723.11      125493.23      2886608.7      3.2956604e-06  5.1800708e-07  2.7776533e-06  1.3406435e+08
   1966000   1.2155853e-10  133722.15      125503.5       2882853.8      3.2956538e-06  5.1802038e-07  2.7776335e-06  1.3406262e+08
   1967000   1.2162037e-10  133739.16      125522.23      2882296.7      3.2956565e-06  5.1766975e-07  2.7779867e-06  1.340693e+08 
   1968000   1.216822e-10   133718.96      125510.79      2879347.6      3.2956346e-06  5.1806735e-07  2.7775672e-06  1.3405958e+08
   1969000   1.2174403e-10  133736.13      125535.5       2876842.4      3.2956344e-06  5.1771048e-07  2.7779239e-06  1.3406566e+08
   1970000   1.2180586e-10  133727.82      125538.22      2873145.6      3.2956294e-06  5.1787808e-07  2.7777513e-06  1.340614e+08 
   1971000   1.2186769e-10  133732.75      125551.81      2870254.6      3.2956264e-06  5.1777272e-07  2.7778537e-06  1.3406367e+08
   1972000   1.2192952e-10  133719.76      125543.44      2868694.9      3.2956121e-06  5.1802821e-07  2.7775838e-06  1.3405842e+08
   1973000   1.2199135e-10  133711.14      125546.96      2864626.2      3.2956039e-06  5.181991e-07   2.7774048e-06  1.3405296e+08
   1974000   1.2205318e-10  133744.46      125589.25      2861661.7      3.295618e-06   5.1752108e-07  2.778097e-06   1.340656e+08 
   1975000   1.2211501e-10  133753.5       125604.41      2859621.1      3.2956233e-06  5.173386e-07   2.7782847e-06  1.3406895e+08
   1976000   1.2217684e-10  133737.86      125594.44      2857708.5      3.2956208e-06  5.1766111e-07  2.7779597e-06  1.3406315e+08
   1977000   1.2223867e-10  133732.12      125593.71      2856030.1      3.2956115e-06  5.1777095e-07  2.7778406e-06  1.3406148e+08
   1978000   1.223005e-10   133722.05      125592.2       2853157.3      3.2956214e-06  5.1798998e-07  2.7776315e-06  1.3405967e+08
   1979000   1.2236233e-10  133723.06      125598.64      2851338.9      3.2956315e-06  5.179792e-07   2.7776523e-06  1.3406198e+08
   1980000   1.2242416e-10  133709.14      125594.98      2847893.8      3.2956372e-06  5.1827404e-07  2.7773631e-06  1.3405841e+08
   1981000   1.2248599e-10  133690.48      125583.97      2845316.5      3.295648e-06   5.1867245e-07  2.7769756e-06  1.3405412e+08
   1982000   1.2254782e-10  133700.71      125605.14      2841669.7      3.2956577e-06  5.184696e-07   2.7771881e-06  1.3405985e+08
   1983000   1.2260965e-10  133718.17      125637.07      2836846.8      3.2956474e-06  5.180967e-07   2.7775507e-06  1.3406533e+08
   1984000   1.2267148e-10  133716.79      125644.34      2833953.6      3.2956647e-06  5.1814248e-07  2.7775222e-06  1.340652e+08 
   1985000   1.2273331e-10  133724.55      125656.91      2832349.9      3.2956687e-06  5.179855e-07   2.7776832e-06  1.340674e+08 
   1986000   1.2279514e-10  133736.37      125679.17      2828872.4      3.295655e-06   5.1772604e-07  2.7779289e-06  1.340696e+08 
   1987000   1.2285697e-10  133725.63      125679.45      2825175.3      3.295639e-06   5.1793329e-07  2.7777057e-06  1.340629e+08 
   1988000   1.229188e-10   133725.57      125683.95      2823650.7      3.2956369e-06  5.1793245e-07  2.7777045e-06  1.3406267e+08
   1989000   1.2298063e-10  133705.15      125674.97      2819804.2      3.2956271e-06  5.1834679e-07  2.7772804e-06  1.3405382e+08
   1990000   1.2304246e-10  133733.56      125718.45      2814793.5      3.2956306e-06  5.1776016e-07  2.7778704e-06  1.3406364e+08
   1991000   1.2310429e-10  133734.62      125733.27      2810193.7      3.2956244e-06  5.1773189e-07  2.7778925e-06  1.3406271e+08
   1992000   1.2316612e-10  133728.65      125749.55      2802744.1      3.295628e-06   5.1785956e-07  2.7777685e-06  1.3405991e+08
   1993000   1.2322796e-10  133744.58      125777.24      2798825.6      3.2956276e-06  5.1752826e-07  2.7780993e-06  1.340649e+08 
   1994000   1.2328979e-10  133750.75      125790.43      2796485.6      3.2956328e-06  5.174053e-07   2.7782275e-06  1.3406783e+08
   1995000   1.2335162e-10  133750.26      125798.48      2793628.4      3.2956348e-06  5.1741746e-07  2.7782173e-06  1.3406891e+08
   1996000   1.2341345e-10  133743.95      125801.63      2790460.6      3.295627e-06   5.1754065e-07  2.7780863e-06  1.3406737e+08
   1997000   1.2347528e-10  133726.43      125793.32      2787361.6      3.2956288e-06  5.1790634e-07  2.7777225e-06  1.3406219e+08
   1998000   1.2353711e-10  133730.43      125810.29      2783027        3.2956372e-06  5.1783176e-07  2.7778055e-06  1.340651e+08 
   1999000   1.2359894e-10  133717.07      125809.79      2778712.8      3.2956459e-06  5.1811792e-07  2.7775279e-06  1.3406014e+08
   2000000   1.2366077e-10  133727.78      125832.13      2774835        3.2956468e-06  5.1789634e-07  2.7777505e-06  1.3406373e+08
   2001000   1.237226e-10   133725.84      125841.32      2771111        3.2956503e-06  5.1794014e-07  2.7777101e-06  1.3406296e+08
   2002000   1.2378443e-10  133725.32      125847.33      2768925.1      3.2956505e-06  5.1795116e-07  2.7776994e-06  1.3406261e+08
   2003000   1.2384626e-10  133732.57      125857.12      2768081.1      3.2956576e-06  5.1780771e-07  2.7778499e-06  1.3406517e+08
   2004000   1.2390809e-10  133728.45      125861.54      2765223.3      3.2956464e-06  5.1788208e-07  2.7777644e-06  1.3406216e+08
   2005000   1.2396992e-10  133729.38      125868.07      2763350.1      3.2956353e-06  5.1785158e-07  2.7777837e-06  1.3406113e+08
   2006000   1.2403175e-10  133728.38      125875.62      2760489.2      3.2956449e-06  5.1788215e-07  2.7777628e-06  1.3406149e+08
   2007000   1.2409358e-10  133749.63      125911.56      2755601.5      3.2956398e-06  5.174354e-07   2.7782044e-06  1.3406972e+08
   2008000   1.2415541e-10  133740.88      125913.2       2752114.8      3.2956426e-06  5.1762006e-07  2.7780226e-06  1.3406732e+08
   2009000   1.2421724e-10  133731.59      125915.21      2748325.7      3.2956255e-06  5.17796e-07    2.7778295e-06  1.3406337e+08
   2010000   1.2427907e-10  133731.03      125928.6       2743660.5      3.2956253e-06  5.1780731e-07  2.777818e-06   1.3406338e+08
   2011000   1.243409e-10   133734.1       125942.35      2740089        3.2956318e-06  5.1775023e-07  2.7778816e-06  1.3406463e+08
   2012000   1.2440273e-10  133733.61      125951.64      2736819.2      3.2956391e-06  5.1776763e-07  2.7778715e-06  1.3406468e+08
   2013000   1.2446456e-10  133734.74      125956.68      2735513        3.2956315e-06  5.177366e-07   2.7778949e-06  1.3406516e+08
   2014000   1.2452639e-10  133720.99      125948.82      2733531.6      3.2956373e-06  5.180279e-07   2.7776094e-06  1.3406056e+08
   2015000   1.2458822e-10  133724.66      125953.83      2733084.9      3.2956321e-06  5.1794659e-07  2.7776855e-06  1.3406135e+08
   2016000   1.2465005e-10  133732.24      125967.11      2731186.8      3.2956216e-06  5.1777865e-07  2.777843e-06   1.3406238e+08
   2017000   1.2471188e-10  133727.73      125970.12      2728664.9      3.2956182e-06  5.1786891e-07  2.7777493e-06  1.3405982e+08
   2018000   1.2477371e-10  133717.12      125968.19      2725755.2      3.2956043e-06  5.1807525e-07  2.7775291e-06  1.3405407e+08
   2019000   1.2483555e-10  133722.07      125984.45      2721977.3      3.2956188e-06  5.1798698e-07  2.7776318e-06  1.3405699e+08
   2020000   1.2489738e-10  133716.92      125984.8       2720130.8      3.295604e-06   5.1807915e-07  2.7775249e-06  1.3405464e+08
   2021000   1.2495921e-10  133720.77      126000.02      2716330.9      3.2956094e-06  5.1800457e-07  2.7776048e-06  1.3405755e+08
   2022000   1.2502104e-10  133730.6       126017.91      2713648.1      3.2956186e-06  5.1780959e-07  2.777809e-06   1.3406285e+08
   2023000   1.2508287e-10  133737.8       126032.18      2711290        3.2956185e-06  5.176599e-07   2.7779586e-06  1.3406581e+08
   2024000   1.251447e-10   133744.1       126041.98      2710125.3      3.2956173e-06  5.1752803e-07  2.7780893e-06  1.3406722e+08
   2025000   1.2520653e-10  133750.68      126058.27      2706886.3      3.2956126e-06  5.1738641e-07  2.7782262e-06  1.3406894e+08
   2026000   1.2526836e-10  133736.43      126051.23      2704456.7      3.2956213e-06  5.176913e-07   2.77793e-06    1.3406311e+08
   2027000   1.2533019e-10  133741.8       126068.57      2700460.1      3.2956096e-06  5.1756797e-07  2.7780416e-06  1.3406464e+08
   2028000   1.2539202e-10  133746.84      126082.84      2697379.7      3.2956323e-06  5.1748603e-07  2.7781462e-06  1.3406955e+08
   2029000   1.2545385e-10  133729.61      126069.63      2696016        3.2956396e-06  5.1785128e-07  2.7777883e-06  1.3406458e+08
   2030000   1.2551568e-10  133723.66      126069.15      2694182.8      3.2956494e-06  5.1798462e-07  2.7776648e-06  1.3406342e+08
   2031000   1.2557751e-10  133726.98      126088.44      2688845.3      3.2956565e-06  5.1792266e-07  2.7777338e-06  1.3406423e+08
   2032000   1.2563934e-10  133735.74      126107.22      2685501.5      3.2956372e-06  5.1772153e-07  2.7779157e-06  1.3406522e+08
   2033000   1.2570117e-10  133740.88      126123.03      2681939.8      3.2956416e-06  5.1761903e-07  2.7780226e-06  1.3406671e+08
   2034000   1.25763e-10    133749.15      126136.7       2680140.3      3.2956379e-06  5.1744365e-07  2.7781943e-06  1.3406866e+08
   2035000   1.2582483e-10  133742.76      126133.97      2678910.2      3.295648e-06   5.1758635e-07  2.7780616e-06  1.340667e+08 
   2036000   1.2588666e-10  133746.35      126147.17      2675699.6      3.2956501e-06  5.1751397e-07  2.7781361e-06  1.3406891e+08
   2037000   1.2594849e-10  133736.53      126142.84      2673852.4      3.2956379e-06  5.1770583e-07  2.7779321e-06  1.3406514e+08
   2038000   1.2601032e-10  133718.92      126138.55      2669381.1      3.2956418e-06  5.1807542e-07  2.7775663e-06  1.3406001e+08
   2039000   1.2607215e-10  133705.23      126137.84      2665027.1      3.2956378e-06  5.1835571e-07  2.7772821e-06  1.340558e+08 
   2040000   1.2613398e-10  133714.61      126163.84      2659479.1      3.2956275e-06  5.1815057e-07  2.7774769e-06  1.3405885e+08
   2041000   1.2619581e-10  133713.18      126174.78      2655339.3      3.2956348e-06  5.1818767e-07  2.7774472e-06  1.3405851e+08
   2042000   1.2625764e-10  133701.95      126170.89      2652872.5      3.2956177e-06  5.1840381e-07  2.7772139e-06  1.3405201e+08
   2043000   1.2631947e-10  133728.16      126204.06      2650570.5      3.2956295e-06  5.1787122e-07  2.7777583e-06  1.3406216e+08
   2044000   1.263813e-10   133733.29      126216.99      2647968.1      3.2956299e-06  5.17765e-07    2.7778649e-06  1.3406386e+08
   2045000   1.2644314e-10  133729.37      126221.09      2645283        3.2956421e-06  5.1785866e-07  2.7777835e-06  1.3406402e+08
   2046000   1.2650497e-10  133734.42      126232.93      2643015.2      3.2956557e-06  5.1776728e-07  2.7778884e-06  1.3406783e+08
   2047000   1.265668e-10   133721.37      126231.39      2639153.2      3.2956335e-06  5.1801627e-07  2.7776172e-06  1.3406166e+08
   2048000   1.2662863e-10  133718.95      126243.17      2634402.8      3.2956299e-06  5.1806281e-07  2.7775671e-06  1.3406117e+08
   2049000   1.2669046e-10  133716.59      126252.28      2630562.9      3.2956275e-06  5.1810961e-07  2.7775179e-06  1.3406012e+08
   2050000   1.2675229e-10  133726         126268.27      2628373        3.295648e-06   5.1793446e-07  2.7777135e-06  1.3406505e+08
   2051000   1.2681412e-10  133721.34      126270.02      2626224.3      3.2956332e-06  5.1801653e-07  2.7776166e-06  1.3406287e+08
   2052000   1.2687595e-10  133699.91      126255.61      2623855.9      3.2956358e-06  5.1846418e-07  2.7771716e-06  1.3405628e+08
   2053000   1.2693778e-10  133694.53      126254.8       2622320.1      3.2956329e-06  5.1857314e-07  2.7770598e-06  1.3405396e+08
   2054000   1.2699961e-10  133713.64      126279.48      2620475.6      3.2956442e-06  5.181876e-07   2.7774566e-06  1.3406113e+08
   2055000   1.2706144e-10  133717.29      126291         2617850.2      3.295655e-06   5.1812245e-07  2.7775326e-06  1.34062e+08  
   2056000   1.2712327e-10  133729.66      126315.78      2613710.6      3.2956528e-06  5.1786334e-07  2.7777894e-06  1.3406563e+08
   2057000   1.271851e-10   133737.77      126327.55      2612496.7      3.2956269e-06  5.1766894e-07  2.777958e-06   1.3406581e+08
   2058000   1.2724693e-10  133734.57      126333.59      2609401.7      3.2956194e-06  5.1772796e-07  2.7778915e-06  1.3406345e+08
   2059000   1.2730876e-10  133740.08      126350.71      2605525.1      3.2956288e-06  5.1762282e-07  2.778006e-06   1.3406551e+08
   2060000   1.2737059e-10  133740.03      126354.95      2604088.6      3.2956363e-06  5.1763151e-07  2.7780048e-06  1.3406483e+08
   2061000   1.2743242e-10  133734.77      126357.77      2601382.8      3.2956327e-06  5.1773697e-07  2.7778957e-06  1.3406234e+08
   2062000   1.2749425e-10  133745.8       126377.59      2598454.6      3.2956457e-06  5.1752098e-07  2.7781248e-06  1.3406841e+08
   2063000   1.2755608e-10  133732.75      126378.64      2593726.1      3.2956386e-06  5.1778492e-07  2.7778537e-06  1.3406367e+08
   2064000   1.2761791e-10  133724.23      126377.88      2591121        3.2956419e-06  5.1796511e-07  2.7776768e-06  1.3406103e+08
   2065000   1.2767974e-10  133742.15      126400.56      2589545.5      3.2956381e-06  5.1758914e-07  2.7780489e-06  1.3406778e+08
   2066000   1.2774157e-10  133728.99      126393.09      2587631.3      3.2956462e-06  5.1787066e-07  2.7777756e-06  1.3406303e+08
   2067000   1.278034e-10   133733.73      126409.15      2583849.5      3.2956387e-06  5.1776466e-07  2.777874e-06   1.3406334e+08
   2068000   1.2786523e-10  133743.17      126430.69      2579811        3.2956276e-06  5.1755753e-07  2.77807e-06    1.3406551e+08
   2069000   1.2792706e-10  133727.1       126427.6       2575453        3.2956336e-06  5.1789738e-07  2.7777363e-06  1.3406003e+08
   2070000   1.2798889e-10  133731.29      126441.88      2572086.4      3.2956279e-06  5.178045e-07   2.7778234e-06  1.3406141e+08
   2071000   1.2805073e-10  133738.28      126458.94      2568723.5      3.2956286e-06  5.1766009e-07  2.7779685e-06  1.3406473e+08
   2072000   1.2811256e-10  133719.01      126448.51      2565749.7      3.2956331e-06  5.1806477e-07  2.7775683e-06  1.3405847e+08
   2073000   1.2817439e-10  133726.94      126464.15      2563175.6      3.2956401e-06  5.1790722e-07  2.7777329e-06  1.3406221e+08
   2074000   1.2823622e-10  133723.25      126471.23      2559571.7      3.2956459e-06  5.1798946e-07  2.7776564e-06  1.3406157e+08
   2075000   1.2829805e-10  133722.89      126478.41      2557051.4      3.2956478e-06  5.1799884e-07  2.7776489e-06  1.3406214e+08
   2076000   1.2835988e-10  133731.08      126489.59      2556056.5      3.295658e-06   5.1783915e-07  2.7778189e-06  1.3406516e+08
   2077000   1.2842171e-10  133740.78      126504.52      2554315.9      3.2956657e-06  5.1764537e-07  2.7780204e-06  1.3406849e+08
   2078000   1.2848354e-10  133735.9       126504.68      2552628        3.2956631e-06  5.1774395e-07  2.7779191e-06  1.34067e+08  
   2079000   1.2854537e-10  133729.27      126506.26      2549873.3      3.2956537e-06  5.1787231e-07  2.7777814e-06  1.3406478e+08
   2080000   1.286072e-10   133737.03      126516.2       2549154.3      3.2956249e-06  5.1768229e-07  2.7779426e-06  1.3406534e+08
   2081000   1.2866903e-10  133740.97      126533.7       2544624.2      3.2956128e-06  5.1758833e-07  2.7780245e-06  1.3406518e+08
   2082000   1.2873086e-10  133732.99      126536.21      2541103.6      3.2956133e-06  5.1775473e-07  2.7778586e-06  1.3406113e+08
   2083000   1.2879269e-10  133732.89      126539.25      2540056.6      3.2956238e-06  5.1776725e-07  2.7778565e-06  1.3406096e+08
   2084000   1.2885452e-10  133747         126563.53      2536669.1      3.2956274e-06  5.1747773e-07  2.7781497e-06  1.340662e+08 
   2085000   1.2891635e-10  133741.33      126562.89      2534982.3      3.2956277e-06  5.1759575e-07  2.7780319e-06  1.3406389e+08
   2086000   1.2897818e-10  133742.89      126571.1       2532755.7      3.2956196e-06  5.1755539e-07  2.7780642e-06  1.3406411e+08
   2087000   1.2904001e-10  133738.56      126574.74      2530087        3.2956399e-06  5.1766559e-07  2.7779743e-06  1.3406498e+08
   2088000   1.2910184e-10  133732.46      126570.62      2529421        3.2956341e-06  5.1778639e-07  2.7778477e-06  1.3406364e+08
   2089000   1.2916367e-10  133722.66      126569.82      2526399.2      3.2956374e-06  5.1799343e-07  2.777644e-06   1.340619e+08 
   2090000   1.292255e-10   133714.43      126568.15      2524198.2      3.2956509e-06  5.1817771e-07  2.7774731e-06  1.3406095e+08
   2091000   1.2928733e-10  133721.08      126587.71      2519888.2      3.2956491e-06  5.1803786e-07  2.7776112e-06  1.3406332e+08
   2092000   1.2934916e-10  133728.51      126603.52      2517091.9      3.2956515e-06  5.1788602e-07  2.7777655e-06  1.3406629e+08
   2093000   1.2941099e-10  133720.79      126601.44      2515195.8      3.295643e-06   5.1803788e-07  2.7776051e-06  1.3406197e+08
   2094000   1.2947282e-10  133732.12      126618.65      2513243.8      3.2956527e-06  5.1781207e-07  2.7778406e-06  1.3406564e+08
   2095000   1.2953465e-10  133752.62      126643.5       2511809.4      3.2956481e-06  5.1738159e-07  2.7782665e-06  1.3407195e+08
   2096000   1.2959648e-10  133736.78      126630.31      2510904.1      3.2956566e-06  5.1771929e-07  2.7779373e-06  1.3406724e+08
   2097000   1.2965832e-10  133715.92      126615.73      2508783.5      3.295666e-06   5.1816189e-07  2.7775041e-06  1.3406207e+08
   2098000   1.2972015e-10  133730.05      126639.43      2505598.2      3.2956676e-06  5.1787005e-07  2.7777976e-06  1.3407011e+08
   2099000   1.2978198e-10  133719.21      126637.54      2502593.1      3.2956721e-06  5.1809966e-07  2.7775724e-06  1.3406708e+08
   2100000   1.2984381e-10  133715.17      126641.28      2499988.7      3.295661e-06   5.1817244e-07  2.7774885e-06  1.3406413e+08
   2101000   1.2990564e-10  133718.29      126651.52      2497612.5      3.295658e-06   5.1810462e-07  2.7775534e-06  1.3406421e+08
   2102000   1.2996747e-10  133739.53      126681.54      2494694.3      3.295648e-06   5.1765356e-07  2.7779945e-06  1.3406927e+08
   2103000   1.300293e-10   133729.95      126683.5       2490825.6      3.2956396e-06  5.1784413e-07  2.7777955e-06  1.3406272e+08
   2104000   1.3009113e-10  133734.11      126695.28      2488282.7      3.2956385e-06  5.1775659e-07  2.777882e-06   1.3406332e+08
   2105000   1.3015296e-10  133738.07      126711.36      2484233.6      3.2956301e-06  5.1766595e-07  2.7779642e-06  1.3406344e+08
   2106000   1.3021479e-10  133740.8       126719.08      2482566.4      3.2956329e-06  5.1761195e-07  2.7780209e-06  1.3406469e+08
   2107000   1.3027662e-10  133732.66      126717.26      2480446.4      3.2956435e-06  5.1779162e-07  2.7778518e-06  1.3406314e+08
   2108000   1.3033845e-10  133734.39      126729.1       2477065.9      3.2956399e-06  5.1775214e-07  2.7778878e-06  1.340645e+08 
   2109000   1.3040028e-10  133733.52      126739.92      2473154.3      3.2956332e-06  5.1776358e-07  2.7778697e-06  1.3406438e+08
   2110000   1.3046211e-10  133729.64      126747.26      2469398        3.2956356e-06  5.1784665e-07  2.777789e-06   1.3406337e+08
   2111000   1.3052394e-10  133723.69      126752.14      2465769.7      3.2956347e-06  5.1796926e-07  2.7776654e-06  1.340607e+08 
   2112000   1.3058577e-10  133730.02      126768.28      2462496.3      3.2956311e-06  5.1783407e-07  2.777797e-06   1.3406295e+08
   2113000   1.306476e-10   133717.19      126767.16      2458565.1      3.2956178e-06  5.1808742e-07  2.7775304e-06  1.3405776e+08
   2114000   1.3070943e-10  133714.05      126771.98      2455901.2      3.2956269e-06  5.1816165e-07  2.7774652e-06  1.3405802e+08
   2115000   1.3077126e-10  133699.32      126766.98      2452632.9      3.2956441e-06  5.1848485e-07  2.7771593e-06  1.3405418e+08
   2116000   1.3083309e-10  133713.35      126794.73      2448056.2      3.2956386e-06  5.1818801e-07  2.7774506e-06  1.3406058e+08
   2117000   1.3089492e-10  133692.09      126781.67      2445295.3      3.2956366e-06  5.1862741e-07  2.7770092e-06  1.3405347e+08
   2118000   1.3095675e-10  133698.1       126796.24      2442437.7      3.2956442e-06  5.1851034e-07  2.7771339e-06  1.3405766e+08
   2119000   1.3101858e-10  133703.64      126811.82      2439082.6      3.2956447e-06  5.1839575e-07  2.777249e-06   1.3405948e+08
   2120000   1.3108041e-10  133717.38      126833.59      2436413.5      3.2956417e-06  5.1810727e-07  2.7775345e-06  1.3406345e+08
   2121000   1.3114224e-10  133713.99      126842.31      2432360        3.2956256e-06  5.1816171e-07  2.7774639e-06  1.3405983e+08
   2122000   1.3120407e-10  133734.53      126869.71      2430086.7      3.2956397e-06  5.1774904e-07  2.7778907e-06  1.3406718e+08
   2123000   1.3126591e-10  133727.06      126876.38      2425349.3      3.295639e-06   5.1790348e-07  2.7777355e-06  1.3406219e+08
   2124000   1.3132774e-10  133731.21      126888.34      2422739.3      3.2956385e-06  5.1781686e-07  2.7778216e-06  1.3406258e+08
   2125000   1.3138957e-10  133739.9       126902.85      2420803.4      3.2956626e-06  5.1766042e-07  2.7780022e-06  1.3406825e+08
   2126000   1.314514e-10   133734.41      126902.92      2418937.7      3.2956503e-06  5.177623e-07   2.7778881e-06  1.3406641e+08
   2127000   1.3151323e-10  133737.37      126913.64      2416345.3      3.2956435e-06  5.1769391e-07  2.7779496e-06  1.3406803e+08
   2128000   1.3157506e-10  133729.93      126913.57      2413870.3      3.2956513e-06  5.1785628e-07  2.777795e-06   1.3406623e+08
   2129000   1.3163689e-10  133717.68      126903.4       2413167.9      3.2956624e-06  5.1812176e-07  2.7775407e-06  1.3406335e+08
   2130000   1.3169872e-10  133715.53      126906.51      2411404.5      3.2956582e-06  5.1816216e-07  2.777496e-06   1.3406273e+08
   2131000   1.3176055e-10  133719.36      126916.12      2409473.7      3.2956676e-06  5.1809221e-07  2.7775754e-06  1.3406551e+08
   2132000   1.3182238e-10  133718.65      126922.25      2407184.6      3.2956627e-06  5.1810197e-07  2.7775607e-06  1.3406528e+08
   2133000   1.3188421e-10  133712.04      126921.82      2405110.6      3.2956442e-06  5.1822083e-07  2.7774234e-06  1.3406124e+08
   2134000   1.3194604e-10  133709.04      126921.96      2404059.1      3.2956342e-06  5.1827312e-07  2.7773611e-06  1.3405863e+08
   2135000   1.3200787e-10  133712.3       126929.77      2402540.3      3.2956329e-06  5.1820407e-07  2.7774288e-06  1.3405922e+08
   2136000   1.320697e-10   133728.69      126951.85      2400654.5      3.2956412e-06  5.1787189e-07  2.7777693e-06  1.3406535e+08
   2137000   1.3213153e-10  133727.29      126957.68      2398237.6      3.2956458e-06  5.1790546e-07  2.7777403e-06  1.3406382e+08
   2138000   1.3219336e-10  133733.97      126965.48      2397867.2      3.2956402e-06  5.1776112e-07  2.777879e-06   1.340658e+08 
   2139000   1.3225519e-10  133722.07      126966.37      2393578.9      3.2956407e-06  5.1800891e-07  2.7776318e-06  1.340623e+08 
   2140000   1.3231702e-10  133704.87      126959.09      2390242.9      3.2956554e-06  5.1838095e-07  2.7772745e-06  1.3405876e+08
   2141000   1.3237885e-10  133717.57      126980.58      2387317.7      3.2956604e-06  5.1812204e-07  2.7775384e-06  1.3406564e+08
   2142000   1.3244068e-10  133701.18      126973.39      2384223.1      3.2956732e-06  5.1847523e-07  2.777198e-06   1.3405996e+08
   2143000   1.3250251e-10  133704.5       126986.89      2380822.1      3.2956647e-06  5.1839788e-07  2.7772669e-06  1.3405988e+08
   2144000   1.3256434e-10  133709.36      127005.79      2376129.7      3.2956803e-06  5.1831251e-07  2.7773678e-06  1.3406335e+08
   2145000   1.3262617e-10  133720.44      127024.28      2373661.9      3.2956667e-06  5.1806885e-07  2.7775979e-06  1.340671e+08 
   2146000   1.32688e-10    133717.66      127022.94      2373178.9      3.2956582e-06  5.1811808e-07  2.7775402e-06  1.3406579e+08
   2147000   1.3274983e-10  133702.5       127015.67      2370527.6      3.2956583e-06  5.1843292e-07  2.7772254e-06  1.3405991e+08
   2148000   1.3281166e-10  133707.14      127025.26      2368875.8      3.2956412e-06  5.1831948e-07  2.7773218e-06  1.3405967e+08
   2149000   1.328735e-10   133717.05      127044.62      2365723.7      3.2956549e-06  5.1812738e-07  2.7775275e-06  1.3406373e+08
   2150000   1.3293533e-10  133719.28      127054.1       2363302.1      3.2956618e-06  5.1808798e-07  2.7775738e-06  1.340642e+08 
   2151000   1.3299716e-10  133730.12      127072.53      2360772.3      3.2956527e-06  5.1785379e-07  2.7777989e-06  1.3406734e+08
   2152000   1.3305899e-10  133711.63      127062.34      2357978.2      3.2956468e-06  5.1823191e-07  2.7774149e-06  1.3406021e+08
   2153000   1.3312082e-10  133705.32      127067.25      2354222        3.295655e-06   5.183711e-07   2.7772839e-06  1.3405985e+08
   2154000   1.3318265e-10  133701.27      127077.9       2349300.9      3.2956587e-06  5.1845897e-07  2.7771997e-06  1.3405923e+08
   2155000   1.3324448e-10  133690.69      127075.82      2346448.2      3.2956439e-06  5.1866385e-07  2.77698e-06    1.3405375e+08
   2156000   1.3330631e-10  133708.69      127100.36      2344279        3.2956286e-06  5.182746e-07   2.777354e-06   1.3405866e+08
   2157000   1.3336814e-10  133716.6       127118.9       2340730.1      3.2956228e-06  5.1810473e-07  2.7775181e-06  1.3406025e+08
   2158000   1.3342997e-10  133703.87      127111.79      2338836.6      3.2956167e-06  5.1836299e-07  2.7772537e-06  1.3405325e+08
   2159000   1.334918e-10   133708.25      127121.3       2337128        3.2956057e-06  5.1826092e-07  2.7773448e-06  1.3405235e+08
   2160000   1.3355363e-10  133714.34      127134.53      2334744.3      3.2956012e-06  5.1813e-07     2.7774712e-06  1.3405286e+08
   2161000   1.3361546e-10  133739.3       127165.57      2332735.5      3.2956168e-06  5.1762718e-07  2.7779896e-06  1.340633e+08 
   2162000   1.3367729e-10  133723.73      127155.03      2331038        3.2956097e-06  5.1794351e-07  2.7776662e-06  1.3405654e+08
   2163000   1.3373912e-10  133714.64      127157.85      2327046.6      3.2956012e-06  5.1812382e-07  2.7774774e-06  1.3405283e+08
   2164000   1.3380095e-10  133727.52      127178.09      2324597.1      3.2955942e-06  5.1784931e-07  2.7777449e-06  1.3405818e+08
   2165000   1.3386278e-10  133723.49      127186.38      2320473.6      3.2955855e-06  5.1792416e-07  2.7776613e-06  1.3405588e+08
   2166000   1.3392461e-10  133732.32      127195.99      2320222        3.2955987e-06  5.1775393e-07  2.7778448e-06  1.3405979e+08
   2167000   1.3398644e-10  133748.23      127213.79      2319607.6      3.2956097e-06  5.1743448e-07  2.7781753e-06  1.3406662e+08
   2168000   1.3404827e-10  133743.15      127215.45      2317343.1      3.2956257e-06  5.175561e-07   2.7780696e-06  1.340673e+08 
   2169000   1.341101e-10   133726.06      127204.06      2315425.4      3.2956359e-06  5.1792111e-07  2.7777148e-06  1.3406228e+08
   2170000   1.3417193e-10  133727.79      127214.22      2312607.1      3.2956533e-06  5.1790256e-07  2.7777507e-06  1.3406443e+08
   2171000   1.3423376e-10  133742.85      127238.05      2309685.8      3.2956583e-06  5.1759488e-07  2.7780634e-06  1.3407003e+08
   2172000   1.3429559e-10  133725.31      127230.01      2306490.2      3.2956407e-06  5.1794162e-07  2.7776991e-06  1.3406208e+08
   2173000   1.3435742e-10  133715.33      127226.91      2304179.6      3.2956303e-06  5.1813855e-07  2.7774918e-06  1.3405859e+08
   2174000   1.3441925e-10  133716.92      127233.02      2302671.7      3.2956296e-06  5.1810481e-07  2.7775248e-06  1.3405983e+08
   2175000   1.3448109e-10  133723.27      127242.29      2301698.8      3.2956318e-06  5.1797514e-07  2.7776567e-06  1.3406203e+08
   2176000   1.3454292e-10  133731.44      127259.03      2298843.1      3.2956336e-06  5.1780726e-07  2.7778264e-06  1.3406542e+08
   2177000   1.3460475e-10  133725.28      127257.2       2297390.4      3.2956418e-06  5.1794319e-07  2.7776986e-06  1.3406345e+08
   2178000   1.3466658e-10  133742.71      127278.5       2296112.3      3.2956402e-06  5.175796e-07   2.7780606e-06  1.3406983e+08
   2179000   1.3472841e-10  133738.17      127276.92      2295115.4      3.2956373e-06  5.1767107e-07  2.7779662e-06  1.3406764e+08
   2180000   1.3479024e-10  133729.62      127276.85      2292272.8      3.2956518e-06  5.1786306e-07  2.7777887e-06  1.340656e+08 
   2181000   1.3485207e-10  133729.37      127288.12      2288418.9      3.2956459e-06  5.178625e-07   2.7777834e-06  1.3406495e+08
   2182000   1.349139e-10   133731.86      127295.48      2286791.2      3.2956581e-06  5.1782298e-07  2.7778351e-06  1.3406566e+08
   2183000   1.3497573e-10  133740.1       127312.85      2283745.1      3.2956612e-06  5.1765492e-07  2.7780062e-06  1.3406835e+08
   2184000   1.3503756e-10  133736.17      127316.29      2281280.1      3.2956535e-06  5.1772884e-07  2.7779247e-06  1.3406674e+08
   2185000   1.3509939e-10  133737.67      127325.85      2278583.4      3.2956532e-06  5.1769738e-07  2.7779558e-06  1.3406845e+08
   2186000   1.3516122e-10  133723.4       127316.25      2277008.2      3.2956542e-06  5.1799483e-07  2.7776594e-06  1.340646e+08 
   2187000   1.3522305e-10  133715.22      127311.57      2275830.2      3.2956548e-06  5.1816537e-07  2.7774895e-06  1.3406233e+08
   2188000   1.3528488e-10  133719.71      127318.17      2275128.4      3.2956557e-06  5.1807298e-07  2.7775827e-06  1.3406462e+08
   2189000   1.3534671e-10  133704.21      127305.78      2274074.2      3.2956605e-06  5.1839957e-07  2.7772609e-06  1.3405902e+08
   2190000   1.3540854e-10  133715.32      127326.15      2270986.4      3.2956591e-06  5.1816758e-07  2.7774915e-06  1.3406362e+08
   2191000   1.3547037e-10  133700.17      127320.27      2267872.9      3.2956691e-06  5.1849209e-07  2.777177e-06   1.3405814e+08
   2192000   1.355322e-10   133722.27      127351.01      2265006.1      3.2956661e-06  5.1803004e-07  2.777636e-06   1.340666e+08 
   2193000   1.3559403e-10  133712.36      127345.13      2263649        3.2956552e-06  5.1822504e-07  2.7774302e-06  1.3406176e+08
   2194000   1.3565586e-10  133726.17      127363.11      2262267.7      3.2956537e-06  5.1793671e-07  2.777717e-06   1.3406604e+08
   2195000   1.3571769e-10  133722.85      127367.56      2259666        3.2956648e-06  5.1801668e-07  2.7776481e-06  1.3406462e+08
   2196000   1.3577952e-10  133731.32      127386.16      2256284.6      3.2956447e-06  5.178207e-07   2.777824e-06   1.3406569e+08
   2197000   1.3584135e-10  133738.52      127396.14      2255361.3      3.2956491e-06  5.1767571e-07  2.7779734e-06  1.3406805e+08
   2198000   1.3590318e-10  133736.49      127400.73      2253144.5      3.2956499e-06  5.1771871e-07  2.7779312e-06  1.3406744e+08
   2199000   1.3596501e-10  133727.47      127396.58      2251508.6      3.295649e-06   5.1790492e-07  2.777744e-06   1.3406447e+08
   2200000   1.3602684e-10  133720.02      127399         2248201        3.295642e-06   5.1805275e-07  2.7775892e-06  1.340619e+08 
   2201000   1.3608868e-10  133726.54      127407.5       2247545        3.2956526e-06  5.179279e-07   2.7777247e-06  1.3406656e+08
   2202000   1.3615051e-10  133721.26      127407.11      2245901.3      3.2956556e-06  5.1804065e-07  2.7776149e-06  1.3406514e+08
   2203000   1.3621234e-10  133711.44      127408.22      2242237.5      3.2956609e-06  5.1824991e-07  2.777411e-06   1.3406099e+08
   2204000   1.3627417e-10  133720.25      127426.83      2238968.4      3.2956555e-06  5.1806157e-07  2.7775939e-06  1.3406372e+08
   2205000   1.36336e-10    133731.82      127451.78      2234506.8      3.2956588e-06  5.1782449e-07  2.7778343e-06  1.3406802e+08
   2206000   1.3639783e-10  133718.62      127448.99      2231008.9      3.295648e-06   5.1808791e-07  2.7775601e-06  1.3406183e+08
   2207000   1.3645966e-10  133722.95      127462.26      2228028.1      3.2956618e-06  5.1801167e-07  2.7776501e-06  1.3406481e+08
   2208000   1.3652149e-10  133709.3       127459.17      2224479.8      3.2956515e-06  5.1828503e-07  2.7773665e-06  1.3405866e+08
   2209000   1.3658332e-10  133708.49      127469.13      2220879        3.2956595e-06  5.1830965e-07  2.7773498e-06  1.3405941e+08
   2210000   1.3664515e-10  133708.55      127471.68      2220042.9      3.2956617e-06  5.1831079e-07  2.777351e-06   1.3405969e+08
   2211000   1.3670698e-10  133715.77      127483.18      2218620.1      3.2956605e-06  5.1815967e-07  2.7775008e-06  1.3406229e+08
   2212000   1.3676881e-10  133728.39      127501.49      2216728.6      3.2956573e-06  5.1789421e-07  2.7777631e-06  1.3406573e+08
   2213000   1.3683064e-10  133724.37      127509.61      2212666        3.2956564e-06  5.1797684e-07  2.7776796e-06  1.3406291e+08
   2214000   1.3689247e-10  133728.76      127523.8       2209391        3.2956475e-06  5.1787684e-07  2.7777707e-06  1.3406347e+08
   2215000   1.369543e-10   133738.94      127537.48      2208230.9      3.2956489e-06  5.1766669e-07  2.7779822e-06  1.3406658e+08
   2216000   1.3701613e-10  133728.79      127536.54      2205144.3      3.2956571e-06  5.1788564e-07  2.7777715e-06  1.3406183e+08
   2217000   1.3707796e-10  133742.86      127559.17      2202293.1      3.295661e-06   5.1759734e-07  2.7780636e-06  1.3406776e+08
   2218000   1.3713979e-10  133744.65      127563.43      2201467.8      3.2956507e-06  5.1754991e-07  2.7781008e-06  1.3406889e+08
   2219000   1.3720162e-10  133740.1       127563.86      2199799        3.2956469e-06  5.1764071e-07  2.7780062e-06  1.3406792e+08
   2220000   1.3726345e-10  133730.14      127559.88      2197788.5      3.2956518e-06  5.1785242e-07  2.7777994e-06  1.3406521e+08
   2221000   1.3732528e-10  133724.5       127561.73      2195277.4      3.2956597e-06  5.1797747e-07  2.7776823e-06  1.3406381e+08
   2222000   1.3738711e-10  133726.11      127572.96      2192060.4      3.2956599e-06  5.179443e-07   2.7777156e-06  1.3406468e+08
   2223000   1.3744894e-10  133729.61      127582.67      2189987.5      3.2956619e-06  5.1787352e-07  2.7777884e-06  1.3406593e+08
   2224000   1.3751077e-10  133728.78      127593.15      2186205.1      3.2956556e-06  5.1788445e-07  2.7777711e-06  1.3406427e+08
   2225000   1.375726e-10   133728.6       127602.63      2182972.6      3.2956503e-06  5.1788292e-07  2.7777673e-06  1.3406291e+08
   2226000   1.3763443e-10  133723.36      127603.49      2180928.1      3.2956343e-06  5.1797578e-07  2.7776585e-06  1.3405984e+08
   2227000   1.3769627e-10  133738.71      127626.51      2178377.8      3.2956538e-06  5.1767633e-07  2.7779774e-06  1.3406766e+08
   2228000   1.377581e-10   133725.1       127619.32      2176217.2      3.2956526e-06  5.1795786e-07  2.7776947e-06  1.3406289e+08
   2229000   1.3781993e-10  133712.14      127613.51      2173813.1      3.295649e-06   5.1822344e-07  2.7774256e-06  1.3405893e+08
   2230000   1.3788176e-10  133715.49      127622.06      2172078.3      3.2956598e-06  5.1816483e-07  2.777495e-06   1.3406272e+08
   2231000   1.3794359e-10  133725.12      127633.5       2171482.5      3.2956671e-06  5.1797196e-07  2.7776952e-06  1.3406762e+08
   2232000   1.3800542e-10  133713.97      127628.87      2169291.5      3.2956728e-06  5.1820922e-07  2.7774636e-06  1.340628e+08 
   2233000   1.3806725e-10  133729.37      127651.41      2166920.9      3.2956685e-06  5.17885e-07    2.7777835e-06  1.3406749e+08
   2234000   1.3812908e-10  133740.38      127671.34      2163946.7      3.2956591e-06  5.1764687e-07  2.7780122e-06  1.3407001e+08
   2235000   1.3819091e-10  133738.18      127673.89      2162356.8      3.2956487e-06  5.1768219e-07  2.7779665e-06  1.3406869e+08
   2236000   1.3825274e-10  133729.88      127673.07      2159847.3      3.2956494e-06  5.1785531e-07  2.777794e-06   1.3406591e+08
   2237000   1.3831457e-10  133729.32      127675.52      2158838.2      3.2956331e-06  5.1785061e-07  2.7777824e-06  1.3406408e+08
   2238000   1.383764e-10   133723.1       127672.83      2157650.7      3.2956329e-06  5.1797977e-07  2.7776532e-06  1.3406179e+08
   2239000   1.3843823e-10  133726.14      127678.97      2156616.5      3.2956357e-06  5.1791941e-07  2.7777163e-06  1.3406369e+08
   2240000   1.3850006e-10  133728.05      127684.67      2155352.1      3.2956417e-06  5.1788573e-07  2.7777559e-06  1.3406479e+08
   2241000   1.3856189e-10  133720.36      127678.53      2154828.4      3.2956519e-06  5.1805551e-07  2.7775964e-06  1.3406208e+08
   2242000   1.3862372e-10  133741.1       127704.88      2152973.9      3.2956651e-06  5.1763787e-07  2.7780272e-06  1.3407059e+08
   2243000   1.3868555e-10  133731.04      127700.75      2150978.4      3.2956691e-06  5.1785089e-07  2.7778182e-06  1.3406662e+08
   2244000   1.3874738e-10  133720.68      127695.7       2149192.1      3.2956653e-06  5.1806236e-07  2.7776029e-06  1.3406367e+08
   2245000   1.3880921e-10  133730.05      127711.04      2147203.3      3.2956701e-06  5.178725e-07   2.7777976e-06  1.3406945e+08
   2246000   1.3887104e-10  133713.63      127703.14      2144338.4      3.2956697e-06  5.1821318e-07  2.7774566e-06  1.3406325e+08
   2247000   1.3893287e-10  133729.58      127724.32      2142605.8      3.2956608e-06  5.1787302e-07  2.7777878e-06  1.3406742e+08
   2248000   1.389947e-10   133727.23      127728.44      2140435.4      3.2956507e-06  5.179118e-07   2.7777389e-06  1.3406457e+08
   2249000   1.3905653e-10  133740.67      127747.25      2138658.5      3.2956532e-06  5.1763493e-07  2.7780182e-06  1.3406945e+08
   2250000   1.3911836e-10  133730.48      127740.84      2137378.8      3.2956493e-06  5.178429e-07   2.7778064e-06  1.3406499e+08
   2251000   1.3918019e-10  133727.1       127738.54      2137017.9      3.2956451e-06  5.1790886e-07  2.7777363e-06  1.3406344e+08
   2252000   1.3924202e-10  133722.66      127739.97      2135049.4      3.2956546e-06  5.1801059e-07  2.777644e-06   1.3406363e+08
   2253000   1.3930386e-10  133716.44      127734.88      2134664.2      3.2956465e-06  5.1813171e-07  2.7775148e-06  1.3406152e+08
   2254000   1.3936569e-10  133707.88      127729.91      2133455.8      3.2956492e-06  5.1831224e-07  2.777337e-06   1.3405837e+08
   2255000   1.3942752e-10  133720.92      127747.03      2132103.3      3.2956474e-06  5.1803951e-07  2.7776079e-06  1.3406311e+08
   2256000   1.3948935e-10  133707.45      127742.92      2128959.9      3.2956364e-06  5.1830837e-07  2.777328e-06   1.340576e+08 
   2257000   1.3955118e-10  133722.36      127765.12      2126537.3      3.2956352e-06  5.1799739e-07  2.7776378e-06  1.3406288e+08
   2258000   1.3961301e-10  133721.22      127774.46      2123030.4      3.2956366e-06  5.1802246e-07  2.7776141e-06  1.340613e+08 
   2259000   1.3967484e-10  133728.18      127792.04      2119488        3.2956382e-06  5.1787941e-07  2.7777588e-06  1.3406272e+08
   2260000   1.3973667e-10  133733.35      127805.7       2116653.7      3.2956465e-06  5.1778037e-07  2.7778661e-06  1.3406533e+08
   2261000   1.397985e-10   133715.04      127798.56      2112899.1      3.295655e-06   5.1816925e-07  2.7774857e-06  1.3406107e+08
   2262000   1.3986033e-10  133702.13      127794.88      2109799.6      3.2956499e-06  5.1843224e-07  2.7772176e-06  1.3405757e+08
   2263000   1.3992216e-10  133705.01      127804.52      2107540.4      3.2956443e-06  5.1836692e-07  2.7772773e-06  1.3405852e+08
   2264000   1.3998399e-10  133716.37      127818.53      2106668.3      3.2956532e-06  5.1813976e-07  2.7775135e-06  1.3406283e+08
   2265000   1.4004582e-10  133722.13      127827.37      2105639.9      3.2956689e-06  5.1803596e-07  2.777633e-06   1.3406489e+08
   2266000   1.4010765e-10  133731.01      127841.72      2103818.6      3.2956806e-06  5.1786319e-07  2.7778174e-06  1.3406973e+08
   2267000   1.4016948e-10  133712.91      127832.1       2100964.4      3.295681e-06   5.1823956e-07  2.7774414e-06  1.3406453e+08
   2268000   1.4023131e-10  133706.01      127824.02      2101353.6      3.2956724e-06  5.1837426e-07  2.7772981e-06  1.3406274e+08
   2269000   1.4029314e-10  133704.13      127832.41      2097914.7      3.2956764e-06  5.1841736e-07  2.7772591e-06  1.3406284e+08
   2270000   1.4035497e-10  133707.24      127842.95      2095434.8      3.2956912e-06  5.1836747e-07  2.7773237e-06  1.3406468e+08
   2271000   1.404168e-10   133710.08      127852.41      2093225.1      3.2956695e-06  5.1828668e-07  2.7773828e-06  1.3406307e+08
   2272000   1.4047863e-10  133705.93      127857.17      2090241.7      3.2956699e-06  5.1837327e-07  2.7772966e-06  1.3406098e+08
   2273000   1.4054046e-10  133711.63      127874.94      2086209.8      3.2956583e-06  5.1824331e-07  2.777415e-06   1.3406124e+08
   2274000   1.4060229e-10  133734.54      127905.12      2083800.8      3.2956549e-06  5.1776411e-07  2.7778908e-06  1.3406921e+08
   2275000   1.4066412e-10  133715.46      127894.51      2080949.9      3.2956641e-06  5.1816951e-07  2.7774946e-06  1.340619e+08 
   2276000   1.4072595e-10  133742.93      127926.65      2079415.7      3.2956585e-06  5.1759338e-07  2.7780651e-06  1.3407166e+08
   2277000   1.4078778e-10  133743.22      127933.86      2077101.1      3.2956495e-06  5.1757837e-07  2.7780711e-06  1.3407088e+08
   2278000   1.4084961e-10  133724.32      127921.8       2074795.2      3.2956626e-06  5.1798402e-07  2.7776786e-06  1.3406468e+08
   2279000   1.4091145e-10  133721.95      127924.84      2072983.7      3.2956488e-06  5.1801947e-07  2.7776293e-06  1.3406287e+08
   2280000   1.4097328e-10  133711.16      127924.4       2069511.9      3.2956506e-06  5.1824541e-07  2.7774052e-06  1.3405923e+08
   2281000   1.4103511e-10  133719.26      127946.45      2064852.8      3.2956465e-06  5.1807302e-07  2.7775734e-06  1.3406224e+08
   2282000   1.4109694e-10  133742.17      127978.74      2061737.2      3.2956427e-06  5.1759344e-07  2.7780493e-06  1.3407094e+08
   2283000   1.4115877e-10  133716.83      127959.58      2059645.4      3.2956453e-06  5.1812242e-07  2.7775229e-06  1.3406146e+08
   2284000   1.412206e-10   133719.47      127971.62      2056505.5      3.2956404e-06  5.1806259e-07  2.7775778e-06  1.3406232e+08
   2285000   1.4128243e-10  133724.84      127982.18      2054775.4      3.2956333e-06  5.1794406e-07  2.7776893e-06  1.3406319e+08
   2286000   1.4134426e-10  133709.71      127972.08      2053079.3      3.2956308e-06  5.1825566e-07  2.7773752e-06  1.3405539e+08
   2287000   1.4140609e-10  133723.21      127994.62      2050067.7      3.2956278e-06  5.1797232e-07  2.7776554e-06  1.340584e+08 
   2288000   1.4146792e-10  133721.9       127994.79      2049568.4      3.2956225e-06  5.1799432e-07  2.7776282e-06  1.3405658e+08
   2289000   1.4152975e-10  133729.78      128005.4       2048668.8      3.2956242e-06  5.1783214e-07  2.777792e-06   1.3406108e+08
   2290000   1.4159158e-10  133732.98      128011.82      2047592.9      3.2956219e-06  5.1776344e-07  2.7778585e-06  1.3406313e+08
   2291000   1.4165341e-10  133734.41      128022.09      2044635.6      3.2956459e-06  5.1775783e-07  2.7778881e-06  1.3406565e+08
   2292000   1.4171524e-10  133733.72      128029.75      2041844.9      3.2956393e-06  5.1776551e-07  2.7778738e-06  1.3406444e+08
   2293000   1.4177707e-10  133743.1       128044.91      2039921.4      3.2956463e-06  5.1757769e-07  2.7780686e-06  1.3406801e+08
   2294000   1.418389e-10   133734.71      128043         2037744.5      3.2956448e-06  5.1775047e-07  2.7778943e-06  1.3406531e+08
   2295000   1.4190073e-10  133728.71      128039.7       2036837.9      3.2956574e-06  5.178876e-07   2.7777698e-06  1.3406577e+08
   2296000   1.4196256e-10  133718.51      128033.92      2035346.2      3.2956741e-06  5.1811626e-07  2.7775579e-06  1.3406565e+08
   2297000   1.4202439e-10  133707.68      128029.32      2033252.9      3.2956666e-06  5.1833373e-07  2.7773329e-06  1.3406231e+08
   2298000   1.4208622e-10  133717.52      128045.78      2031049.6      3.2956502e-06  5.1811278e-07  2.7775374e-06  1.3406389e+08
   2299000   1.4214805e-10  133739.22      128079.36      2027097.6      3.2956598e-06  5.1767166e-07  2.7779881e-06  1.3407184e+08
   2300000   1.4220988e-10  133718.01      128067.31      2024009.8      3.2956559e-06  5.1810855e-07  2.7775474e-06  1.3406205e+08
   2301000   1.4227171e-10  133715.01      128067.01      2023108        3.2956467e-06  5.1816146e-07  2.7774853e-06  1.3406e+08   
   2302000   1.4233354e-10  133719.66      128077.15      2021272.9      3.2956477e-06  5.1806608e-07  2.7775816e-06  1.3406223e+08
   2303000   1.4239537e-10  133726.44      128091.25      2018833.8      3.2956448e-06  5.1792221e-07  2.7777226e-06  1.3406371e+08
   2304000   1.424572e-10   133736.5       128110.01      2015935.8      3.2956424e-06  5.1771081e-07  2.7779315e-06  1.3406657e+08
   2305000   1.4251904e-10  133735.85      128117.06      2013357        3.2956209e-06  5.1770288e-07  2.7779181e-06  1.3406444e+08
   2306000   1.4258087e-10  133720.13      128109.78      2010519.5      3.2956244e-06  5.1803295e-07  2.7775914e-06  1.3405844e+08
   2307000   1.426427e-10   133718.66      128112.26      2009198.7      3.2956258e-06  5.1806477e-07  2.7775611e-06  1.3405821e+08
   2308000   1.4270453e-10  133728.83      128125.68      2008121        3.2956298e-06  5.1785754e-07  2.7777723e-06  1.3406259e+08
   2309000   1.4276636e-10  133724.73      128131.28      2004874        3.2956314e-06  5.1794433e-07  2.7776871e-06  1.3406092e+08
   2310000   1.4282819e-10  133716.99      128132.38      2001907.9      3.2956389e-06  5.1811269e-07  2.7775262e-06  1.3405886e+08
   2311000   1.4289002e-10  133719.32      128142.82      1999198.5      3.2956418e-06  5.1806706e-07  2.7775748e-06  1.340601e+08 
   2312000   1.4295185e-10  133719.57      128154.14      1995495        3.2956389e-06  5.1805904e-07  2.7775799e-06  1.3406024e+08
   2313000   1.4301368e-10  133725.76      128165.05      1993922.1      3.2956273e-06  5.1791899e-07  2.7777084e-06  1.3406194e+08
   2314000   1.4307551e-10  133736.95      128180.07      1992656.7      3.2956289e-06  5.176879e-07   2.777941e-06   1.3406572e+08
   2315000   1.4313734e-10  133720.79      128170.27      1990509.6      3.2956297e-06  5.1802454e-07  2.7776051e-06  1.3405933e+08
   2316000   1.4319917e-10  133720.79      128173.05      1989582.8      3.2956358e-06  5.1803055e-07  2.7776053e-06  1.3406029e+08
   2317000   1.43261e-10    133714.86      128174.17      1987216.7      3.2956326e-06  5.1815068e-07  2.7774819e-06  1.3405808e+08
   2318000   1.4332283e-10  133715.64      128181.61      1984989.9      3.2956478e-06  5.1814963e-07  2.7774981e-06  1.3405931e+08
   2319000   1.4338466e-10  133728.89      128203.38      1982155.6      3.29564e-06    5.1786642e-07  2.7777735e-06  1.3406434e+08
   2320000   1.4344649e-10  133717.49      128201.6       1978925.5      3.2956525e-06  5.1811583e-07  2.7775367e-06  1.3406098e+08
   2321000   1.4350832e-10  133727.04      128214.58      1977787.1      3.2956497e-06  5.179148e-07   2.7777349e-06  1.3406437e+08
   2322000   1.4357015e-10  133709.95      128201.43      1976452.2      3.2956569e-06  5.1827688e-07  2.77738e-06    1.3405853e+08
   2323000   1.4363198e-10  133716.78      128214.46      1974383.7      3.2956457e-06  5.181238e-07   2.7775219e-06  1.340611e+08 
   2324000   1.4369381e-10  133731.52      128234.22      1972721.2      3.2956339e-06  5.1780582e-07  2.7778281e-06  1.3406635e+08
   2325000   1.4375564e-10  133725.39      128240.04      1968721.9      3.2956349e-06  5.1793403e-07  2.7777008e-06  1.3406406e+08
   2326000   1.4381747e-10  133718.18      128244.04      1964962        3.295633e-06   5.1808206e-07  2.7775509e-06  1.3406094e+08
   2327000   1.438793e-10   133717.06      128251.69      1962031.2      3.2956243e-06  5.1809649e-07  2.7775278e-06  1.3405934e+08
   2328000   1.4394113e-10  133725.18      128269.29      1958864.8      3.2956346e-06  5.1793823e-07  2.7776964e-06  1.3406279e+08
   2329000   1.4400296e-10  133711.15      128259.9       1957299.9      3.2956327e-06  5.1822772e-07  2.7774049e-06  1.3405634e+08
   2330000   1.4406479e-10  133720.31      128278.21      1954249.8      3.2956246e-06  5.1802947e-07  2.7775951e-06  1.3405884e+08
   2331000   1.4412663e-10  133727.57      128298.37      1949943.7      3.2956001e-06  5.1785407e-07  2.777746e-06   1.3405975e+08
   2332000   1.4418846e-10  133718.61      128299.53      1946549.6      3.295612e-06   5.1805202e-07  2.77756e-06    1.3405672e+08
   2333000   1.4425029e-10  133727.55      128317.43      1943560.1      3.2956274e-06  5.1788182e-07  2.7777456e-06  1.340607e+08 
   2334000   1.4431212e-10  133739.06      128333.51      1942044.2      3.2956302e-06  5.1764545e-07  2.7779848e-06  1.3406473e+08
   2335000   1.4437395e-10  133740.58      128339.35      1940602.5      3.2956397e-06  5.1762348e-07  2.7780163e-06  1.3406526e+08
   2336000   1.4443578e-10  133727.64      128330.48      1939228        3.2956249e-06  5.1787732e-07  2.7777476e-06  1.3405922e+08
   2337000   1.4449761e-10  133739.49      128347.42      1937535.7      3.2956259e-06  5.1763236e-07  2.7779936e-06  1.340653e+08 
   2338000   1.4455944e-10  133715.27      128328.97      1935583.7      3.2956406e-06  5.1815011e-07  2.7774905e-06  1.3405856e+08
   2339000   1.4462127e-10  133717.53      128334.2       1934591.2      3.2956401e-06  5.1810261e-07  2.7775375e-06  1.3406109e+08
   2340000   1.446831e-10   133715.5       128336.47      1933152.6      3.295646e-06   5.1815061e-07  2.7774954e-06  1.3406253e+08
   2341000   1.4474493e-10  133712         128340.85      1930511.9      3.2956613e-06  5.1823866e-07  2.7774226e-06  1.3406348e+08
   2342000   1.4480676e-10  133716.16      128349.58      1928986.8      3.2956595e-06  5.1815053e-07  2.777509e-06   1.3406526e+08
   2343000   1.4486859e-10  133720.73      128361.26      1926615.6      3.2956508e-06  5.1804676e-07  2.7776041e-06  1.3406541e+08
   2344000   1.4493042e-10  133720.33      128368.18      1924165.3      3.2956393e-06  5.1804367e-07  2.7775956e-06  1.3406354e+08
   2345000   1.4499225e-10  133714.23      128371.75      1920928.6      3.2956472e-06  5.1817818e-07  2.777469e-06   1.3406206e+08
   2346000   1.4505408e-10  133717.67      128382.81      1918380.9      3.2956518e-06  5.1811145e-07  2.7775404e-06  1.3406306e+08
   2347000   1.4511591e-10  133723.29      128391.67      1917304.4      3.2956468e-06  5.1798967e-07  2.7776571e-06  1.3406417e+08
   2348000   1.4517774e-10  133722.58      128399.67      1914387.9      3.295648e-06   5.180057e-07   2.7776423e-06  1.3406436e+08
   2349000   1.4523957e-10  133710.76      128397.05      1911301.2      3.2956524e-06  5.1825557e-07  2.7773968e-06  1.3406087e+08
   2350000   1.453014e-10   133711.84      128406.02      1908662.3      3.2956448e-06  5.1822551e-07  2.7774192e-06  1.3406105e+08
   2351000   1.4536323e-10  133718.2       128417.61      1906918.8      3.2956443e-06  5.18093e-07    2.7775513e-06  1.3406299e+08
   2352000   1.4542506e-10  133721.96      128429.92      1904064.7      3.2956389e-06  5.1800933e-07  2.7776296e-06  1.3406289e+08
   2353000   1.4548689e-10  133739.28      128454.52      1901644.8      3.2956543e-06  5.1766514e-07  2.7779892e-06  1.3406883e+08
   2354000   1.4554872e-10  133734.98      128459.52      1898533.9      3.2956471e-06  5.1774715e-07  2.7779e-06     1.3406545e+08
   2355000   1.4561055e-10  133739.1       128471.3       1895975.4      3.2956364e-06  5.1765079e-07  2.7779856e-06  1.3406592e+08
   2356000   1.4567238e-10  133716.98      128455.13      1893963.2      3.2956271e-06  5.1810104e-07  2.777526e-06   1.340573e+08 
   2357000   1.4573422e-10  133727.09      128473.72      1891134.6      3.2956185e-06  5.1788253e-07  2.777736e-06   1.3406112e+08
   2358000   1.4579605e-10  133731.91      128481.26      1890232.1      3.2956219e-06  5.1778565e-07  2.7778362e-06  1.3406231e+08
   2359000   1.4585788e-10  133729.05      128483.07      1888665.8      3.2956331e-06  5.1785634e-07  2.7777768e-06  1.3406094e+08
   2360000   1.4591971e-10  133748.26      128512.57      1885245.6      3.2956394e-06  5.1746363e-07  2.7781758e-06  1.340687e+08 
   2361000   1.4598154e-10  133737.43      128506.31      1883707        3.2956343e-06  5.1768347e-07  2.7779509e-06  1.3406467e+08
   2362000   1.4604337e-10  133734.33      128513.7       1880194.5      3.2956394e-06  5.1775297e-07  2.7778865e-06  1.3406499e+08
   2363000   1.461052e-10   133724.8       128515.6       1876361.7      3.2956387e-06  5.179502e-07   2.7776885e-06  1.3406143e+08
   2364000   1.4616703e-10  133729.88      128528.6       1873720        3.2956307e-06  5.1783664e-07  2.777794e-06   1.3406221e+08
   2365000   1.4622886e-10  133727.18      128533.23      1871263.8      3.2956309e-06  5.1789301e-07  2.7777379e-06  1.3406043e+08
   2366000   1.4629069e-10  133732.93      128547.82      1868312.7      3.2956101e-06  5.1775273e-07  2.7778574e-06  1.3406108e+08
   2367000   1.4635252e-10  133728.49      128549.26      1866343.4      3.2956218e-06  5.1785662e-07  2.7777651e-06  1.3405982e+08
   2368000   1.4641435e-10  133740.42      128567.74      1864164.5      3.295627e-06   5.17614e-07    2.778013e-06   1.3406478e+08
   2369000   1.4647618e-10  133745.86      128574.86      1863607        3.2956399e-06  5.1751398e-07  2.7781259e-06  1.3406896e+08
   2370000   1.4653801e-10  133730.88      128568.81      1860605.4      3.2956477e-06  5.1783287e-07  2.7778149e-06  1.3406495e+08
   2371000   1.4659984e-10  133722.33      128565.1       1858979.6      3.2956592e-06  5.1802199e-07  2.7776372e-06  1.3406354e+08
   2372000   1.4666167e-10  133726.62      128575.1       1857073.8      3.2956551e-06  5.1792876e-07  2.7777264e-06  1.3406534e+08
   2373000   1.467235e-10   133728.2       128585.23      1854214.2      3.2956643e-06  5.1790521e-07  2.7777591e-06  1.3406716e+08
   2374000   1.4678533e-10  133722.03      128588.12      1851180        3.2956595e-06  5.1802849e-07  2.777631e-06   1.3406436e+08
   2375000   1.4684716e-10  133726.35      128598.47      1849165        3.2956402e-06  5.1791959e-07  2.7777206e-06  1.3406452e+08
   2376000   1.4690899e-10  133715.53      128592         1847701.9      3.2956373e-06  5.1814137e-07  2.777496e-06   1.3406008e+08
   2377000   1.4697082e-10  133710.17      128592.87      1845610        3.2956336e-06  5.1824899e-07  2.7773846e-06  1.340581e+08 
   2378000   1.4703265e-10  133722.33      128611.96      1843307.7      3.2956378e-06  5.1800064e-07  2.7776372e-06  1.3406219e+08
   2379000   1.4709448e-10  133734.13      128632.81      1840290        3.2956467e-06  5.1776445e-07  2.7778822e-06  1.3406586e+08
   2380000   1.4715631e-10  133735.07      128640.36      1838081.3      3.2956531e-06  5.1775117e-07  2.7779019e-06  1.3406583e+08
   2381000   1.4721814e-10  133726.64      128643.89      1834071.1      3.2956393e-06  5.1791262e-07  2.7777267e-06  1.3406167e+08
   2382000   1.4727997e-10  133723.66      128645.18      1832642.9      3.295625e-06   5.1796016e-07  2.7776648e-06  1.3405995e+08
   2383000   1.4734181e-10  133737.23      128665.68      1830336.6      3.2956256e-06  5.1767891e-07  2.7779467e-06  1.3406604e+08
   2384000   1.4740364e-10  133705.18      128640.87      1827885.2      3.2956265e-06  5.1834548e-07  2.777281e-06   1.3405485e+08
   2385000   1.4746547e-10  133712.14      128651.43      1826690.7      3.2956437e-06  5.1821806e-07  2.7774256e-06  1.3406045e+08
   2386000   1.475273e-10   133701.61      128649.3       1823867.9      3.2956434e-06  5.1843649e-07  2.7772069e-06  1.3405661e+08
   2387000   1.4758913e-10  133712.21      128661.89      1823213.3      3.2956446e-06  5.1821763e-07  2.777427e-06   1.3406009e+08
   2388000   1.4765096e-10  133715.07      128671.97      1820803.7      3.2956588e-06  5.1817233e-07  2.7774865e-06  1.3406187e+08
   2389000   1.4771279e-10  133709.21      128676.58      1817294.3      3.2956469e-06  5.1828219e-07  2.7773647e-06  1.3405888e+08
   2390000   1.4777462e-10  133714.05      128685.26      1816014.4      3.2956511e-06  5.1818588e-07  2.7774652e-06  1.3406224e+08
   2391000   1.4783645e-10  133701.34      128676.6       1814646.3      3.2956505e-06  5.184494e-07   2.7772011e-06  1.3405691e+08
   2392000   1.4789828e-10  133710.82      128690.29      1813245.3      3.2956538e-06  5.182558e-07   2.777398e-06   1.3406058e+08
   2393000   1.4796011e-10  133709.42      128696.5       1810701.6      3.2956524e-06  5.1828337e-07  2.7773691e-06  1.3405998e+08
   2394000   1.4802194e-10  133712.71      128707.23      1808214.5      3.2956516e-06  5.1821433e-07  2.7774373e-06  1.3406081e+08
   2395000   1.4808377e-10  133721.31      128724.15      1805443.1      3.2956513e-06  5.1803527e-07  2.777616e-06   1.3406371e+08
   2396000   1.481456e-10   133715.14      128726.77      1802496.8      3.2956266e-06  5.1813876e-07  2.7774879e-06  1.3405893e+08
   2397000   1.4820743e-10  133729.15      128745.75      1800848.5      3.295623e-06   5.1784409e-07  2.7777789e-06  1.3406369e+08
   2398000   1.4826926e-10  133716.27      128737.24      1799376.1      3.2956276e-06  5.1811613e-07  2.7775114e-06  1.3405922e+08
   2399000   1.4833109e-10  133712.45      128736.45      1798359.6      3.2956377e-06  5.1820565e-07  2.7774321e-06  1.3405825e+08
   2400000   1.4839292e-10  133725.86      128755.32      1796543.5      3.2956335e-06  5.1792299e-07  2.7777106e-06  1.3406261e+08
   2401000   1.4845475e-10  133720.78      128755.09      1794917.3      3.2956355e-06  5.1803049e-07  2.7776051e-06  1.3406011e+08
   2402000   1.4851658e-10  133744.36      128782.55      1793640.5      3.2956444e-06  5.1754972e-07  2.7780947e-06  1.340694e+08 
   2403000   1.4857841e-10  133722         128766.71      1791439.4      3.2956444e-06  5.1801412e-07  2.7776303e-06  1.3406075e+08
   2404000   1.4864024e-10  133725.24      128780.91      1787776.4      3.2956496e-06  5.1795204e-07  2.7776976e-06  1.3406318e+08
   2405000   1.4870207e-10  133734.56      128799.87      1784563        3.2956385e-06  5.1774715e-07  2.7778913e-06  1.340669e+08 
   2406000   1.487639e-10   133734.86      128802.81      1783680.4      3.2956459e-06  5.1774839e-07  2.7778975e-06  1.3406801e+08
   2407000   1.4882573e-10  133728.48      128799.87      1782524.4      3.2956626e-06  5.1789767e-07  2.777765e-06   1.3406661e+08
   2408000   1.4888756e-10  133738.83      128818.24      1779853.3      3.2956591e-06  5.1767907e-07  2.77798e-06    1.3406991e+08
   2409000   1.489494e-10   133727.86      128814.25      1777507.9      3.2956643e-06  5.1791219e-07  2.7777521e-06  1.3406591e+08
   2410000   1.4901123e-10  133727.55      128819.36      1775694.4      3.2956506e-06  5.1790488e-07  2.7777457e-06  1.3406539e+08
   2411000   1.4907306e-10  133723.29      128815.62      1775514.1      3.2956479e-06  5.1799082e-07  2.7776571e-06  1.3406346e+08
   2412000   1.4913489e-10  133721.09      128820.87      1773018.9      3.2956394e-06  5.1802804e-07  2.7776114e-06  1.3406131e+08
   2413000   1.4919672e-10  133728.13      128833.11      1771287.7      3.2956494e-06  5.1789172e-07  2.7777577e-06  1.34065e+08  
   2414000   1.4925855e-10  133721.41      128830.47      1769917.8      3.2956492e-06  5.1803112e-07  2.777618e-06   1.3406304e+08
   2415000   1.4932038e-10  133719.75      128833.48      1768354.5      3.2956522e-06  5.1806863e-07  2.7775836e-06  1.3406206e+08
   2416000   1.4938221e-10  133724.55      128849.36      1764654.5      3.2956492e-06  5.1796581e-07  2.7776834e-06  1.3406265e+08
   2417000   1.4944404e-10  133724.82      128857.58      1761997.8      3.2956513e-06  5.1796229e-07  2.777689e-06   1.3406193e+08
   2418000   1.4950587e-10  133731.57      128867.3       1761006.4      3.2956436e-06  5.1781448e-07  2.7778291e-06  1.340627e+08 
   2419000   1.495677e-10   133736.33      128875.84      1759748.6      3.2956603e-06  5.1773233e-07  2.7779279e-06  1.3406489e+08
   2420000   1.4962953e-10  133738.14      128884.41      1757488.9      3.2956547e-06  5.1768913e-07  2.7779656e-06  1.3406552e+08
   2421000   1.4969136e-10  133733.09      128888.82      1754322        3.2956398e-06  5.1777899e-07  2.7778608e-06  1.3406361e+08
   2422000   1.4975319e-10  133724.54      128889.68      1751164.9      3.2956379e-06  5.1795492e-07  2.777683e-06   1.3406136e+08
   2423000   1.4981502e-10  133720.99      128890.53      1749690.3      3.2956335e-06  5.1802407e-07  2.7776094e-06  1.340599e+08 
   2424000   1.4987685e-10  133733.14      128912.8       1746317.4      3.2956412e-06  5.1777948e-07  2.7778617e-06  1.3406439e+08
   2425000   1.4993868e-10  133740.41      128926.38      1744216.8      3.2956447e-06  5.1763191e-07  2.7780128e-06  1.3406578e+08
   2426000   1.5000051e-10  133748.02      128940.35      1742097.8      3.2956407e-06  5.174698e-07   2.7781709e-06  1.3406767e+08
   2427000   1.5006234e-10  133728.87      128931.14      1738750.6      3.2956483e-06  5.1787529e-07  2.777773e-06   1.3406144e+08
   2428000   1.5012417e-10  133738.01      128947.82      1736239.7      3.2956393e-06  5.1767641e-07  2.7779629e-06  1.3406604e+08
   2429000   1.50186e-10    133729.12      128946.53      1733686.5      3.295632e-06   5.1785378e-07  2.7777782e-06  1.3406419e+08
   2430000   1.5024783e-10  133731.8       128956.35      1731303        3.2956309e-06  5.17797e-07    2.7778339e-06  1.3406678e+08
   2431000   1.5030966e-10  133718.48      128951.15      1728576.1      3.2956331e-06  5.1807576e-07  2.7775573e-06  1.3406086e+08
   2432000   1.5037149e-10  133730.07      128968.87      1726537        3.2956381e-06  5.1784012e-07  2.7777979e-06  1.3406386e+08
   2433000   1.5043332e-10  133735.19      128975.53      1726027        3.2956343e-06  5.1772996e-07  2.7779043e-06  1.340642e+08 
   2434000   1.5049515e-10  133739.85      128989.58      1722889.2      3.295627e-06   5.1762592e-07  2.778001e-06   1.3406541e+08
   2435000   1.5055699e-10  133718.63      128978.08      1719618.2      3.2956314e-06  5.1807105e-07  2.7775604e-06  1.340581e+08 
   2436000   1.5061882e-10  133710.84      128972.5       1718869.5      3.2956338e-06  5.1823534e-07  2.7773985e-06  1.3405647e+08
   2437000   1.5068065e-10  133722.32      128989.57      1717012.7      3.2956429e-06  5.1800597e-07  2.7776369e-06  1.3406243e+08
   2438000   1.5074248e-10  133733.57      129004.54      1715779.8      3.2956329e-06  5.1776221e-07  2.7778707e-06  1.3406585e+08
   2439000   1.5080431e-10  133723.31      129002.13      1713147.1      3.2956267e-06  5.1796901e-07  2.7776577e-06  1.3406045e+08
   2440000   1.5086614e-10  133721.58      129007.52      1710761.1      3.2956442e-06  5.1802257e-07  2.7776216e-06  1.340608e+08 
   2441000   1.5092797e-10  133715.74      129009.64      1708092        3.2956402e-06  5.1813991e-07  2.7775003e-06  1.3405922e+08
   2442000   1.509898e-10   133732.42      129030.39      1706751.5      3.2956175e-06  5.1777065e-07  2.7778469e-06  1.3406427e+08
   2443000   1.5105163e-10  133724.91      129027.78      1705105.8      3.2956331e-06  5.1794217e-07  2.7776909e-06  1.3406227e+08
   2444000   1.5111346e-10  133733.23      129039.15      1704088.8      3.2956418e-06  5.1777827e-07  2.7778635e-06  1.3406593e+08
   2445000   1.5117529e-10  133724.26      129038.89      1701169.2      3.2956491e-06  5.179717e-07   2.7776774e-06  1.3406321e+08
   2446000   1.5123712e-10  133728.37      129045.76      1700248        3.2956463e-06  5.1788372e-07  2.7777626e-06  1.3406461e+08
   2447000   1.5129895e-10  133725.36      129046.65      1698942        3.2956553e-06  5.1795515e-07  2.7777001e-06  1.340647e+08 
   2448000   1.5136078e-10  133722.41      129053.64      1695615.2      3.2956494e-06  5.1801054e-07  2.7776388e-06  1.3406319e+08
   2449000   1.5142261e-10  133726.29      129064.54      1693272.1      3.2956402e-06  5.179208e-07   2.7777194e-06  1.3406307e+08
   2450000   1.5148444e-10  133733.92      129079.43      1690851.7      3.2956451e-06  5.1776706e-07  2.777878e-06   1.3406508e+08
   2451000   1.5154627e-10  133729.16      129078.34      1689619.3      3.2956441e-06  5.1786499e-07  2.7777791e-06  1.340625e+08 
   2452000   1.516081e-10   133736.94      129090.23      1688252.7      3.2956304e-06  5.1768977e-07  2.7779407e-06  1.3406431e+08
   2453000   1.5166993e-10  133735.95      129096.42      1685847.8      3.2956367e-06  5.1771666e-07  2.77792e-06    1.3406454e+08
   2454000   1.5173176e-10  133731.51      129100.78      1682903.9      3.2956178e-06  5.1778986e-07  2.777828e-06   1.3406216e+08
   2455000   1.5179359e-10  133741.29      129117.67      1680535.3      3.2956289e-06  5.175978e-07   2.7780311e-06  1.3406719e+08
   2456000   1.5185542e-10  133727.13      129110.7       1678115.8      3.295622e-06   5.1788499e-07  2.777737e-06   1.3406201e+08
   2457000   1.5191725e-10  133714.9       129105.54      1675740.4      3.2956401e-06  5.1815721e-07  2.7774829e-06  1.3405935e+08
   2458000   1.5197908e-10  133721.5       129116.29      1674358.5      3.2956476e-06  5.180276e-07   2.77762e-06    1.3406163e+08
   2459000   1.5204091e-10  133725.19      129126.33      1672239.1      3.2956304e-06  5.1793375e-07  2.7776967e-06  1.3405984e+08
   2460000   1.5210274e-10  133729.15      129137.05      1669980.5      3.295628e-06   5.1784915e-07  2.7777788e-06  1.3406066e+08
   2461000   1.5216458e-10  133727.8       129144.3       1667102.3      3.2956333e-06  5.1788238e-07  2.7777509e-06  1.3406122e+08
   2462000   1.5222641e-10  133728.2       129149.44      1665517.1      3.295629e-06   5.1786991e-07  2.7777591e-06  1.3406225e+08
   2463000   1.5228824e-10  133743.61      129170.6       1663609.2      3.2956503e-06  5.1757113e-07  2.7780791e-06  1.3407079e+08
   2464000   1.5235007e-10  133729.87      129160.36      1662426.5      3.2956517e-06  5.1785796e-07  2.7777938e-06  1.3406679e+08
   2465000   1.524119e-10   133707.65      129142.25      1661029        3.2956599e-06  5.1832767e-07  2.7773322e-06  1.3406091e+08
   2466000   1.5247373e-10  133703.88      129141.68      1659954.6      3.2956647e-06  5.1841078e-07  2.7772539e-06  1.340607e+08 
   2467000   1.5253556e-10  133710.47      129149.23      1659638.2      3.2956538e-06  5.1826304e-07  2.7773908e-06  1.3406142e+08
   2468000   1.5259739e-10  133718.97      129166.34      1656768.5      3.2956519e-06  5.1808453e-07  2.7775674e-06  1.3406235e+08
   2469000   1.5265922e-10  133727.23      129182.57      1654115.4      3.2956462e-06  5.179071e-07   2.7777391e-06  1.3406391e+08
   2470000   1.5272105e-10  133718.03      129178.57      1652364.3      3.2956437e-06  5.1809587e-07  2.7775478e-06  1.3405973e+08
   2471000   1.5278288e-10  133718.06      129183.67      1650668.1      3.2956421e-06  5.1809365e-07  2.7775484e-06  1.3405995e+08
   2472000   1.5284471e-10  133720.31      129190.58      1649112.6      3.2956459e-06  5.1805069e-07  2.7775952e-06  1.3406192e+08
   2473000   1.5290654e-10  133722.58      129203.16      1645666.9      3.2956486e-06  5.1800619e-07  2.7776424e-06  1.3406337e+08
   2474000   1.5296837e-10  133715.85      129206.62      1642253.1      3.2956383e-06  5.1813563e-07  2.7775027e-06  1.3406104e+08
   2475000   1.530302e-10   133696.24      129191.46      1640743.8      3.2956526e-06  5.1855744e-07  2.7770952e-06  1.3405599e+08
   2476000   1.5309203e-10  133698.73      129195.11      1640355.7      3.295665e-06   5.1851809e-07  2.7771469e-06  1.3405843e+08
   2477000   1.5315386e-10  133722.29      129219.19      1640208.8      3.2956534e-06  5.1801703e-07  2.7776364e-06  1.3406666e+08
   2478000   1.5321569e-10  133704.6       129206.93      1638371.4      3.2956594e-06  5.1839057e-07  2.7772688e-06  1.3405929e+08
   2479000   1.5327752e-10  133707.21      129216.03      1636208.9      3.2956357e-06  5.1831253e-07  2.7773232e-06  1.3405616e+08
   2480000   1.5333935e-10  133726.47      129239.98      1634655.9      3.2956242e-06  5.1790094e-07  2.7777232e-06  1.3406002e+08
   2481000   1.5340118e-10  133731.47      129249.27      1633227.5      3.2956118e-06  5.1778479e-07  2.777827e-06   1.3405832e+08
   2482000   1.5346301e-10  133744.65      129270.12      1630674.4      3.2956114e-06  5.1751064e-07  2.7781008e-06  1.340619e+08 
   2483000   1.5352484e-10  133753.52      129282.89      1629379        3.2956133e-06  5.1732826e-07  2.778285e-06   1.3406526e+08
   2484000   1.5358667e-10  133756.53      129289.38      1628218.4      3.2956239e-06  5.1727634e-07  2.7783475e-06  1.3406772e+08
   2485000   1.536485e-10   133736.8       129273.55      1626894.1      3.2956225e-06  5.1768483e-07  2.7779377e-06  1.340611e+08 
   2486000   1.5371033e-10  133728.59      129271.66      1624773.3      3.2956121e-06  5.1784478e-07  2.7777673e-06  1.3405871e+08
   2487000   1.5377217e-10  133714.47      129264.6       1622397.7      3.295617e-06   5.1814317e-07  2.7774739e-06  1.3405499e+08
   2488000   1.53834e-10    133711.09      129264.53      1621288.3      3.295618e-06   5.1821431e-07  2.7774037e-06  1.3405469e+08
   2489000   1.5389583e-10  133717.8       129275.86      1619750.7      3.2956471e-06  5.18104e-07    2.7775431e-06  1.3405963e+08
   2490000   1.5395766e-10  133729.17      129291.57      1618309.8      3.2956388e-06  5.1785941e-07  2.7777794e-06  1.3406459e+08
   2491000   1.5401949e-10  133717.68      129283.64      1617105.9      3.2956436e-06  5.1810294e-07  2.7775407e-06  1.3406063e+08
   2492000   1.5408132e-10  133720.35      129288.76      1616287.9      3.2956486e-06  5.1805259e-07  2.777596e-06   1.3406163e+08
   2493000   1.5414315e-10  133732.55      129303.87      1615330.1      3.2956377e-06  5.177881e-07   2.7778496e-06  1.3406481e+08
   2494000   1.5420498e-10  133728.94      129304.1       1614043.4      3.2956387e-06  5.1786412e-07  2.7777746e-06  1.3406365e+08
   2495000   1.5426681e-10  133711.02      129292.41      1611940.8      3.2956357e-06  5.1823348e-07  2.7774023e-06  1.3405647e+08
   2496000   1.5432864e-10  133726.98      129308.69      1611849.4      3.2956391e-06  5.179053e-07   2.7777338e-06  1.3406275e+08
   2497000   1.5439047e-10  133716.86      129305.39      1609555.9      3.2956311e-06  5.1810754e-07  2.7775236e-06  1.3405862e+08
   2498000   1.544523e-10   133725.22      129318.49      1607979.2      3.2956375e-06  5.1794037e-07  2.7776972e-06  1.3406307e+08
   2499000   1.5451413e-10  133721.44      129321.49      1605708.1      3.2956415e-06  5.1802284e-07  2.7776186e-06  1.3406176e+08
   2500000   1.5457596e-10  133735.8       129337.16      1605286.6      3.2956473e-06  5.1773021e-07  2.7779171e-06  1.3406766e+08
   2501000   1.5463779e-10  133717.16      129323.5       1603602.8      3.2956431e-06  5.1811326e-07  2.7775298e-06  1.3405908e+08
   2502000   1.5469962e-10  133734.87      129347.11      1601647        3.2956318e-06  5.1773415e-07  2.7778977e-06  1.3406316e+08
   2503000   1.5476145e-10  133742.33      129360.47      1599679.7      3.2956365e-06  5.1758394e-07  2.7780525e-06  1.340649e+08 
   2504000   1.5482328e-10  133758.31      129382.59      1597642.9      3.2956296e-06  5.1724495e-07  2.7783846e-06  1.3406997e+08
   2505000   1.5488511e-10  133742.73      129373.58      1595430.3      3.2956211e-06  5.1756015e-07  2.7780609e-06  1.3406294e+08
   2506000   1.5494694e-10  133744.68      129378.77      1594349.5      3.2956213e-06  5.1751987e-07  2.7781015e-06  1.3406429e+08
   2507000   1.5500877e-10  133732.79      129371.63      1592748.8      3.2956144e-06  5.1775991e-07  2.7778545e-06  1.3406102e+08
   2508000   1.550706e-10   133730.3       129376.11      1590414.1      3.295624e-06   5.1782119e-07  2.7778028e-06  1.3406315e+08
   2509000   1.5513243e-10  133712.84      129363.14      1588892.1      3.2956269e-06  5.1818688e-07  2.77744e-06    1.3405791e+08
   2510000   1.5519426e-10  133717.48      129372.78      1587228.5      3.2956366e-06  5.1810003e-07  2.7775366e-06  1.3406081e+08
   2511000   1.5525609e-10  133733.18      129392.74      1585815.1      3.295649e-06   5.1778651e-07  2.7778625e-06  1.3406723e+08
   2512000   1.5531792e-10  133726.62      129392.34      1583750.7      3.2956625e-06  5.1793619e-07  2.7777263e-06  1.3406564e+08
   2513000   1.5537976e-10  133737.09      129404.26      1583274        3.2956516e-06  5.1770784e-07  2.7779437e-06  1.3406938e+08
   2514000   1.5544159e-10  133730.95      129397.97      1583322.9      3.2956467e-06  5.1783043e-07  2.7778163e-06  1.3406706e+08
   2515000   1.5550342e-10  133709.17      129381.19      1581626.3      3.2956476e-06  5.1828376e-07  2.7773638e-06  1.3405947e+08
   2516000   1.5556525e-10  133726.89      129404.72      1579699.2      3.295643e-06   5.1791119e-07  2.7777318e-06  1.3406599e+08
   2517000   1.5562708e-10  133726.81      129411.68      1577348        3.2956498e-06  5.1791945e-07  2.7777303e-06  1.3406541e+08
   2518000   1.5568891e-10  133738.98      129429.32      1575528.4      3.2956437e-06  5.176608e-07   2.777983e-06   1.340685e+08 
   2519000   1.5575074e-10  133736.59      129430.05      1574486.4      3.2956411e-06  5.1770766e-07  2.7779335e-06  1.3406695e+08
   2520000   1.5581257e-10  133728.78      129426.97      1572894.6      3.2956406e-06  5.1786938e-07  2.7777712e-06  1.3406444e+08
   2521000   1.558744e-10   133714.96      129415.38      1572135        3.2956382e-06  5.181541e-07   2.7774841e-06  1.3405982e+08
   2522000   1.5593623e-10  133710.72      129417.22      1570097        3.2956396e-06  5.1824354e-07  2.7773961e-06  1.3405817e+08
   2523000   1.5599806e-10  133725.78      129438.76      1567945.9      3.295631e-06   5.1792206e-07  2.7777089e-06  1.3406318e+08
   2524000   1.5605989e-10  133737.36      129459.38      1564933.7      3.2956247e-06  5.1767518e-07  2.7779495e-06  1.340676e+08 
   2525000   1.5612172e-10  133724.49      129452.96      1562761        3.2956473e-06  5.1796525e-07  2.777682e-06   1.3406443e+08
   2526000   1.5618355e-10  133722.38      129457.94      1560391.5      3.2956361e-06  5.1799774e-07  2.7776383e-06  1.34062e+08  
   2527000   1.5624538e-10  133738.8       129477.31      1559418.6      3.2956226e-06  5.176434e-07   2.7779792e-06  1.3406629e+08
   2528000   1.5630721e-10  133751.04      129497.21      1556872.3      3.2956382e-06  5.1740453e-07  2.7782337e-06  1.3407146e+08
   2529000   1.5636904e-10  133731.4       129482.83      1555088.8      3.2956481e-06  5.1782254e-07  2.7778255e-06  1.3406569e+08
   2530000   1.5643087e-10  133707.48      129456.96      1555719.3      3.2956409e-06  5.1831204e-07  2.7773288e-06  1.3405808e+08
   2531000   1.564927e-10   133707.09      129460.63      1554363.3      3.2956423e-06  5.1832161e-07  2.7773207e-06  1.3405984e+08
   2532000   1.5655453e-10  133709.91      129463.94      1554201        3.2956495e-06  5.1827022e-07  2.7773793e-06  1.3406147e+08
   2533000   1.5661636e-10  133720.38      129474.76      1554094.4      3.295656e-06   5.1805925e-07  2.7775967e-06  1.3406491e+08
   2534000   1.5667819e-10  133730.65      129485.14      1554066.5      3.2956732e-06  5.178632e-07   2.77781e-06    1.3406925e+08
   2535000   1.5674002e-10  133713.1       129476.68      1551009.9      3.2956666e-06  5.1822114e-07  2.7774455e-06  1.3406166e+08
   2536000   1.5680185e-10  133708.75      129478.52      1548935.3      3.2956574e-06  5.1830225e-07  2.7773552e-06  1.3405939e+08
   2537000   1.5686368e-10  133708.67      129481.88      1547783        3.2956651e-06  5.1831175e-07  2.7773534e-06  1.3406003e+08
   2538000   1.5692551e-10  133729.22      129505.86      1546659.7      3.2956742e-06  5.178938e-07   2.7777804e-06  1.3406821e+08
   2539000   1.5698734e-10  133722.7       129508.49      1543589.2      3.2956555e-06  5.1801056e-07  2.7776449e-06  1.3406404e+08
   2540000   1.5704918e-10  133713.88      129506.79      1541200        3.2956332e-06  5.181715e-07   2.7774617e-06  1.3405906e+08
   2541000   1.5711101e-10  133723.53      129522.88      1539056.2      3.2956381e-06  5.1797606e-07  2.7776621e-06  1.3406363e+08
   2542000   1.5717284e-10  133711.62      129514.93      1537720.1      3.2956424e-06  5.1822768e-07  2.7774147e-06  1.3405838e+08
   2543000   1.5723467e-10  133729.78      129538.81      1535824.9      3.2956525e-06  5.1786056e-07  2.777792e-06   1.3406468e+08
   2544000   1.572965e-10   133728.65      129546.66      1532820.9      3.2956378e-06  5.1786943e-07  2.7777684e-06  1.3406204e+08
   2545000   1.5735833e-10  133726.79      129551.07      1530722.8      3.2956504e-06  5.1792042e-07  2.7777299e-06  1.340625e+08 
   2546000   1.5742016e-10  133716.81      129551.95      1527082        3.2956491e-06  5.1812649e-07  2.7775226e-06  1.3405982e+08
   2547000   1.5748199e-10  133708.59      129555.76      1523049.6      3.2956614e-06  5.1830956e-07  2.7773519e-06  1.3405929e+08
   2548000   1.5754382e-10  133725.25      129581.79      1519930.7      3.2956499e-06  5.1795195e-07  2.7776979e-06  1.3406636e+08
   2549000   1.5760565e-10  133715.46      129580.85      1516960.4      3.2956451e-06  5.1815069e-07  2.7774944e-06  1.3406237e+08
   2550000   1.5766748e-10  133721         129593.27      1514668.4      3.2956476e-06  5.1803796e-07  2.7776096e-06  1.3406359e+08
   2551000   1.5772931e-10  133730.87      129609.2       1512647        3.2956586e-06  5.1784412e-07  2.7778145e-06  1.3406694e+08
   2552000   1.5779114e-10  133741.27      129629.16      1509462.9      3.2956508e-06  5.1762016e-07  2.7780306e-06  1.3406997e+08
   2553000   1.5785297e-10  133725.84      129621.28      1506922.5      3.2956389e-06  5.1792889e-07  2.7777101e-06  1.3406398e+08
   2554000   1.579148e-10   133718.48      129617.69      1505654.7      3.2956309e-06  5.180737e-07   2.7775572e-06  1.3406116e+08
   2555000   1.5797663e-10  133715         129616.26      1504965.8      3.2956507e-06  5.181658e-07   2.7774849e-06  1.3406213e+08
   2556000   1.5803846e-10  133700.37      129602.48      1504664.1      3.2956378e-06  5.184568e-07   2.777181e-06   1.3405587e+08
   2557000   1.5810029e-10  133714.13      129620.22      1503348.7      3.2956519e-06  5.181849e-07   2.777467e-06   1.3406244e+08
   2558000   1.5816212e-10  133710.32      129619.39      1502350.6      3.2956613e-06  5.1827352e-07  2.7773878e-06  1.3406102e+08
   2559000   1.5822395e-10  133729.72      129644.02      1500617.5      3.2956474e-06  5.1785675e-07  2.7777907e-06  1.3406622e+08
   2560000   1.5828578e-10  133733.67      129654.1       1498571.7      3.295661e-06   5.1778818e-07  2.7778728e-06  1.3406789e+08
   2561000   1.5834761e-10  133729.1       129657.27      1495978.6      3.2956424e-06  5.1786459e-07  2.7777778e-06  1.3406444e+08
   2562000   1.5840944e-10  133718.68      129648.83      1495307.5      3.2956392e-06  5.1807772e-07  2.7775614e-06  1.3406088e+08
   2563000   1.5847127e-10  133718.43      129656.01      1492820.1      3.2956516e-06  5.180954e-07   2.7775561e-06  1.3406225e+08
   2564000   1.585331e-10   133723.64      129666.37      1491103.3      3.2956561e-06  5.1799163e-07  2.7776645e-06  1.3406416e+08
   2565000   1.5859493e-10  133712.57      129663.4       1488382.3      3.2956526e-06  5.1821817e-07  2.7774344e-06  1.3405895e+08
   2566000   1.5865677e-10  133711.68      129670.77      1485621.3      3.2956472e-06  5.1823112e-07  2.777416e-06   1.3405796e+08
   2567000   1.587186e-10   133732.87      129696.69      1484060.4      3.2956516e-06  5.1779549e-07  2.7778562e-06  1.3406609e+08
   2568000   1.5878043e-10  133739.94      129711.37      1481520.1      3.2956433e-06  5.1764037e-07  2.778003e-06   1.3406801e+08
   2569000   1.5884226e-10  133724.56      129702.75      1479247        3.2956271e-06  5.1794348e-07  2.7776836e-06  1.3406114e+08
   2570000   1.5890409e-10  133736.58      129717.62      1478304        3.2956294e-06  5.1769623e-07  2.7779332e-06  1.340674e+08 
   2571000   1.5896592e-10  133726.87      129714.48      1476095        3.295628e-06   5.1789662e-07  2.7777314e-06  1.340652e+08 
   2572000   1.5902775e-10  133716.64      129711.14      1473784.4      3.2956316e-06  5.1811246e-07  2.7775191e-06  1.3406285e+08
   2573000   1.5908958e-10  133703.49      129702.63      1472219.1      3.2956298e-06  5.1838392e-07  2.7772459e-06  1.3405714e+08
   2574000   1.5915141e-10  133710.81      129712.56      1471351.5      3.2956249e-06  5.1822705e-07  2.7773978e-06  1.3405682e+08
   2575000   1.5921324e-10  133727.31      129736.75      1468795.6      3.2956163e-06  5.1787579e-07  2.7777406e-06  1.3405993e+08
   2576000   1.5927507e-10  133738.41      129754.35      1466635.6      3.2956132e-06  5.1764191e-07  2.7779713e-06  1.3406267e+08
   2577000   1.593369e-10   133733.2       129753.39      1465208.1      3.2956256e-06  5.1776266e-07  2.777863e-06   1.3406105e+08
   2578000   1.5939873e-10  133721.35      129748.91      1462729.4      3.2956176e-06  5.1800086e-07  2.7776168e-06  1.3405667e+08
   2579000   1.5946056e-10  133734.13      129765.73      1461392.7      3.2956235e-06  5.1774108e-07  2.7778824e-06  1.3406295e+08
   2580000   1.5952239e-10  133726.16      129762.21      1459894.8      3.2956327e-06  5.1791598e-07  2.7777167e-06  1.3406182e+08
   2581000   1.5958422e-10  133720.44      129763         1457712.8      3.2956492e-06  5.1805115e-07  2.777598e-06   1.3406118e+08
   2582000   1.5964605e-10  133728.63      129780.61      1454571.2      3.2956325e-06  5.1786437e-07  2.7777681e-06  1.3406326e+08
   2583000   1.5970788e-10  133719.09      129776.44      1452763.7      3.2956446e-06  5.1807481e-07  2.7775698e-06  1.3405982e+08
   2584000   1.5976971e-10  133721.43      129783.11      1451318.7      3.2956524e-06  5.1803391e-07  2.7776185e-06  1.3406104e+08
   2585000   1.5983154e-10  133716.35      129777.85      1451373.4      3.2956384e-06  5.1812544e-07  2.7775129e-06  1.3405864e+08
   2586000   1.5989337e-10  133721.46      129789.03      1449349.7      3.2956368e-06  5.1801768e-07  2.7776191e-06  1.3406045e+08
   2587000   1.599552e-10   133727.63      129802.31      1446975.7      3.2956378e-06  5.1789052e-07  2.7777473e-06  1.3406274e+08
   2588000   1.6001703e-10  133723.1       129803.11      1445191.8      3.2956284e-06  5.1797517e-07  2.7776532e-06  1.3405957e+08
   2589000   1.6007886e-10  133715.3       129799.62      1443741.6      3.2956261e-06  5.1813497e-07  2.7774911e-06  1.3405655e+08
   2590000   1.6014069e-10  133728.37      129815.52      1442807.8      3.2956381e-06  5.1787546e-07  2.7777626e-06  1.3406283e+08
   2591000   1.6020252e-10  133718.45      129809.82      1441385.3      3.2956491e-06  5.1809255e-07  2.7775565e-06  1.3406007e+08
   2592000   1.6026436e-10  133735.24      129830.43      1440126.7      3.2956521e-06  5.1774681e-07  2.7779053e-06  1.3406687e+08
   2593000   1.6032619e-10  133735.55      129837.06      1438013.1      3.2956488e-06  5.1773696e-07  2.7779119e-06  1.3406686e+08
   2594000   1.6038802e-10  133726.65      129833.47      1436228.2      3.2956539e-06  5.179269e-07   2.777727e-06   1.3406409e+08
   2595000   1.6044985e-10  133735.72      129851.74      1433159.3      3.2956366e-06  5.1772123e-07  2.7779154e-06  1.3406591e+08
   2596000   1.6051168e-10  133719.89      129843.71      1430538.5      3.2956484e-06  5.1806176e-07  2.7775866e-06  1.3406007e+08
   2597000   1.6057351e-10  133725.89      129855.51      1428600.4      3.2956287e-06  5.1791757e-07  2.7777111e-06  1.3406015e+08
   2598000   1.6063534e-10  133742.92      129878.74      1426546.6      3.2956162e-06  5.1755127e-07  2.7780649e-06  1.340649e+08 
   2599000   1.6069717e-10  133724.93      129865.97      1424783.8      3.2956213e-06  5.1792996e-07  2.7776913e-06  1.3405887e+08
   2600000   1.60759e-10    133716.3       129863.71      1422639.9      3.2956198e-06  5.1810788e-07  2.7775119e-06  1.340557e+08 
   2601000   1.6082083e-10  133721.1       129867.98      1422825.2      3.2956184e-06  5.1800677e-07  2.7776117e-06  1.3405696e+08
   2602000   1.6088266e-10  133725.28      129874.88      1421920.6      3.2956285e-06  5.1792996e-07  2.7776985e-06  1.3405933e+08
   2603000   1.6094449e-10  133716.71      129869.49      1420847.8      3.2956278e-06  5.1810732e-07  2.7775205e-06  1.3405619e+08
   2604000   1.6100632e-10  133712.08      129869.93      1419146.9      3.2956301e-06  5.1820579e-07  2.7774243e-06  1.3405547e+08
   2605000   1.6106815e-10  133729.23      129890.44      1418040.1      3.2956338e-06  5.1785333e-07  2.7777805e-06  1.3406372e+08
   2606000   1.6112998e-10  133716.86      129882.78      1416452.8      3.2956581e-06  5.1813451e-07  2.7775235e-06  1.3406173e+08
   2607000   1.6119181e-10  133711.52      129881.09      1415223        3.2956728e-06  5.1826023e-07  2.7774126e-06  1.3406178e+08
   2608000   1.6125364e-10  133721.14      129892         1414804.3      3.2956754e-06  5.18063e-07    2.7776124e-06  1.3406682e+08
   2609000   1.6131547e-10  133705.03      129878.51      1413910.7      3.2956852e-06  5.1840745e-07  2.7772778e-06  1.340609e+08 
   2610000   1.613773e-10   133722.23      129894.71      1414264        3.2956824e-06  5.1804718e-07  2.7776352e-06  1.3406643e+08
   2611000   1.6143913e-10  133727.06      129902.17      1413391.3      3.2956642e-06  5.1792863e-07  2.7777355e-06  1.3406611e+08
   2612000   1.6150096e-10  133738.12      129916.95      1412156.1      3.2956549e-06  5.1768965e-07  2.7779652e-06  1.3406942e+08
   2613000   1.6156279e-10  133724.53      129907.47      1410767.8      3.2956498e-06  5.1796685e-07  2.7776829e-06  1.3406421e+08
   2614000   1.6162462e-10  133725.69      129912.09      1409613.8      3.2956527e-06  5.1794563e-07  2.7777071e-06  1.3406596e+08
   2615000   1.6168645e-10  133710.54      129899.62      1408700.8      3.2956512e-06  5.1825883e-07  2.7773924e-06  1.3406066e+08
   2616000   1.6174828e-10  133710.28      129904.91      1406842        3.2956541e-06  5.1826729e-07  2.7773868e-06  1.3406079e+08
   2617000   1.6181011e-10  133703.39      129902.08      1405478.9      3.2956465e-06  5.1840277e-07  2.7772438e-06  1.3405756e+08
   2618000   1.6187195e-10  133707.51      129912.22      1403469.3      3.2956552e-06  5.1832591e-07  2.7773293e-06  1.3405969e+08
   2619000   1.6193378e-10  133695.92      129904.05      1402316.9      3.2956422e-06  5.1855347e-07  2.7770887e-06  1.3405386e+08
   2620000   1.6199561e-10  133716.92      129928.86      1401061.2      3.2956213e-06  5.1809639e-07  2.7775249e-06  1.340592e+08 
   2621000   1.6205744e-10  133732.66      129947.64      1400057.7      3.2956294e-06  5.1777772e-07  2.7778517e-06  1.3406456e+08
   2622000   1.6211927e-10  133734.74      129954.95      1398312.2      3.295638e-06   5.1774309e-07  2.7778949e-06  1.3406478e+08
   2623000   1.621811e-10   133746.26      129976.04      1395126.3      3.2956323e-06  5.1749795e-07  2.7781343e-06  1.3406846e+08
   2624000   1.6224293e-10  133732.61      129971.46      1392076.6      3.2956235e-06  5.1777272e-07  2.7778507e-06  1.340632e+08 
   2625000   1.6230476e-10  133720.74      129966.98      1389594.2      3.2956378e-06  5.1803366e-07  2.7776042e-06  1.3406093e+08
   2626000   1.6236659e-10  133717.24      129968.98      1387747.4      3.2956432e-06  5.1811178e-07  2.7775314e-06  1.3406062e+08
   2627000   1.6242842e-10  133716.88      129979.53      1384099.9      3.2956383e-06  5.1811434e-07  2.777524e-06   1.340597e+08 
   2628000   1.6249025e-10  133717.95      129985.93      1382320        3.2956358e-06  5.180895e-07   2.7775463e-06  1.3405927e+08
   2629000   1.6255208e-10  133738.05      130007.88      1381719.4      3.2956366e-06  5.1767297e-07  2.7779636e-06  1.3406717e+08
   2630000   1.6261391e-10  133724.47      129999.64      1379922.4      3.2956396e-06  5.1795799e-07  2.7776816e-06  1.3406193e+08
   2631000   1.6267574e-10  133718.56      129996.99      1378824.3      3.2956457e-06  5.1808679e-07  2.7775589e-06  1.3405984e+08
   2632000   1.6273757e-10  133729.3       130011.47      1377584.1      3.2956449e-06  5.1786293e-07  2.777782e-06   1.3406412e+08
   2633000   1.627994e-10   133719.5       130006.46      1375974.7      3.2956441e-06  5.1806572e-07  2.7775784e-06  1.3406098e+08
   2634000   1.6286123e-10  133711.59      130005.35      1373689.5      3.2956371e-06  5.1822302e-07  2.7774141e-06  1.3405752e+08
   2635000   1.6292306e-10  133714.19      130015.77      1371079.7      3.295649e-06   5.1818087e-07  2.7774681e-06  1.3405877e+08
   2636000   1.6298489e-10  133735.32      130047.73      1367479.9      3.2956462e-06  5.1773918e-07  2.7779071e-06  1.3406666e+08
   2637000   1.6304672e-10  133738.04      130054.29      1366194.4      3.2956559e-06  5.1769244e-07  2.7779635e-06  1.3406791e+08
   2638000   1.6310855e-10  133735.35      130059.22      1363645.9      3.2956424e-06  5.177348e-07   2.7779076e-06  1.3406501e+08
   2639000   1.6317038e-10  133727.6       130055.8       1362189.6      3.2956498e-06  5.179031e-07   2.7777467e-06  1.3406237e+08
   2640000   1.6323221e-10  133735.39      130067.83      1360776.9      3.295627e-06   5.177186e-07   2.7779084e-06  1.3406433e+08
   2641000   1.6329404e-10  133726.89      130064.21      1359138.5      3.2956212e-06  5.1788937e-07  2.7777319e-06  1.3406168e+08
   2642000   1.6335587e-10  133725.22      130066.48      1357820.6      3.2956201e-06  5.1792276e-07  2.7776973e-06  1.3406091e+08
   2643000   1.634177e-10   133725.75      130071.34      1356373        3.2956305e-06  5.1792223e-07  2.7777082e-06  1.3406118e+08
   2644000   1.6347954e-10  133730.64      130080.19      1355049.1      3.2956426e-06  5.1783285e-07  2.7778097e-06  1.3406341e+08
   2645000   1.6354137e-10  133742.9       130087.84      1356605        3.2956398e-06  5.1757539e-07  2.7780644e-06  1.3406664e+08
   2646000   1.636032e-10   133741.95      130089.23      1355820.5      3.2956313e-06  5.1758664e-07  2.7780447e-06  1.340653e+08 
   2647000   1.6366503e-10  133748.84      130096.52      1355698.5      3.2956312e-06  5.1744328e-07  2.778188e-06   1.3406761e+08
   2648000   1.6372686e-10  133747.56      130098.73      1354528.8      3.2956331e-06  5.1747177e-07  2.7781613e-06  1.340668e+08 
   2649000   1.6378869e-10  133745.6       130098.03      1354102.1      3.295638e-06   5.1751744e-07  2.7781205e-06  1.3406719e+08
   2650000   1.6385052e-10  133735.76      130090.57      1353297.2      3.2956407e-06  5.177246e-07   2.7779161e-06  1.3406429e+08
   2651000   1.6391235e-10  133739.38      130096.61      1352493.3      3.2956289e-06  5.1763743e-07  2.7779915e-06  1.3406435e+08
   2652000   1.6397418e-10  133745.26      130105.46      1351504.2      3.2956273e-06  5.1751381e-07  2.7781134e-06  1.3406479e+08
   2653000   1.6403601e-10  133742.73      130106.35      1350358.8      3.2956274e-06  5.1756638e-07  2.778061e-06   1.3406285e+08
   2654000   1.6409784e-10  133741.33      130108.96      1349014.1      3.2956136e-06  5.1758173e-07  2.7780318e-06  1.3406202e+08
   2655000   1.6415967e-10  133728.85      130103.32      1346716        3.2956146e-06  5.1784188e-07  2.7777727e-06  1.3405921e+08
   2656000   1.642215e-10   133723.16      130105.17      1344191.1      3.2956351e-06  5.179806e-07   2.7776545e-06  1.3406038e+08
   2657000   1.6428333e-10  133722.8       130108.06      1343101.2      3.2956402e-06  5.179932e-07   2.777647e-06   1.3406181e+08
   2658000   1.6434516e-10  133725.39      130116.19      1341253.2      3.2956352e-06  5.1793441e-07  2.7777008e-06  1.3406237e+08
   2659000   1.6440699e-10  133740.71      130134.82      1340161.6      3.2956248e-06  5.1760578e-07  2.778019e-06   1.3406712e+08
   2660000   1.6446882e-10  133731.2       130129.13      1338874        3.2956303e-06  5.1780874e-07  2.7778215e-06  1.3406373e+08
   2661000   1.6453065e-10  133717.9       130121.48      1336970.3      3.2956323e-06  5.1808705e-07  2.7775453e-06  1.3405897e+08
   2662000   1.6459248e-10  133717.64      130122.66      1336489.6      3.2956178e-06  5.1807797e-07  2.7775398e-06  1.3405727e+08
   2663000   1.6465431e-10  133730.72      130134.84      1336802.8      3.2956129e-06  5.178013e-07   2.7778116e-06  1.3406098e+08
   2664000   1.6471614e-10  133723.12      130127.2       1336805.3      3.2956229e-06  5.1796927e-07  2.7776536e-06  1.3405867e+08
   2665000   1.6477797e-10  133719.62      130126.81      1335765.6      3.29562e-06    5.1803898e-07  2.777581e-06   1.3405835e+08
   2666000   1.648398e-10   133709.76      130124.24      1333313.2      3.2956196e-06  5.1824356e-07  2.777376e-06   1.3405613e+08
   2667000   1.6490163e-10  133713.41      130132.49      1331780.6      3.295632e-06   5.1818011e-07  2.7774518e-06  1.3406012e+08
   2668000   1.6496346e-10  133710.54      130132.12      1330939.1      3.2956581e-06  5.1826593e-07  2.7773922e-06  1.340612e+08 
   2669000   1.6502529e-10  133713.85      130136.14      1330707.5      3.2956523e-06  5.1819119e-07  2.7774612e-06  1.3406158e+08
   2670000   1.6508713e-10  133721.74      130153.24      1327634.4      3.2956571e-06  5.1803222e-07  2.7776249e-06  1.3406376e+08
   2671000   1.6514896e-10  133720.81      130157.55      1325884.3      3.2956449e-06  5.1803918e-07  2.7776057e-06  1.3406182e+08
   2672000   1.6521079e-10  133711.56      130153.75      1324051.2      3.2956373e-06  5.1822388e-07  2.7774135e-06  1.3405777e+08
   2673000   1.6527262e-10  133712.77      130161.16      1321976.6      3.295636e-06   5.1819743e-07  2.7774386e-06  1.3405765e+08
   2674000   1.6533445e-10  133724.05      130178.37      1320004.6      3.2956364e-06  5.1796342e-07  2.777673e-06   1.3406118e+08
   2675000   1.6539628e-10  133735.81      130191.8       1319460.5      3.2956419e-06  5.1772459e-07  2.7779173e-06  1.3406651e+08
   2676000   1.6545811e-10  133713.48      130173.77      1317999.8      3.2956431e-06  5.181897e-07   2.7774534e-06  1.3405912e+08
   2677000   1.6551994e-10  133715.79      130175.68      1318134.6      3.2956319e-06  5.1813052e-07  2.7775014e-06  1.3405983e+08
   2678000   1.6558177e-10  133729.36      130192.55      1317043.3      3.2956557e-06  5.1787258e-07  2.7777832e-06  1.3406639e+08
   2679000   1.656436e-10   133721.63      130189         1315638.3      3.2956636e-06  5.1804097e-07  2.7776227e-06  1.3406366e+08
   2680000   1.6570543e-10  133723.13      130193.64      1314590        3.2956582e-06  5.180044e-07   2.7776538e-06  1.3406427e+08
   2681000   1.6576726e-10  133728.32      130199.47      1314380.6      3.2956596e-06  5.1789802e-07  2.7777615e-06  1.3406692e+08
   2682000   1.6582909e-10  133712.59      130183.28      1314519.1      3.2956463e-06  5.1821147e-07  2.7774349e-06  1.3406008e+08
   2683000   1.6589092e-10  133724.31      130196.9       1313898.1      3.2956446e-06  5.1796618e-07  2.7776784e-06  1.3406425e+08
   2684000   1.6595275e-10  133728.74      130209.32      1311229.6      3.2956488e-06  5.1787839e-07  2.7777704e-06  1.3406609e+08
   2685000   1.6601458e-10  133704.03      130190.82      1309125.4      3.2956512e-06  5.1839415e-07  2.7772571e-06  1.3405739e+08
   2686000   1.6607641e-10  133711.7       130203.67      1307400.7      3.2956518e-06  5.1823539e-07  2.7774164e-06  1.340607e+08 
   2687000   1.6613824e-10  133714.02      130209.72      1306155.4      3.2956488e-06  5.1818429e-07  2.7774645e-06  1.3406141e+08
   2688000   1.6620007e-10  133714.64      130213.48      1305106.6      3.2956347e-06  5.1815722e-07  2.7774775e-06  1.3406003e+08
   2689000   1.662619e-10   133722.14      130229.51      1302259.1      3.2956498e-06  5.1801656e-07  2.7776332e-06  1.3406341e+08
   2690000   1.6632373e-10  133724.31      130236.72      1300579.3      3.2956434e-06  5.1796501e-07  2.7776784e-06  1.3406295e+08
   2691000   1.6638556e-10  133727.13      130248.65      1297532.1      3.2956434e-06  5.1790658e-07  2.7777368e-06  1.3406388e+08
   2692000   1.6644739e-10  133718.01      130247.37      1294900.7      3.2956334e-06  5.1808601e-07  2.7775474e-06  1.3405998e+08
   2693000   1.6650922e-10  133721.35      130254.36      1293687.6      3.2956413e-06  5.1802436e-07  2.7776169e-06  1.3406161e+08
   2694000   1.6657105e-10  133711.9       130249.57      1292116.2      3.2956367e-06  5.1821612e-07  2.7774206e-06  1.3405717e+08
   2695000   1.6663288e-10  133724.35      130264.94      1291154.2      3.2956362e-06  5.1795704e-07  2.7776791e-06  1.3406136e+08
   2696000   1.6669472e-10  133724.27      130270.37      1289310.6      3.2956591e-06  5.179816e-07   2.7776775e-06  1.3406267e+08
   2697000   1.6675655e-10  133730.08      130279.57      1288182.6      3.2956506e-06  5.1785251e-07  2.7777981e-06  1.3406407e+08
   2698000   1.6681838e-10  133717.86      130272.23      1286535.2      3.2956314e-06  5.1808713e-07  2.7775443e-06  1.3405808e+08
   2699000   1.6688021e-10  133722.66      130283.3       1284447.5      3.2956234e-06  5.1797926e-07  2.7776441e-06  1.3405997e+08
   2700000   1.6694204e-10  133717.12      130283.46      1282532.9      3.2956367e-06  5.1810772e-07  2.777529e-06   1.3405936e+08
   2701000   1.6700387e-10  133721.11      130289.53      1281841.5      3.2956564e-06  5.1804454e-07  2.7776118e-06  1.3406239e+08
   2702000   1.670657e-10   133729.67      130299.48      1281383.9      3.2956542e-06  5.1786464e-07  2.7777896e-06  1.3406551e+08
   2703000   1.6712753e-10  133728.62      130306.27      1278765.1      3.295647e-06   5.1787912e-07  2.7777679e-06  1.3406554e+08
   2704000   1.6718936e-10  133710.43      130292.73      1277192.9      3.2956398e-06  5.1824968e-07  2.7773901e-06  1.3405933e+08
   2705000   1.6725119e-10  133712.87      130299.54      1275731.2      3.2956363e-06  5.1819552e-07  2.7774408e-06  1.3406095e+08
   2706000   1.6731302e-10  133722.86      130315.97      1273587        3.2956449e-06  5.1799671e-07  2.7776482e-06  1.3406547e+08
   2707000   1.6737485e-10  133701.63      130303.67      1270578.2      3.295634e-06   5.1842681e-07  2.7772072e-06  1.340554e+08 
   2708000   1.6743668e-10  133711.41      130319.28      1268637.6      3.2956342e-06  5.182238e-07   2.7774104e-06  1.3405836e+08
   2709000   1.6749851e-10  133715.5       130325.68      1267872.9      3.295626e-06   5.1813056e-07  2.7774954e-06  1.3405883e+08
   2710000   1.6756034e-10  133703.91      130322.62      1265009.1      3.2956291e-06  5.1837444e-07  2.7772547e-06  1.3405442e+08
   2711000   1.6762217e-10  133718.69      130341.04      1263802.9      3.2956135e-06  5.18052e-07    2.7775615e-06  1.3405939e+08
   2712000   1.67684e-10    133721.62      130343.32      1264023.9      3.2956135e-06  5.1799099e-07  2.7776226e-06  1.3406114e+08
   2713000   1.6774583e-10  133699.4       130321.68      1263805        3.2956226e-06  5.1846177e-07  2.7771608e-06  1.3405303e+08
   2714000   1.6780766e-10  133705.64      130335.77      1261185.7      3.2956231e-06  5.1833269e-07  2.7772904e-06  1.3405441e+08
   2715000   1.6786949e-10  133726.29      130363.31      1258903.9      3.2956365e-06  5.1791712e-07  2.7777194e-06  1.3406184e+08
   2716000   1.6793132e-10  133737.93      130377.78      1257970.6      3.2956333e-06  5.176721e-07   2.7779612e-06  1.340654e+08 
   2717000   1.6799315e-10  133728.52      130376.07      1255386.7      3.2956323e-06  5.1786653e-07  2.7777658e-06  1.3406302e+08
   2718000   1.6805498e-10  133720.15      130372.88      1253644.8      3.2956406e-06  5.1804859e-07  2.777592e-06   1.3406192e+08
   2719000   1.6811681e-10  133715.64      130370.06      1253074.7      3.2956323e-06  5.1813408e-07  2.7774982e-06  1.3406032e+08
   2720000   1.6817864e-10  133724.52      130381.36      1252274.1      3.2956268e-06  5.1794417e-07  2.7776826e-06  1.3406283e+08
   2721000   1.6824047e-10  133727.71      130391.74      1249874.6      3.2956289e-06  5.1787987e-07  2.777749e-06   1.3406274e+08
   2722000   1.6830231e-10  133749.18      130417.58      1248432.9      3.295632e-06   5.1743712e-07  2.7781949e-06  1.3406972e+08
   2723000   1.6836414e-10  133734.34      130409.31      1246220.5      3.2956168e-06  5.1773017e-07  2.7778866e-06  1.3406204e+08
   2724000   1.6842597e-10  133737.39      130416.1       1244972.5      3.2956073e-06  5.1765729e-07  2.77795e-06    1.3406273e+08
   2725000   1.684878e-10   133729.71      130411.58      1243908.6      3.2956101e-06  5.1781965e-07  2.7777905e-06  1.3406002e+08
   2726000   1.6854963e-10  133732.98      130420.61      1241983.7      3.2956204e-06  5.1776199e-07  2.7778584e-06  1.3406245e+08
   2727000   1.6861146e-10  133716.13      130409.14      1240171.4      3.29563e-06    5.181215e-07   2.7775085e-06  1.3405708e+08
   2728000   1.6867329e-10  133715.35      130412.04      1238938.1      3.2956279e-06  5.1813559e-07  2.7774923e-06  1.3405685e+08
   2729000   1.6873512e-10  133735.2       130437.46      1237093.7      3.2956423e-06  5.1773782e-07  2.7779045e-06  1.3406601e+08
   2730000   1.6879695e-10  133737.74      130443.47      1235934.5      3.2956282e-06  5.1767096e-07  2.7779572e-06  1.3406723e+08
   2731000   1.6885878e-10  133732.12      130443.07      1234187.1      3.2956454e-06  5.1780479e-07  2.7778407e-06  1.3406792e+08
   2732000   1.6892061e-10  133719.74      130436.82      1232120.8      3.295657e-06   5.1807363e-07  2.7775834e-06  1.3406437e+08
   2733000   1.6898244e-10  133715.16      130441.6       1228987.9      3.2956511e-06  5.181628e-07   2.7774883e-06  1.3406274e+08
   2734000   1.6904427e-10  133711.86      130444.19      1227012        3.2956537e-06  5.1823411e-07  2.7774196e-06  1.3406224e+08
   2735000   1.691061e-10   133725.26      130461.31      1225784.4      3.2956527e-06  5.1795459e-07  2.7776981e-06  1.3406651e+08
   2736000   1.6916793e-10  133717.11      130457.91      1224187.4      3.2956544e-06  5.1812557e-07  2.7775289e-06  1.3406195e+08
   2737000   1.6922976e-10  133719.04      130463.68      1222904        3.2956511e-06  5.1808219e-07  2.7775689e-06  1.3406199e+08
   2738000   1.6929159e-10  133714.01      130464.36      1220990.4      3.2956516e-06  5.1818717e-07  2.7774644e-06  1.3405994e+08
   2739000   1.6935342e-10  133728.58      130484.49      1219145.4      3.2956429e-06  5.178758e-07   2.7777671e-06  1.3406424e+08
   2740000   1.6941525e-10  133735.17      130494.29      1218075.9      3.2956367e-06  5.1773292e-07  2.7779038e-06  1.3406548e+08
   2741000   1.6947708e-10  133722.07      130493.54      1213935.4      3.2956207e-06  5.1798895e-07  2.7776318e-06  1.3405924e+08
   2742000   1.6953891e-10  133736.11      130511.79      1212540.5      3.2956343e-06  5.1771091e-07  2.7779234e-06  1.3406539e+08
   2743000   1.6960074e-10  133734.5       130514.99      1210930.2      3.2956369e-06  5.17747e-07    2.7778899e-06  1.34066e+08  
   2744000   1.6966257e-10  133725.98      130511.08      1209380.9      3.2956483e-06  5.179352e-07   2.7777131e-06  1.3406505e+08
   2745000   1.697244e-10   133716.36      130505.84      1207904.8      3.2956669e-06  5.1815381e-07  2.7775131e-06  1.3406379e+08
   2746000   1.6978623e-10  133707.82      130494.49      1208835.6      3.295655e-06   5.1831915e-07  2.7773358e-06  1.3405959e+08
   2747000   1.6984806e-10  133717.13      130507.29      1207676        3.2956562e-06  5.1812712e-07  2.7775291e-06  1.3406244e+08
   2748000   1.699099e-10   133734.71      130531.33      1205536.3      3.2956514e-06  5.1775694e-07  2.7778944e-06  1.3406757e+08
   2749000   1.6997173e-10  133737.75      130535.89      1205030.2      3.2956515e-06  5.1769394e-07  2.7779575e-06  1.3406841e+08
   2750000   1.7003356e-10  133726.69      130528.94      1203644.2      3.2956645e-06  5.1793681e-07  2.7777277e-06  1.3406599e+08
   2751000   1.7009539e-10  133716.93      130522.42      1202552.2      3.2956651e-06  5.1813998e-07  2.7775251e-06  1.34063e+08  
   2752000   1.7015722e-10  133732.72      130540.19      1201906.5      3.2956644e-06  5.178113e-07   2.7778531e-06  1.3406928e+08
   2753000   1.7021905e-10  133720.76      130528.6       1201770.8      3.2956595e-06  5.1805486e-07  2.7776047e-06  1.3406452e+08
   2754000   1.7028088e-10  133713.15      130521.52      1201584.2      3.2956614e-06  5.1821491e-07  2.7774465e-06  1.3406259e+08
   2755000   1.7034271e-10  133709.35      130520.62      1200611.1      3.2956531e-06  5.1828547e-07  2.7773676e-06  1.340605e+08 
   2756000   1.7040454e-10  133716.69      130527.82      1200667.6      3.2956522e-06  5.1813212e-07  2.7775201e-06  1.3406213e+08
   2757000   1.7046637e-10  133726.46      130540.17      1199814.4      3.2956591e-06  5.1793602e-07  2.7777231e-06  1.3406621e+08
   2758000   1.705282e-10   133729.64      130549.06      1197904.8      3.2956698e-06  5.1788068e-07  2.7777891e-06  1.340679e+08 
   2759000   1.7059003e-10  133717.63      130544.13      1195524.3      3.2956803e-06  5.1814081e-07  2.7775395e-06  1.3406375e+08
   2760000   1.7065186e-10  133719.35      130546.45      1195326.8      3.2956607e-06  5.1808529e-07  2.7775754e-06  1.3406353e+08
   2761000   1.7071369e-10  133720.64      130550.18      1194514.5      3.2956492e-06  5.1804701e-07  2.7776022e-06  1.3406441e+08
   2762000   1.7077552e-10  133695.33      130527.69      1193544.4      3.2956405e-06  5.1856413e-07  2.7770764e-06  1.3405489e+08
   2763000   1.7083735e-10  133708.77      130545.5       1192097.4      3.2956444e-06  5.1828876e-07  2.7773556e-06  1.3406055e+08
   2764000   1.7089918e-10  133715.56      130557.03      1190515        3.2956488e-06  5.1815229e-07  2.7774965e-06  1.3406275e+08
   2765000   1.7096101e-10  133702.51      130547.83      1189217.4      3.2956387e-06  5.1841308e-07  2.7772256e-06  1.3405638e+08
   2766000   1.7102284e-10  133705.97      130551.03      1189308.6      3.2956378e-06  5.1834041e-07  2.7772974e-06  1.340569e+08 
   2767000   1.7108467e-10  133714.96      130565.41      1187514.9      3.2956266e-06  5.1814242e-07  2.7774842e-06  1.340578e+08 
   2768000   1.711465e-10   133738.63      130592.83      1186283.2      3.2956292e-06  5.1765335e-07  2.7779759e-06  1.3406586e+08
   2769000   1.7120833e-10  133739.14      130601.2       1183653.9      3.2956281e-06  5.176417e-07   2.7779864e-06  1.3406518e+08
   2770000   1.7127016e-10  133739.24      130604.39      1182623.3      3.2956357e-06  5.1764719e-07  2.7779885e-06  1.3406562e+08
   2771000   1.7133199e-10  133728.04      130594.6       1182139.8      3.2956319e-06  5.1787595e-07  2.7777559e-06  1.3406167e+08
   2772000   1.7139382e-10  133717.87      130587.29      1181172.1      3.2956499e-06  5.1810528e-07  2.7775447e-06  1.3405961e+08
   2773000   1.7145565e-10  133714.74      130587.37      1180094.2      3.2956533e-06  5.1817382e-07  2.7774795e-06  1.3405886e+08
   2774000   1.7151749e-10  133723.03      130601.25      1178234.8      3.295647e-06   5.1799528e-07  2.7776518e-06  1.3406185e+08
   2775000   1.7157932e-10  133725.49      130608.09      1176771.7      3.2956453e-06  5.1794241e-07  2.7777029e-06  1.3406321e+08
   2776000   1.7164115e-10  133723.31      130608.07      1176045.8      3.295655e-06   5.1799742e-07  2.7776576e-06  1.3406459e+08
   2777000   1.7170298e-10  133711.69      130603.39      1173714.5      3.2956633e-06  5.1824714e-07  2.7774162e-06  1.3406222e+08
   2778000   1.7176481e-10  133704.7       130603.12      1171460.3      3.2956665e-06  5.1839554e-07  2.777271e-06   1.3406061e+08
   2779000   1.7182664e-10  133713.86      130619.97      1168893.5      3.295658e-06   5.1819683e-07  2.7774612e-06  1.3406242e+08
   2780000   1.7188847e-10  133732.71      130642.76      1167597.7      3.2956586e-06  5.1780589e-07  2.7778527e-06  1.3406892e+08
   2781000   1.719503e-10   133723.17      130640.17      1165263.9      3.2956581e-06  5.180034e-07   2.7776548e-06  1.3406619e+08
   2782000   1.7201213e-10  133715.62      130633.76      1164876.2      3.2956638e-06  5.1816597e-07  2.7774979e-06  1.3406404e+08
   2783000   1.7207396e-10  133717.39      130638.37      1163926.6      3.2956545e-06  5.1811996e-07  2.7775345e-06  1.3406339e+08
   2784000   1.7213579e-10  133727.72      130649.8       1163568.9      3.2956542e-06  5.1790504e-07  2.7777492e-06  1.340665e+08 
   2785000   1.7219762e-10  133720.15      130644.87      1162679.8      3.2956557e-06  5.1806373e-07  2.7775919e-06  1.3406302e+08
   2786000   1.7225945e-10  133722.43      130651.89      1161098.2      3.2956477e-06  5.1800837e-07  2.7776393e-06  1.3406307e+08
   2787000   1.7232128e-10  133722.05      130653.5       1160430        3.2956571e-06  5.1802575e-07  2.7776314e-06  1.3406319e+08
   2788000   1.7238311e-10  133720.66      130656.56      1158939.1      3.2956632e-06  5.1806064e-07  2.7776025e-06  1.3406303e+08
   2789000   1.7244494e-10  133725.14      130664.41      1157817.1      3.2956687e-06  5.1797306e-07  2.7776956e-06  1.3406591e+08
   2790000   1.7250677e-10  133720.89      130668.57      1155000.9      3.2956677e-06  5.1806047e-07  2.7776073e-06  1.340646e+08 
   2791000   1.725686e-10   133728.89      130683.49      1152692.2      3.2956675e-06  5.178941e-07   2.7777734e-06  1.3406751e+08
   2792000   1.7263043e-10  133730.28      130690.31      1150880.7      3.2956547e-06  5.1785243e-07  2.7778023e-06  1.3406637e+08
   2793000   1.7269226e-10  133722.91      130684.87      1150226.2      3.2956602e-06  5.1801095e-07  2.7776492e-06  1.3406295e+08
   2794000   1.7275409e-10  133722.35      130687.08      1149299.4      3.2956396e-06  5.1800204e-07  2.7776376e-06  1.3406104e+08
   2795000   1.7281592e-10  133734.18      130701.18      1148554.6      3.2956341e-06  5.177507e-07   2.7778834e-06  1.3406449e+08
   2796000   1.7287775e-10  133740.96      130713.07      1146852.2      3.2956518e-06  5.176276e-07   2.7780242e-06  1.3406803e+08
   2797000   1.7293958e-10  133737.38      130714.23      1145258.8      3.2956511e-06  5.1770138e-07  2.7779497e-06  1.3406712e+08
   2798000   1.7300141e-10  133726.44      130707.79      1143745.9      3.2956518e-06  5.1792933e-07  2.7777225e-06  1.3406359e+08
   2799000   1.7306324e-10  133741.71      130722.12      1144075.8      3.2956506e-06  5.1761078e-07  2.7780398e-06  1.340697e+08 
   2800000   1.7312508e-10  133733.62      130716.88      1143116.8      3.2956518e-06  5.1777998e-07  2.7778718e-06  1.340669e+08 
   2801000   1.7318691e-10  133731.94      130716.51      1142672.5      3.2956453e-06  5.1780857e-07  2.7778368e-06  1.3406538e+08
   2802000   1.7324874e-10  133723.76      130712.65      1141221.6      3.2956443e-06  5.1797751e-07  2.7776668e-06  1.3406127e+08
   2803000   1.7331057e-10  133734.42      130722.48      1141510        3.2956345e-06  5.1774605e-07  2.7778884e-06  1.3406409e+08
   2804000   1.733724e-10   133728.51      130722.29      1139590.7      3.2956425e-06  5.1787684e-07  2.7777656e-06  1.3406237e+08
   2805000   1.7343423e-10  133738.4       130743.19      1135918.2      3.2956399e-06  5.1766896e-07  2.777971e-06   1.3406649e+08
   2806000   1.7349606e-10  133720.8       130734.55      1132904        3.2956353e-06  5.1802976e-07  2.7776055e-06  1.3405967e+08
   2807000   1.7355789e-10  133722.76      130740.56      1131551.2      3.2956219e-06  5.1797574e-07  2.7776461e-06  1.3406012e+08
   2808000   1.7361972e-10  133731.2       130751.4       1130755.2      3.295618e-06   5.1779662e-07  2.7778214e-06  1.3406347e+08
   2809000   1.7368155e-10  133724.94      130742.08      1131771.2      3.2956366e-06  5.1794528e-07  2.7776913e-06  1.34063e+08  
   2810000   1.7374338e-10  133711.85      130726.7       1132525.8      3.2956468e-06  5.182274e-07   2.7774194e-06  1.3405869e+08
   2811000   1.7380521e-10  133733.75      130750.12      1132041.5      3.2956355e-06  5.177611e-07   2.7778744e-06  1.3406586e+08
   2812000   1.7386704e-10  133726.74      130748.19      1130333.6      3.2956326e-06  5.1790379e-07  2.7777288e-06  1.3406261e+08
   2813000   1.7392887e-10  133724.1       130744.9       1130551        3.2956203e-06  5.1794635e-07  2.777674e-06   1.3406038e+08
   2814000   1.739907e-10   133725.21      130747.49      1130055.8      3.2956234e-06  5.1792635e-07  2.7776971e-06  1.3406068e+08
   2815000   1.7405253e-10  133728.42      130748.01      1130959        3.2956234e-06  5.1785966e-07  2.7777637e-06  1.3406132e+08
   2816000   1.7411436e-10  133737.1       130760.29      1129762.4      3.2956269e-06  5.1768295e-07  2.777944e-06   1.3406458e+08
   2817000   1.7417619e-10  133736.27      130763.47      1128420.5      3.2956208e-06  5.1769409e-07  2.7779268e-06  1.3406349e+08
   2818000   1.7423802e-10  133729.3       130758.36      1127793.7      3.2956181e-06  5.1783602e-07  2.777782e-06   1.3406091e+08
   2819000   1.7429985e-10  133722.21      130755.24      1126457.3      3.2956104e-06  5.1797575e-07  2.7776346e-06  1.3405878e+08
   2820000   1.7436168e-10  133714         130746.79      1126526.1      3.2956128e-06  5.1814869e-07  2.7774641e-06  1.3405591e+08
   2821000   1.7442351e-10  133711.15      130747.61      1125297.4      3.2956206e-06  5.1821572e-07  2.7774049e-06  1.3405501e+08
   2822000   1.7448534e-10  133730.52      130769.56      1124454.5      3.2956269e-06  5.1781962e-07  2.7778073e-06  1.3406241e+08
   2823000   1.7454717e-10  133728.17      130771.59      1122989.6      3.2956302e-06  5.1787169e-07  2.7777586e-06  1.3406253e+08
   2824000   1.74609e-10    133713.4       130762.04      1121227.2      3.2956478e-06  5.1819615e-07  2.7774517e-06  1.3406012e+08
   2825000   1.7467083e-10  133707.46      130758.27      1120495.2      3.2956532e-06  5.1832495e-07  2.7773283e-06  1.3405992e+08
   2826000   1.7473267e-10  133717.39      130773.48      1118738.3      3.2956528e-06  5.1811829e-07  2.7775345e-06  1.3406428e+08
   2827000   1.747945e-10   133723.49      130784.85      1116985        3.2956547e-06  5.1799342e-07  2.7776613e-06  1.3406697e+08
   2828000   1.7485633e-10  133717.21      130782.52      1115655.5      3.295651e-06   5.1812024e-07  2.7775308e-06  1.3406466e+08
   2829000   1.7491816e-10  133724.95      130791.67      1115190.1      3.2956647e-06  5.1797317e-07  2.7776915e-06  1.3406887e+08
   2830000   1.7497999e-10  133719.56      130788.35      1114497.1      3.2956741e-06  5.1809438e-07  2.7775798e-06  1.3406793e+08
   2831000   1.7504182e-10  133713.56      130785.15      1113553.3      3.2956626e-06  5.1820757e-07  2.777455e-06   1.3406472e+08
   2832000   1.7510365e-10  133706.98      130778.66      1113513.8      3.2956723e-06  5.1835396e-07  2.7773183e-06  1.3406261e+08
   2833000   1.7516548e-10  133705.36      130779.6       1112659.3      3.2956695e-06  5.1838476e-07  2.7772848e-06  1.3406079e+08
   2834000   1.7522731e-10  133725.85      130806.02      1110692.3      3.2956566e-06  5.1794639e-07  2.7777102e-06  1.340661e+08 
   2835000   1.7528914e-10  133720.26      130805.57      1108973        3.2956574e-06  5.1806312e-07  2.7775943e-06  1.3406325e+08
   2836000   1.7535097e-10  133718.77      130808.9       1107355.6      3.2956498e-06  5.180866e-07   2.7775632e-06  1.340617e+08 
   2837000   1.754128e-10   133714.17      130808.37      1105990.8      3.2956576e-06  5.1818986e-07  2.7774677e-06  1.3406063e+08
   2838000   1.7547463e-10  133706.43      130802.44      1105377.3      3.2956542e-06  5.1834723e-07  2.777307e-06   1.3405791e+08
   2839000   1.7553646e-10  133726.24      130823.94      1104831.7      3.2956444e-06  5.1792604e-07  2.7777184e-06  1.3406534e+08
   2840000   1.7559829e-10  133718.59      130821.08      1103223.7      3.2956332e-06  5.1807367e-07  2.7775595e-06  1.3406083e+08
   2841000   1.7566012e-10  133719.9       130829.24      1100930.7      3.2956188e-06  5.1803215e-07  2.7775867e-06  1.3405931e+08
   2842000   1.7572195e-10  133730.25      130843.09      1099775.3      3.2956252e-06  5.1782349e-07  2.7778018e-06  1.3406287e+08
   2843000   1.7578378e-10  133734.26      130850.43      1098662.4      3.295637e-06   5.1775202e-07  2.7778849e-06  1.3406407e+08
   2844000   1.7584561e-10  133738.74      130861.65      1096412.7      3.2956305e-06  5.1765238e-07  2.7779781e-06  1.3406454e+08
   2845000   1.7590744e-10  133750.86      130880.64      1094128.5      3.2956408e-06  5.1741092e-07  2.7782299e-06  1.3407006e+08
   2846000   1.7596927e-10  133730.7       130865.86      1092311.7      3.2956368e-06  5.1782564e-07  2.7778112e-06  1.3406266e+08
   2847000   1.760311e-10   133735.89      130875.67      1090770.4      3.295643e-06   5.17724e-07    2.777919e-06   1.3406585e+08
   2848000   1.7609293e-10  133730.96      130876.16      1088948.8      3.2956539e-06  5.1783751e-07  2.7778164e-06  1.34065e+08  
   2849000   1.7615476e-10  133725.44      130871.98      1088498.8      3.2956726e-06  5.1797079e-07  2.7777018e-06  1.3406495e+08
   2850000   1.7621659e-10  133724.53      130871.58      1088325.4      3.2956524e-06  5.1796948e-07  2.7776829e-06  1.3406363e+08
   2851000   1.7627842e-10  133730.16      130883.53      1086219.1      3.2956546e-06  5.1785463e-07  2.7777999e-06  1.3406593e+08
   2852000   1.7634026e-10  133734.08      130895.32      1083590.5      3.2956518e-06  5.1777057e-07  2.7778812e-06  1.3406689e+08
   2853000   1.7640209e-10  133726.9       130891.88      1082333.8      3.2956544e-06  5.1792218e-07  2.7777322e-06  1.3406437e+08
   2854000   1.7646392e-10  133719.81      130887.26      1081501.6      3.2956336e-06  5.1804866e-07  2.7775849e-06  1.3405969e+08
   2855000   1.7652575e-10  133739.6       130912.28      1079772        3.2956285e-06  5.1763251e-07  2.777996e-06   1.3406709e+08
   2856000   1.7658758e-10  133735.86      130911.02      1078937.7      3.2956373e-06  5.1771895e-07  2.7779183e-06  1.3406665e+08
   2857000   1.7664941e-10  133715.73      130895.25      1077458.7      3.2956355e-06  5.1813537e-07  2.7775001e-06  1.3405927e+08
   2858000   1.7671124e-10  133708.97      130892.03      1076267.2      3.2956309e-06  5.1827126e-07  2.7773597e-06  1.340567e+08 
   2859000   1.7677307e-10  133719.71      130903.23      1076122.8      3.2956365e-06  5.1805378e-07  2.7775827e-06  1.3406009e+08
   2860000   1.768349e-10   133740.38      130921         1077114.4      3.2956411e-06  5.1762888e-07  2.7780122e-06  1.3406584e+08
   2861000   1.7689673e-10  133751.79      130936.8       1075656        3.295628e-06   5.1737893e-07  2.7782491e-06  1.3406705e+08
   2862000   1.7695856e-10  133731.14      130922.57      1073489.4      3.2956212e-06  5.1780094e-07  2.7778202e-06  1.3405788e+08
   2863000   1.7702039e-10  133740.7       130940.02      1070859        3.2956203e-06  5.1760155e-07  2.7780188e-06  1.3406189e+08
   2864000   1.7708222e-10  133732.76      130937.22      1069135.4      3.2956046e-06  5.1775072e-07  2.7778539e-06  1.3405899e+08
   2865000   1.7714405e-10  133726         130934.34      1067831.9      3.2956102e-06  5.1789674e-07  2.7777135e-06  1.3405769e+08
   2866000   1.7720588e-10  133733.27      130941.31      1067937.4      3.2956166e-06  5.1775227e-07  2.7778644e-06  1.3406086e+08
   2867000   1.7726771e-10  133752.75      130964.76      1066629.2      3.2956266e-06  5.1735744e-07  2.7782691e-06  1.3406899e+08
   2868000   1.7732954e-10  133734.5       130948.28      1066019.2      3.2956174e-06  5.1772747e-07  2.77789e-06    1.3406137e+08
   2869000   1.7739137e-10  133736.57      130954.38      1064673.2      3.2956444e-06  5.1771138e-07  2.777933e-06   1.3406532e+08
   2870000   1.774532e-10   133711.78      130936.8       1062237.9      3.2956488e-06  5.1823072e-07  2.7774181e-06  1.3405704e+08
   2871000   1.7751503e-10  133726.03      130952.29      1061836.4      3.2956518e-06  5.1793772e-07  2.7777141e-06  1.3406389e+08
   2872000   1.7757686e-10  133719.19      130947.5       1061145.1      3.2956506e-06  5.180786e-07   2.777572e-06   1.3406262e+08
   2873000   1.7763869e-10  133711.39      130941.73      1060459.1      3.2956519e-06  5.1824188e-07  2.77741e-06    1.3406166e+08
   2874000   1.7770052e-10  133716.13      130949.49      1059451.4      3.2956432e-06  5.1813474e-07  2.7775084e-06  1.3406444e+08
   2875000   1.7776235e-10  133702.7       130941.26      1057700.2      3.2956589e-06  5.1842947e-07  2.7772295e-06  1.3406154e+08
   2876000   1.7782418e-10  133693.87      130938.22      1055754.7      3.2956592e-06  5.1861317e-07  2.7770461e-06  1.3405896e+08
   2877000   1.7788601e-10  133711.41      130958.95      1054704.1      3.2956751e-06  5.1826473e-07  2.7774103e-06  1.3406609e+08
   2878000   1.7794785e-10  133714.43      130964.7       1053796.4      3.2956805e-06  5.182073e-07   2.7774732e-06  1.340659e+08 
   2879000   1.7800968e-10  133722.67      130978.52      1051938.4      3.2956776e-06  5.1803336e-07  2.7776443e-06  1.3406685e+08
   2880000   1.7807151e-10  133717.2       130978.47      1050120.9      3.2956857e-06  5.1815504e-07  2.7775307e-06  1.3406442e+08
   2881000   1.7813334e-10  133723.72      130988.88      1048823.9      3.2956695e-06  5.1800343e-07  2.7776661e-06  1.3406527e+08
   2882000   1.7819517e-10  133728.69      130993.35      1048995.2      3.2956554e-06  5.1788609e-07  2.7777693e-06  1.3406624e+08
   2883000   1.78257e-10    133726.35      130992.47      1048506.2      3.2956536e-06  5.1793287e-07  2.7777207e-06  1.3406574e+08
   2884000   1.7831883e-10  133710.96      130975.39      1049055.5      3.2956472e-06  5.1824623e-07  2.777401e-06   1.3405997e+08
   2885000   1.7838066e-10  133706.42      130976.36      1047208.4      3.2956484e-06  5.183416e-07   2.7773068e-06  1.3405838e+08
   2886000   1.7844249e-10  133719.3       130993.54      1045782        3.2956383e-06  5.180641e-07   2.7775742e-06  1.3406176e+08
   2887000   1.7850432e-10  133721.35      130999.68      1044415.8      3.2956351e-06  5.1801831e-07  2.7776168e-06  1.3406147e+08
   2888000   1.7856615e-10  133721.39      131002.49      1043488.4      3.2956457e-06  5.180281e-07   2.7776176e-06  1.3406115e+08
   2889000   1.7862798e-10  133720.51      131006.13      1041976.5      3.2956384e-06  5.1803902e-07  2.7775994e-06  1.3405909e+08
   2890000   1.7868981e-10  133729.08      131018.16      1040827.6      3.2956351e-06  5.1785768e-07  2.7777774e-06  1.3406237e+08
   2891000   1.7875164e-10  133718.18      131011.97      1039245.1      3.2956297e-06  5.1807864e-07  2.7775511e-06  1.3405905e+08
   2892000   1.7881347e-10  133715.78      131015.31      1037318.9      3.2956402e-06  5.1813911e-07  2.7775011e-06  1.3406006e+08
   2893000   1.788753e-10   133721.35      131021.53      1037108.9      3.2956407e-06  5.1802378e-07  2.7776169e-06  1.3406291e+08
   2894000   1.7893713e-10  133715.29      131021.87      1034963.6      3.2956436e-06  5.1815257e-07  2.777491e-06   1.3406044e+08
   2895000   1.7899896e-10  133721.73      131032.39      1033603.4      3.295639e-06   5.1801432e-07  2.7776247e-06  1.3406161e+08
   2896000   1.7906079e-10  133721.72      131036.48      1032233.2      3.2956288e-06  5.1800436e-07  2.7776245e-06  1.3405961e+08
   2897000   1.7912262e-10  133728.27      131043.84      1031967.6      3.2956335e-06  5.1787293e-07  2.7777606e-06  1.3406228e+08
   2898000   1.7918445e-10  133736.89      131053.37      1031673.2      3.2956444e-06  5.1770466e-07  2.7779397e-06  1.340666e+08 
   2899000   1.7924628e-10  133731.18      131050.21      1030816.7      3.2956474e-06  5.1782633e-07  2.7778211e-06  1.3406481e+08
   2900000   1.7930811e-10  133721.14      131044.05      1029508.6      3.2956498e-06  5.1803724e-07  2.7776125e-06  1.3406182e+08
   2901000   1.7936994e-10  133715.59      131042.75      1028081.6      3.2956378e-06  5.1814065e-07  2.7774972e-06  1.3406031e+08
   2902000   1.7943177e-10  133711.46      131043.49      1026447.6      3.2956287e-06  5.1821727e-07  2.7774115e-06  1.3405891e+08
   2903000   1.794936e-10   133713.43      131047.22      1025859.6      3.2956376e-06  5.1818533e-07  2.7774523e-06  1.3406037e+08
   2904000   1.7955544e-10  133706.67      131037.8       1026741        3.295635e-06   5.1832313e-07  2.7773119e-06  1.3405775e+08
   2905000   1.7961727e-10  133703.05      131035.67      1026239        3.2956564e-06  5.1841981e-07  2.7772366e-06  1.3405886e+08
   2906000   1.796791e-10   133694.73      131027.96      1026029.1      3.2956617e-06  5.1859784e-07  2.7770638e-06  1.3405673e+08
   2907000   1.7974093e-10  133699.58      131036.52      1024792.2      3.2956516e-06  5.1848703e-07  2.7771646e-06  1.3405758e+08
   2908000   1.7980276e-10  133711.91      131053.45      1023268.1      3.2956624e-06  5.1824157e-07  2.7774209e-06  1.3406224e+08
   2909000   1.7986459e-10  133733.35      131077.36      1022462.7      3.295651e-06   5.1778483e-07  2.7778662e-06  1.3406868e+08
   2910000   1.7992642e-10  133723.68      131070.72      1021439.3      3.2956494e-06  5.1798426e-07  2.7776652e-06  1.3406487e+08
   2911000   1.7998825e-10  133725.12      131076.53      1019980.5      3.2956521e-06  5.1795686e-07  2.7776952e-06  1.3406599e+08
   2912000   1.8005008e-10  133718.45      131073.42      1018780.1      3.2956639e-06  5.1810728e-07  2.7775566e-06  1.3406452e+08
   2913000   1.8011191e-10  133722.37      131082.51      1017056.6      3.2956585e-06  5.1802044e-07  2.7776381e-06  1.3406513e+08
   2914000   1.8017374e-10  133709.28      131066.8       1017919.9      3.2956743e-06  5.1830815e-07  2.7773661e-06  1.3406116e+08
   2915000   1.8023557e-10  133720.62      131078.51      1017808.8      3.295669e-06   5.1806729e-07  2.7776017e-06  1.3406576e+08
   2916000   1.802974e-10   133723.61      131084.82      1016698.8      3.295661e-06   5.1799722e-07  2.7776638e-06  1.34067e+08  
   2917000   1.8035923e-10  133709.75      131075.29      1015237.3      3.2956577e-06  5.1828177e-07  2.7773759e-06  1.3406111e+08
   2918000   1.8042106e-10  133724.36      131090.32      1015113.4      3.2956456e-06  5.179662e-07   2.7776794e-06  1.3406438e+08
   2919000   1.8048289e-10  133726.12      131096.9       1013501.8      3.2956511e-06  5.1793523e-07  2.7777159e-06  1.3406437e+08
   2920000   1.8054472e-10  133732.06      131105.92      1012479.9      3.2956566e-06  5.1781725e-07  2.7778393e-06  1.3406725e+08
   2921000   1.8060655e-10  133711.51      131087.25      1011828.5      3.2956587e-06  5.1824632e-07  2.7774124e-06  1.3406024e+08
   2922000   1.8066838e-10  133701.78      131077.85      1011708        3.2956352e-06  5.1842483e-07  2.7772103e-06  1.3405451e+08
   2923000   1.8073021e-10  133715.77      131095.07      1010642.6      3.2956302e-06  5.1812934e-07  2.7775009e-06  1.3405869e+08
   2924000   1.8079204e-10  133719.29      131105.2       1008434.5      3.295632e-06   5.18058e-07    2.777574e-06   1.3405921e+08
   2925000   1.8085387e-10  133720.81      131113.29      1006240.2      3.2956209e-06  5.1801523e-07  2.7776056e-06  1.3405858e+08
   2926000   1.809157e-10   133718.57      131117.25      1004160.8      3.2956271e-06  5.1806807e-07  2.777559e-06   1.3405772e+08
   2927000   1.8097753e-10  133737.7       131140.41      1002833.8      3.2956237e-06  5.1766722e-07  2.7779565e-06  1.3406534e+08
   2928000   1.8103936e-10  133735.15      131140.81      1001846.9      3.2956192e-06  5.1771577e-07  2.7779035e-06  1.3406471e+08
   2929000   1.8110119e-10  133724.23      131130.22      1001725.4      3.2956251e-06  5.1794834e-07  2.7776767e-06  1.340611e+08 
   2930000   1.8116303e-10  133718.54      131125.1       1001528.5      3.2956282e-06  5.1806979e-07  2.7775584e-06  1.3405962e+08
   2931000   1.8122486e-10  133720.74      131130.98      1000297.1      3.2956403e-06  5.1803624e-07  2.7776041e-06  1.3406294e+08
   2932000   1.8128669e-10  133708.78      131125.57      998097.75      3.2956371e-06  5.1828121e-07  2.7773558e-06  1.3405949e+08
   2933000   1.8134852e-10  133717.51      131139.79      996269.21      3.2956309e-06  5.1809383e-07  2.7775371e-06  1.3406257e+08
   2934000   1.8141035e-10  133721.98      131149.85      994405.36      3.2956434e-06  5.1801336e-07  2.77763e-06    1.3406434e+08
   2935000   1.8147218e-10  133720.96      131148.74      994433.3       3.2956612e-06  5.1805243e-07  2.7776088e-06  1.3406366e+08
   2936000   1.8153401e-10  133722.18      131154.13      993041.72      3.29566e-06    5.1802588e-07  2.7776341e-06  1.3406349e+08
   2937000   1.8159584e-10  133736.46      131175.54      990670.53      3.2956742e-06  5.1774345e-07  2.7779307e-06  1.3406984e+08
   2938000   1.8165767e-10  133732.39      131175.84      989203.3       3.2956622e-06  5.1781608e-07  2.7778461e-06  1.3406696e+08
   2939000   1.817195e-10   133731.13      131178.56      987871.55      3.2956673e-06  5.1784742e-07  2.7778199e-06  1.3406619e+08
   2940000   1.8178133e-10  133721.56      131172.4       986723.71      3.2956523e-06  5.1803106e-07  2.7776213e-06  1.3406133e+08
   2941000   1.8184316e-10  133725.58      131179.53      985684.05      3.2956532e-06  5.1794848e-07  2.7777047e-06  1.340624e+08 
   2942000   1.8190499e-10  133755.31      131213.43      984320.35      3.2956455e-06  5.1732319e-07  2.7783223e-06  1.340726e+08 
   2943000   1.8196682e-10  133737.86      131198.25      983545.4       3.2956498e-06  5.1769004e-07  2.7779598e-06  1.3406612e+08
   2944000   1.8202865e-10  133717.61      131180.15      982805.47      3.2956487e-06  5.1810945e-07  2.7775392e-06  1.3405942e+08
   2945000   1.8209048e-10  133740.14      131204.63      982177.24      3.2956458e-06  5.1763859e-07  2.7780072e-06  1.3406833e+08
   2946000   1.8215231e-10  133738.05      131202.85      982071.21      3.2956345e-06  5.1767076e-07  2.7779638e-06  1.3406713e+08
   2947000   1.8221414e-10  133732.78      131199.47      981432.67      3.2956389e-06  5.1778467e-07  2.7778543e-06  1.3406533e+08
   2948000   1.8227597e-10  133729.82      131198.94      980617.55      3.2956321e-06  5.1783931e-07  2.7777928e-06  1.340633e+08 
   2949000   1.823378e-10   133730.8       131200.98      980265.62      3.2956589e-06  5.1784567e-07  2.7778132e-06  1.340659e+08 
   2950000   1.8239963e-10  133720.97      131192.34      979853.07      3.2956659e-06  5.1805701e-07  2.7776089e-06  1.340628e+08 
   2951000   1.8246146e-10  133711.99      131186.3       978863.8       3.2956508e-06  5.1822828e-07  2.7774225e-06  1.3405932e+08
   2952000   1.8252329e-10  133710.7       131185.66      978644.18      3.2956399e-06  5.1824429e-07  2.7773956e-06  1.3405999e+08
   2953000   1.8258512e-10  133701.48      131176.19      978720.91      3.2956554e-06  5.1845122e-07  2.7772042e-06  1.340583e+08 
   2954000   1.8264695e-10  133707.45      131186.67      977216.35      3.2956611e-06  5.1833302e-07  2.7773281e-06  1.3406108e+08
   2955000   1.8270878e-10  133711.11      131194.11      975956.87      3.2956633e-06  5.1825914e-07  2.7774041e-06  1.3406241e+08
   2956000   1.8277062e-10  133729.5       131214.23      975395.5       3.2956482e-06  5.1786198e-07  2.7777862e-06  1.3406886e+08
   2957000   1.8283245e-10  133715         131203.92      973978.1       3.2956563e-06  5.1817144e-07  2.7774849e-06  1.3406405e+08
   2958000   1.8289428e-10  133713.4       131204.89      973119.27      3.2956656e-06  5.1821384e-07  2.7774518e-06  1.3406381e+08
   2959000   1.8295611e-10  133706.83      131199.05      972865.67      3.2956689e-06  5.1835375e-07  2.7773152e-06  1.3405999e+08
   2960000   1.8301794e-10  133718.9       131210.52      973079.27      3.2956554e-06  5.1808954e-07  2.7775659e-06  1.3406212e+08
   2961000   1.8307977e-10  133721.49      131213.88      972824.39      3.2956497e-06  5.1802995e-07  2.7776198e-06  1.3406196e+08
   2962000   1.831416e-10   133724.89      131219.97      971928.32      3.2956539e-06  5.1796354e-07  2.7776903e-06  1.3406378e+08
   2963000   1.8320343e-10  133727.63      131228.85      969881.58      3.2956445e-06  5.1789715e-07  2.7777474e-06  1.3406466e+08
   2964000   1.8326526e-10  133729.79      131232.63      969339.18      3.2956516e-06  5.1785938e-07  2.7777922e-06  1.3406611e+08
   2965000   1.8332709e-10  133725.43      131228.84      969143.09      3.2956499e-06  5.179484e-07   2.7777015e-06  1.3406439e+08
   2966000   1.8338892e-10  133717.75      131220.97      969199.65      3.2956327e-06  5.1809066e-07  2.777542e-06   1.3406035e+08
   2967000   1.8345075e-10  133725.42      131232.59      967887.77      3.2956312e-06  5.1792978e-07  2.7777014e-06  1.340637e+08 
   2968000   1.8351258e-10  133712.52      131223.16      966712.39      3.2956357e-06  5.1820226e-07  2.7774335e-06  1.3405914e+08
   2969000   1.8357441e-10  133721.18      131234.35      965873.82      3.2956465e-06  5.1803327e-07  2.7776133e-06  1.3406317e+08
   2970000   1.8363624e-10  133728.48      131246.03      964417.4       3.2956371e-06  5.1787214e-07  2.777765e-06   1.34064e+08  
   2971000   1.8369807e-10  133727.01      131247.66      963381.75      3.2956385e-06  5.1790398e-07  2.7777345e-06  1.3406197e+08
   2972000   1.837599e-10   133745.97      131268.36      962816.56      3.2956346e-06  5.1750643e-07  2.7781282e-06  1.3406777e+08
   2973000   1.8382173e-10  133742.17      131263.88      963040.1       3.2956286e-06  5.1757943e-07  2.7780492e-06  1.3406461e+08
   2974000   1.8388356e-10  133751.52      131272.31      963357.63      3.2956389e-06  5.173953e-07   2.7782436e-06  1.3406832e+08
   2975000   1.8394539e-10  133736.55      131258         963123.55      3.2956451e-06  5.1771247e-07  2.7779326e-06  1.3406292e+08
   2976000   1.8400722e-10  133724.94      131250.85      961620.5       3.2956507e-06  5.1795919e-07  2.7776915e-06  1.3406028e+08
   2977000   1.8406905e-10  133731.29      131259.24      960943.12      3.2956509e-06  5.1782765e-07  2.7778233e-06  1.3406461e+08
   2978000   1.8413088e-10  133732.35      131263.45      959888.84      3.2956612e-06  5.1781594e-07  2.7778452e-06  1.34067e+08  
   2979000   1.8419271e-10  133728.11      131262.96      958633.19      3.2956651e-06  5.1790781e-07  2.7777573e-06  1.3406561e+08
   2980000   1.8425454e-10  133732.79      131269.99      957852.19      3.2956715e-06  5.1781695e-07  2.7778545e-06  1.3406785e+08
   2981000   1.8431637e-10  133725.58      131266.2       956700.62      3.2956574e-06  5.1795265e-07  2.7777048e-06  1.3406317e+08
   2982000   1.8437821e-10  133727.62      131270.18      956053.74      3.2956519e-06  5.179047e-07   2.7777472e-06  1.3406323e+08
   2983000   1.8444004e-10  133732.14      131275.86      955670.86      3.2956441e-06  5.1780307e-07  2.777841e-06   1.3406405e+08
   2984000   1.8450187e-10  133741.71      131289.76      954232.31      3.2956374e-06  5.1759768e-07  2.7780398e-06  1.3406751e+08
   2985000   1.845637e-10   133734.71      131286.1       953106.55      3.2956402e-06  5.1774575e-07  2.7778944e-06  1.3406604e+08
   2986000   1.8462553e-10  133718.34      131274.71      951425.77      3.2956364e-06  5.1808206e-07  2.7775543e-06  1.3406001e+08
   2987000   1.8468736e-10  133714.29      131273.46      950481.41      3.2956415e-06  5.1817134e-07  2.7774701e-06  1.3405869e+08
   2988000   1.8474919e-10  133716.97      131276.84      950252.47      3.2956499e-06  5.1812407e-07  2.7775258e-06  1.3406009e+08
   2989000   1.8481102e-10  133722.31      131281.28      950562.21      3.2956577e-06  5.1802082e-07  2.7776369e-06  1.3406271e+08
   2990000   1.8487285e-10  133728.9       131290.28      949758.95      3.2956548e-06  5.1788115e-07  2.7777736e-06  1.340656e+08 
   2991000   1.8493468e-10  133735.64      131300.71      948534.94      3.2956631e-06  5.1774936e-07  2.7779137e-06  1.3407002e+08
   2992000   1.8499651e-10  133718.36      131287.34      947209.31      3.2956596e-06  5.1810488e-07  2.7775548e-06  1.3406405e+08
   2993000   1.8505834e-10  133713.06      131283.58      946686.14      3.2956616e-06  5.1821702e-07  2.7774446e-06  1.3406248e+08
   2994000   1.8512017e-10  133718.03      131292.1       945504.91      3.2956652e-06  5.1811732e-07  2.7775479e-06  1.3406421e+08
   2995000   1.85182e-10    133715.08      131292.29      944450.05      3.2956648e-06  5.1817825e-07  2.7774865e-06  1.3406328e+08
   2996000   1.8524383e-10  133717.33      131298.82      943023.74      3.2956569e-06  5.1812347e-07  2.7775334e-06  1.3406418e+08
   2997000   1.8530566e-10  133713.65      131297.58      942202.16      3.2956608e-06  5.1820386e-07  2.7774569e-06  1.3406308e+08
   2998000   1.8536749e-10  133708.39      131295.39      941172.17      3.29566e-06    5.1831225e-07  2.7773477e-06  1.3406111e+08
   2999000   1.8542932e-10  133707.43      131297.8       940041.99      3.2956507e-06  5.1832292e-07  2.7773277e-06  1.3405987e+08
   3000000   1.8549115e-10  133707.2       131304.46      937739.17      3.2956479e-06  5.1832496e-07  2.7773229e-06  1.3405753e+08
   3001000   1.8555298e-10  133714.42      131321.87      934340.4       3.2956457e-06  5.181727e-07   2.777473e-06   1.340582e+08 
   3002000   1.8561481e-10  133729.6       131343.22      932287.72      3.2956283e-06  5.1784019e-07  2.7777881e-06  1.3406219e+08
   3003000   1.8567664e-10  133739.9       131359.56      930278.05      3.2956258e-06  5.1762376e-07  2.7780021e-06  1.3406562e+08
   3004000   1.8573847e-10  133731.89      131354.99      929121.33      3.2956238e-06  5.1778802e-07  2.7778358e-06  1.3406158e+08
   3005000   1.858003e-10   133725.45      131352.13      927916.22      3.2956306e-06  5.1792868e-07  2.777702e-06   1.340597e+08 
   3006000   1.8586213e-10  133726.87      131350.7       928872.81      3.2956181e-06  5.1788651e-07  2.7777316e-06  1.3406004e+08
   3007000   1.8592396e-10  133710.37      131332.27      929500.48      3.2956256e-06  5.1823693e-07  2.7773887e-06  1.3405477e+08
   3008000   1.859858e-10   133736.54      131361.68      928443.83      3.2956397e-06  5.1770727e-07  2.7779324e-06  1.3406689e+08
   3009000   1.8604763e-10  133726.71      131352.75      928132.36      3.295633e-06   5.1790486e-07  2.7777282e-06  1.3406332e+08
   3010000   1.8610946e-10  133705.74      131333.09      927675.02      3.2956264e-06  5.1833379e-07  2.7772926e-06  1.3405562e+08
   3011000   1.8617129e-10  133702.68      131329.35      927896.77      3.2956195e-06  5.183905e-07   2.777229e-06   1.3405462e+08
   3012000   1.8623312e-10  133706.04      131338.29      926035.03      3.295632e-06   5.1833324e-07  2.7772988e-06  1.3405703e+08
   3013000   1.8629495e-10  133725.3       131362.37      924443.08      3.2956551e-06  5.179562e-07   2.7776989e-06  1.3406508e+08
   3014000   1.8635678e-10  133722.25      131359.27      924454.76      3.2956345e-06  5.1799897e-07  2.7776355e-06  1.3406105e+08
   3015000   1.8641861e-10  133734.09      131372.27      924078.08      3.2956427e-06  5.1776128e-07  2.7778814e-06  1.340659e+08 
   3016000   1.8648044e-10  133734.68      131373.24      923952.04      3.2956341e-06  5.1774041e-07  2.7778937e-06  1.3406525e+08
   3017000   1.8654227e-10  133722.09      131363.61      922950.15      3.2956341e-06  5.1800198e-07  2.7776321e-06  1.3405981e+08
   3018000   1.866041e-10   133721.97      131367.9       921475.52      3.2956464e-06  5.1801669e-07  2.7776297e-06  1.340602e+08 
   3019000   1.8666593e-10  133743.42      131390.83      921002.7       3.2956434e-06  5.1756814e-07  2.7780753e-06  1.3406792e+08
   3020000   1.8672776e-10  133731.12      131381.16      920112.64      3.2956393e-06  5.1781941e-07  2.7778199e-06  1.3406369e+08
   3021000   1.8678959e-10  133708.52      131360.68      919376.95      3.2956298e-06  5.182795e-07   2.7773503e-06  1.3405502e+08
   3022000   1.8685142e-10  133713.88      131366         919399.61      3.2956301e-06  5.1816834e-07  2.7774618e-06  1.340583e+08 
   3023000   1.8691325e-10  133697.2       131350.42      919014.31      3.295631e-06   5.1851574e-07  2.7771153e-06  1.3405235e+08
   3024000   1.8697508e-10  133710.22      131362.25      919426.58      3.2956088e-06  5.1822303e-07  2.7773857e-06  1.3405644e+08
   3025000   1.8703691e-10  133721.09      131376.22      918397.38      3.2956206e-06  5.1800919e-07  2.7776114e-06  1.3406179e+08
   3026000   1.8709874e-10  133720.42      131381.93      916265.28      3.295613e-06   5.1801538e-07  2.7775976e-06  1.3406022e+08
   3027000   1.8716057e-10  133712.13      131375.01      915796.61      3.2956324e-06  5.1820705e-07  2.7774253e-06  1.340581e+08 
   3028000   1.872224e-10   133700.46      131368.62      914018.8       3.295639e-06   5.1845603e-07  2.777183e-06   1.340538e+08 
   3029000   1.8728423e-10  133722.78      131392.1       913655.23      3.2956278e-06  5.1798127e-07  2.7776465e-06  1.3406127e+08
   3030000   1.8734606e-10  133720.19      131391.08      913128.32      3.2956403e-06  5.1804748e-07  2.7775928e-06  1.3406072e+08
   3031000   1.8740789e-10  133733.83      131410.25      911291         3.2956381e-06  5.1776201e-07  2.7778761e-06  1.3406582e+08
   3032000   1.8746972e-10  133736.61      131416.77      910042.35      3.2956366e-06  5.1770276e-07  2.7779339e-06  1.3406736e+08
   3033000   1.8753155e-10  133715.48      131399.07      908875.67      3.2956394e-06  5.1814444e-07  2.777495e-06   1.3405974e+08
   3034000   1.8759339e-10  133708.47      131395.06      907862.61      3.2956404e-06  5.1829106e-07  2.7773493e-06  1.3405748e+08
   3035000   1.8765522e-10  133706.59      131395.32      907146.57      3.295643e-06   5.1833263e-07  2.7773103e-06  1.340573e+08 
   3036000   1.8771705e-10  133726.23      131416.9       906517.58      3.2956437e-06  5.1792544e-07  2.7777182e-06  1.3406516e+08
   3037000   1.8777888e-10  133722.33      131415.66      905625.08      3.2956366e-06  5.1799927e-07  2.7776373e-06  1.3406286e+08
   3038000   1.8784071e-10  133727.01      131420.83      905464.71      3.2956434e-06  5.1790902e-07  2.7777344e-06  1.3406511e+08
   3039000   1.8790254e-10  133722.76      131420.85      904032.92      3.2956458e-06  5.179996e-07   2.7776462e-06  1.3406335e+08
   3040000   1.8796437e-10  133726.42      131429.24      902455.98      3.2956488e-06  5.1792654e-07  2.7777222e-06  1.340645e+08 
   3041000   1.880262e-10   133737.71      131441.09      902276.46      3.2956453e-06  5.1768868e-07  2.7779566e-06  1.3406787e+08
   3042000   1.8808803e-10  133736.17      131443.48      900960.17      3.2956383e-06  5.1771372e-07  2.7779246e-06  1.3406682e+08
   3043000   1.8814986e-10  133724.29      131434.67      899924.99      3.2956308e-06  5.1795282e-07  2.777678e-06   1.3406249e+08
   3044000   1.8821169e-10  133722.37      131437.81      898227.22      3.2956352e-06  5.1799723e-07  2.777638e-06   1.3406231e+08
   3045000   1.8827352e-10  133712.33      131432.12      896765.68      3.2956362e-06  5.1820671e-07  2.7774295e-06  1.3405835e+08
   3046000   1.8833535e-10  133717.43      131440.38      895710.26      3.2956225e-06  5.1808714e-07  2.7775354e-06  1.3405917e+08
   3047000   1.8839718e-10  133723.29      131453.06      893437.18      3.2956391e-06  5.1798193e-07  2.7776572e-06  1.3406225e+08
   3048000   1.8845901e-10  133725.67      131460.44      891765.8       3.295628e-06   5.1792148e-07  2.7777066e-06  1.3406163e+08
   3049000   1.8852084e-10  133716.18      131455.23      890327.37      3.295625e-06   5.1811549e-07  2.7775095e-06  1.3405715e+08
   3050000   1.8858267e-10  133733.41      131475.24      889413.43      3.2956293e-06  5.1776202e-07  2.7778673e-06  1.340632e+08 
   3051000   1.886445e-10   133729.96      131470.29      889913.36      3.2956203e-06  5.1782455e-07  2.7777958e-06  1.3406109e+08
   3052000   1.8870633e-10  133719.24      131462.16      889035.22      3.29563e-06    5.1805695e-07  2.7775731e-06  1.3405899e+08
   3053000   1.8876816e-10  133732.59      131478.07      888192.95      3.2956354e-06  5.1778494e-07  2.7778504e-06  1.3406589e+08
   3054000   1.8882999e-10  133727.68      131477.16      886850.99      3.2956412e-06  5.1789285e-07  2.7777483e-06  1.340651e+08 
   3055000   1.8889182e-10  133724.97      131479.5       885157.4       3.2956408e-06  5.1794881e-07  2.777692e-06   1.3406397e+08
   3056000   1.8895365e-10  133724.51      131481.87      884211.52      3.2956296e-06  5.1794699e-07  2.7776826e-06  1.3406143e+08
   3057000   1.8901548e-10  133719.18      131478.95      883400.78      3.2956384e-06  5.1806665e-07  2.7775717e-06  1.3405859e+08
   3058000   1.8907731e-10  133724.16      131487.01      882375.12      3.2956468e-06  5.1797153e-07  2.7776753e-06  1.3406105e+08
   3059000   1.8913914e-10  133724.27      131490.71      881175.86      3.2956416e-06  5.1796407e-07  2.7776776e-06  1.3406177e+08
   3060000   1.8920098e-10  133719.18      131492.23      878956.83      3.2956589e-06  5.1808715e-07  2.7775718e-06  1.3406179e+08
   3061000   1.8926281e-10  133726.16      131506.06      876673.93      3.2956389e-06  5.1792216e-07  2.7777168e-06  1.3406283e+08
   3062000   1.8932464e-10  133724.4       131507.8       875501.46      3.2956595e-06  5.1797923e-07  2.7776802e-06  1.3406378e+08
   3063000   1.8938647e-10  133713.88      131498.84      874969.12      3.2956594e-06  5.1819768e-07  2.7774617e-06  1.3406056e+08
   3064000   1.894483e-10   133705.12      131490.97      874663.97      3.2956472e-06  5.1836745e-07  2.7772798e-06  1.3405752e+08
   3065000   1.8951013e-10  133716.45      131503.81      874171.26      3.2956434e-06  5.1812825e-07  2.7775151e-06  1.3406171e+08
   3066000   1.8957196e-10  133723.38      131512.64      873543.92      3.2956536e-06  5.1799444e-07  2.7776591e-06  1.3406421e+08
   3067000   1.8963379e-10  133728.85      131520.49      872751.55      3.2956609e-06  5.1788826e-07  2.7777726e-06  1.340661e+08 
   3068000   1.8969562e-10  133721.88      131519.55      870728.54      3.2956577e-06  5.1802973e-07  2.7776279e-06  1.3406255e+08
   3069000   1.8975745e-10  133748.2       131551.66      868815.01      3.2956495e-06  5.1747497e-07  2.7781745e-06  1.3407159e+08
   3070000   1.8981928e-10  133739.01      131548.41      866821.5       3.2956451e-06  5.1766136e-07  2.7779837e-06  1.3406713e+08
   3071000   1.8988111e-10  133726.6       131537.15      866427.03      3.295644e-06   5.1791806e-07  2.777726e-06   1.3406286e+08
   3072000   1.8994294e-10  133729.55      131539.21      866724.1       3.2956536e-06  5.1786644e-07  2.7777872e-06  1.3406554e+08
   3073000   1.9000477e-10  133729.9       131540.78      866316.6       3.2956524e-06  5.1785789e-07  2.7777945e-06  1.3406452e+08
   3074000   1.900666e-10   133727.44      131540.09      865721.61      3.2956523e-06  5.1790904e-07  2.7777433e-06  1.3406258e+08
   3075000   1.9012843e-10  133728.45      131545.12      864378         3.2956505e-06  5.1788618e-07  2.7777643e-06  1.3406326e+08
   3076000   1.9019026e-10  133721.32      131539.57      863843.83      3.2956404e-06  5.1802421e-07  2.7776162e-06  1.3406052e+08
   3077000   1.9025209e-10  133717.63      131539.78      862534.13      3.2956576e-06  5.1811811e-07  2.7775395e-06  1.3406098e+08
   3078000   1.9031392e-10  133721.51      131547.5       861255.01      3.2956525e-06  5.1803225e-07  2.7776203e-06  1.3406222e+08
   3079000   1.9037575e-10  133724.79      131555.11      859808.66      3.2956501e-06  5.1796179e-07  2.7776883e-06  1.3406246e+08
   3080000   1.9043758e-10  133731.79      131566.42      858373.71      3.2956619e-06  5.1782822e-07  2.7778337e-06  1.3406558e+08
   3081000   1.9049941e-10  133735.25      131573.51      857166.54      3.2956531e-06  5.1774741e-07  2.7779057e-06  1.3406567e+08
   3082000   1.9056124e-10  133732.66      131573.68      856240.62      3.2956488e-06  5.1779706e-07  2.7778517e-06  1.3406412e+08
   3083000   1.9062307e-10  133726.84      131568.93      855874.97      3.2956362e-06  5.179053e-07   2.7777309e-06  1.3406097e+08
   3084000   1.906849e-10   133717.48      131564.7       854149.51      3.2956306e-06  5.1809414e-07  2.7775365e-06  1.3405708e+08
   3085000   1.9074673e-10  133732.59      131581.98      853442.89      3.2956413e-06  5.1779092e-07  2.7778504e-06  1.3406385e+08
   3086000   1.9080857e-10  133733.7       131584.53      852962.45      3.2956446e-06  5.1777118e-07  2.7778734e-06  1.3406452e+08
   3087000   1.908704e-10   133744.38      131598.21      851968.46      3.2956364e-06  5.1754118e-07  2.7780952e-06  1.340678e+08 
   3088000   1.9093223e-10  133755.47      131613.39      850610.36      3.2956439e-06  5.173183e-07   2.7783256e-06  1.3407363e+08
   3089000   1.9099406e-10  133735.25      131593.01      850645.15      3.2956491e-06  5.177434e-07   2.7779057e-06  1.3406736e+08
   3090000   1.9105589e-10  133735.99      131595.54      850045.99      3.2956486e-06  5.1772764e-07  2.777921e-06   1.3406758e+08
   3091000   1.9111772e-10  133733.51      131594.93      849417.39      3.2956544e-06  5.1778497e-07  2.7778694e-06  1.3406686e+08
   3092000   1.9117955e-10  133736.19      131592.76      851041.7       3.295649e-06   5.1772385e-07  2.7779251e-06  1.340676e+08 
   3093000   1.9124138e-10  133722.62      131579.51      850922.61      3.2956486e-06  5.1800539e-07  2.7776432e-06  1.3406305e+08
   3094000   1.9130321e-10  133716.89      131576.63      849960.68      3.2956539e-06  5.1812972e-07  2.7775241e-06  1.3406194e+08
   3095000   1.9136504e-10  133719.61      131583.47      848588.59      3.2956663e-06  5.1808562e-07  2.7775807e-06  1.3406452e+08
   3096000   1.9142687e-10  133723.26      131589.46      847809.93      3.2956532e-06  5.1799655e-07  2.7776566e-06  1.3406496e+08
   3097000   1.914887e-10   133710.57      131581.69      846153.24      3.2956441e-06  5.1825112e-07  2.777393e-06   1.3405919e+08
   3098000   1.9155053e-10  133705.69      131578.69      845516.44      3.2956565e-06  5.1836505e-07  2.7772915e-06  1.3405863e+08
   3099000   1.9161236e-10  133701.51      131579.62      843805.17      3.2956498e-06  5.1844507e-07  2.7772048e-06  1.3405691e+08
   3100000   1.9167419e-10  133708.93      131589.38      843028.62      3.2956659e-06  5.1830701e-07  2.7773589e-06  1.3406106e+08
   3101000   1.9173602e-10  133711.88      131591.66      843257.78      3.2956659e-06  5.1824566e-07  2.7774202e-06  1.3406269e+08
   3102000   1.9179785e-10  133715.22      131596.49      842761.09      3.2956572e-06  5.1816763e-07  2.7774896e-06  1.3406372e+08
   3103000   1.9185968e-10  133719.32      131600.36      842840.11      3.2956678e-06  5.180932e-07   2.7775746e-06  1.340649e+08 
   3104000   1.9192151e-10  133717.46      131601.52      841830.7       3.2956655e-06  5.1812949e-07  2.777536e-06   1.3406221e+08
   3105000   1.9198334e-10  133724.58      131610.11      841343.22      3.2956528e-06  5.1796892e-07  2.7776839e-06  1.3406326e+08
   3106000   1.9204517e-10  133719.93      131609.17      840100         3.295634e-06   5.1804669e-07  2.7775873e-06  1.3405965e+08
   3107000   1.92107e-10    133735.16      131628.77      838654.31      3.2956283e-06  5.1772463e-07  2.7779037e-06  1.3406493e+08
   3108000   1.9216883e-10  133724.84      131621.49      837626.46      3.2956238e-06  5.1793453e-07  2.7776892e-06  1.3406058e+08
   3109000   1.9223066e-10  133717.26      131612.39      838128.14      3.2956126e-06  5.1808074e-07  2.7775319e-06  1.3405648e+08
   3110000   1.9229249e-10  133729.38      131626.04      837625.37      3.2956276e-06  5.1784402e-07  2.7777836e-06  1.3406182e+08
   3111000   1.9235432e-10  133732.79      131629.53      837602.79      3.2956128e-06  5.1775845e-07  2.7778544e-06  1.3406251e+08
   3112000   1.9241616e-10  133718.24      131616.11      837209.71      3.2956168e-06  5.1806463e-07  2.7775522e-06  1.3405823e+08
   3113000   1.9247799e-10  133713.28      131618.39      834786.25      3.2956152e-06  5.1816592e-07  2.7774492e-06  1.3405744e+08
   3114000   1.9253982e-10  133711.68      131620.49      833548.15      3.2956347e-06  5.1821865e-07  2.7774161e-06  1.3405798e+08
   3115000   1.9260165e-10  133717.13      131629.61      832323.81      3.2956367e-06  5.1810749e-07  2.7775292e-06  1.3405938e+08
   3116000   1.9266348e-10  133733.08      131648.22      831452.81      3.2956395e-06  5.1777891e-07  2.7778606e-06  1.3406585e+08
   3117000   1.9272531e-10  133717.9       131634.38      830987.65      3.2956475e-06  5.1810226e-07  2.7775452e-06  1.340611e+08 
   3118000   1.9278714e-10  133722.36      131639.54      830757.2       3.2956462e-06  5.1800848e-07  2.7776378e-06  1.3406336e+08
   3119000   1.9284897e-10  133704.22      131622.54      830358.77      3.2956534e-06  5.1839236e-07  2.777261e-06   1.3405742e+08
   3120000   1.929108e-10   133712.44      131630.9       830319.73      3.2956644e-06  5.1823261e-07  2.7774318e-06  1.3406176e+08
   3121000   1.9297263e-10  133722.01      131642.36      829698.55      3.2956634e-06  5.1803281e-07  2.7776306e-06  1.3406471e+08
   3122000   1.9303446e-10  133733.93      131656.96      828811.4       3.2956572e-06  5.1777903e-07  2.7778781e-06  1.3406793e+08
   3123000   1.9309629e-10  133733.7       131661.37      827263.47      3.2956614e-06  5.1778793e-07  2.7778735e-06  1.3406845e+08
   3124000   1.9315812e-10  133730.17      131662.7       825633.05      3.2956726e-06  5.1787244e-07  2.7778001e-06  1.3406862e+08
   3125000   1.9321995e-10  133717.36      131652.22      824839.87      3.2956594e-06  5.1812543e-07  2.777534e-06   1.3406325e+08
   3126000   1.9328178e-10  133723.13      131662.71      823268.73      3.2956739e-06  5.1802003e-07  2.7776539e-06  1.3406691e+08
   3127000   1.9334361e-10  133707.18      131651.09      821802.32      3.2956604e-06  5.183379e-07   2.7773225e-06  1.3405959e+08
   3128000   1.9340544e-10  133731.1       131675.9       821527.13      3.295671e-06   5.1785168e-07  2.7778193e-06  1.3407079e+08
   3129000   1.9346727e-10  133720.94      131668.18      820702.53      3.2956697e-06  5.1806143e-07  2.7776083e-06  1.3406712e+08
   3130000   1.935291e-10   133713.9       131663.55      819891.04      3.2956746e-06  5.1821238e-07  2.7774622e-06  1.3406474e+08
   3131000   1.9359093e-10  133711.76      131667.24      817940.55      3.2956609e-06  5.182432e-07   2.7774177e-06  1.3406302e+08
   3132000   1.9365276e-10  133711.59      131672.44      816142.32      3.2956509e-06  5.1823682e-07  2.7774141e-06  1.3406245e+08
   3133000   1.9371459e-10  133713.46      131677.41      815106.26      3.2956535e-06  5.1820056e-07  2.777453e-06   1.3406348e+08
   3134000   1.9377642e-10  133707.98      131673.16      814688.77      3.2956592e-06  5.1832007e-07  2.7773391e-06  1.3406189e+08
   3135000   1.9383825e-10  133716.69      131682.89      814355.11      3.2956636e-06  5.1814357e-07  2.77752e-06    1.3406533e+08
   3136000   1.9390008e-10  133705.83      131676.96      812697.1       3.2956619e-06  5.1836742e-07  2.7772945e-06  1.3406021e+08
   3137000   1.9396191e-10  133713.18      131689.5       810969.59      3.2956418e-06  5.1819462e-07  2.7774472e-06  1.3406085e+08
   3138000   1.9402375e-10  133716.38      131695.99      809872.21      3.2956437e-06  5.1813001e-07  2.7775137e-06  1.3406096e+08
   3139000   1.9408558e-10  133729.59      131711.49      809121.53      3.2956363e-06  5.1784821e-07  2.7777881e-06  1.3406421e+08
   3140000   1.9414741e-10  133731.25      131714.35      808719.8       3.2956342e-06  5.1781182e-07  2.7778224e-06  1.3406329e+08
   3141000   1.9420924e-10  133730.16      131714.46      808317.54      3.2956187e-06  5.1781889e-07  2.7777998e-06  1.3405995e+08
   3142000   1.9427107e-10  133746.98      131733.54      807579.33      3.2956274e-06  5.1747809e-07  2.7781493e-06  1.3406595e+08
   3143000   1.943329e-10   133744.03      131734.2       806368.67      3.2956197e-06  5.1753174e-07  2.778088e-06   1.3406435e+08
   3144000   1.9439473e-10  133724.97      131721.24      804307.49      3.2956234e-06  5.1793139e-07  2.777692e-06   1.3405883e+08
   3145000   1.9445656e-10  133716.94      131717.52      802859.45      3.2956452e-06  5.1811986e-07  2.7775253e-06  1.3405872e+08
   3146000   1.9451839e-10  133725.57      131727.92      802276.98      3.2956487e-06  5.1794429e-07  2.7777044e-06  1.3406349e+08
   3147000   1.9458022e-10  133721.66      131724.39      802143.77      3.2956438e-06  5.1802066e-07  2.7776232e-06  1.3406266e+08
   3148000   1.9464205e-10  133720.78      131726.89      801013.9       3.2956543e-06  5.1804927e-07  2.777605e-06   1.3406421e+08
   3149000   1.9470388e-10  133702.47      131711.3       800088.33      3.2956578e-06  5.1843307e-07  2.7772248e-06  1.3405802e+08
   3150000   1.9476571e-10  133708.93      131718.75      799762.06      3.2956732e-06  5.1831425e-07  2.7773589e-06  1.3406188e+08
   3151000   1.9482754e-10  133727.83      131739.91      799026.46      3.2956529e-06  5.1790141e-07  2.7777515e-06  1.3406737e+08
   3152000   1.9488937e-10  133713.97      131729.75      797772.54      3.2956603e-06  5.1819674e-07  2.7774635e-06  1.3406193e+08
   3153000   1.949512e-10   133713.02      131733.96      796046.03      3.2956519e-06  5.1820804e-07  2.7774439e-06  1.3405969e+08
   3154000   1.9501303e-10  133727.88      131753.03      794652.96      3.2956393e-06  5.1788689e-07  2.7777524e-06  1.3406291e+08
   3155000   1.9507486e-10  133726.51      131754.41      793729.54      3.2956481e-06  5.1792418e-07  2.7777239e-06  1.340624e+08 
   3156000   1.9513669e-10  133733.63      131758.77      794660.14      3.2956469e-06  5.1777507e-07  2.7778719e-06  1.3406632e+08
   3157000   1.9519852e-10  133719.94      131745.41      794540.98      3.2956534e-06  5.180658e-07   2.7775876e-06  1.3406289e+08
   3158000   1.9526035e-10  133700.7       131727.8       793972.56      3.2956508e-06  5.1846293e-07  2.7771879e-06  1.3405512e+08
   3159000   1.9532218e-10  133712.9       131742.1       793286.16      3.2956476e-06  5.1820623e-07  2.7774414e-06  1.3405885e+08
   3160000   1.9538401e-10  133713.12      131747.33      791610.1       3.2956534e-06  5.1820738e-07  2.777446e-06   1.3405898e+08
   3161000   1.9544584e-10  133714.39      131750.32      791034.26      3.2956421e-06  5.1816983e-07  2.7774723e-06  1.3405971e+08
   3162000   1.9550767e-10  133713.82      131751.97      790293.92      3.295629e-06   5.181685e-07   2.7774605e-06  1.3405928e+08
   3163000   1.955695e-10   133709.2       131749.45      789584.32      3.2956365e-06  5.1827208e-07  2.7773644e-06  1.3405774e+08
   3164000   1.9563134e-10  133716.03      131759.75      788429.17      3.2956381e-06  5.181318e-07   2.7775063e-06  1.3405941e+08
   3165000   1.9569317e-10  133728.19      131773.16      788024.96      3.2956517e-06  5.1789289e-07  2.7777588e-06  1.3406438e+08
   3166000   1.95755e-10    133728.6       131772.97      788227.02      3.2956438e-06  5.1787632e-07  2.7777675e-06  1.3406384e+08
   3167000   1.9581683e-10  133723.49      131763.82      789573.08      3.2956516e-06  5.1799035e-07  2.7776613e-06  1.3406289e+08
   3168000   1.9587866e-10  133728.59      131769.15      789497.86      3.2956524e-06  5.1788526e-07  2.7777671e-06  1.3406524e+08
   3169000   1.9594049e-10  133719.1       131759.37      789589.61      3.2956448e-06  5.1807464e-07  2.7775702e-06  1.3406204e+08
   3170000   1.9600232e-10  133719.55      131764.54      788009.26      3.2956421e-06  5.180627e-07   2.7775794e-06  1.3406321e+08
   3171000   1.9606415e-10  133728.28      131773.49      787945.63      3.2956443e-06  5.1788348e-07  2.7777608e-06  1.3406684e+08
   3172000   1.9612598e-10  133728.57      131772.15      788490.68      3.2956449e-06  5.1787808e-07  2.7777668e-06  1.3406569e+08
   3173000   1.9618781e-10  133730.77      131775.02      788267.28      3.2956412e-06  5.1782869e-07  2.7778125e-06  1.3406463e+08
   3174000   1.9624964e-10  133720.91      131767.12      787604.42      3.2956383e-06  5.1803061e-07  2.7776077e-06  1.3405975e+08
   3175000   1.9631147e-10  133730.56      131777.63      787325.14      3.2956457e-06  5.1783753e-07  2.7778081e-06  1.3406401e+08
   3176000   1.963733e-10   133733.96      131782.36      786882.46      3.2956434e-06  5.1776466e-07  2.7778787e-06  1.340655e+08 
   3177000   1.9643513e-10  133736.54      131787.54      786014.01      3.2956251e-06  5.1769286e-07  2.7779323e-06  1.3406563e+08
   3178000   1.9649696e-10  133720.42      131773.84      785190.48      3.2956244e-06  5.180269e-07   2.7775975e-06  1.3406018e+08
   3179000   1.9655879e-10  133701.71      131757.76      784290.95      3.2956308e-06  5.1842193e-07  2.7772089e-06  1.3405435e+08
   3180000   1.9662062e-10  133701.71      131761.02      783202.98      3.2956258e-06  5.1841694e-07  2.7772089e-06  1.3405397e+08
   3181000   1.9668245e-10  133715.81      131780.41      781449.59      3.2956352e-06  5.1813334e-07  2.7775018e-06  1.3405922e+08
   3182000   1.9674428e-10  133737.08      131810.04      778674.08      3.2956323e-06  5.1768874e-07  2.7779436e-06  1.3406633e+08
   3183000   1.9680611e-10  133733.75      131809.48      777740.02      3.2956571e-06  5.1778279e-07  2.7778743e-06  1.3406589e+08
   3184000   1.9686794e-10  133736.69      131814.85      776933.02      3.2956412e-06  5.1770573e-07  2.7779355e-06  1.3406501e+08
   3185000   1.9692977e-10  133735.48      131817.08      775780.49      3.2956319e-06  5.1772155e-07  2.7779104e-06  1.3406431e+08
   3186000   1.969916e-10   133723.56      131807.32      775049.2       3.2956235e-06  5.1796063e-07  2.7776628e-06  1.3405982e+08
   3187000   1.9705343e-10  133714.56      131799.84      774528.78      3.2956262e-06  5.1815038e-07  2.7774758e-06  1.3405639e+08
   3188000   1.9711526e-10  133728.77      131815.4       774093.73      3.2956334e-06  5.1786239e-07  2.777771e-06   1.3406207e+08
   3189000   1.9717709e-10  133733.78      131827.01      771890.11      3.2956348e-06  5.1775983e-07  2.777875e-06   1.3406452e+08
   3190000   1.9723892e-10  133721.71      131819.49      770354.35      3.2956507e-06  5.1802646e-07  2.7776243e-06  1.34062e+08  
   3191000   1.9730076e-10  133731.78      131832.1       769517.15      3.2956433e-06  5.1780981e-07  2.7778335e-06  1.340661e+08 
   3192000   1.9736259e-10  133725.11      131826.2       769252.95      3.2956412e-06  5.1794625e-07  2.7776949e-06  1.3406191e+08
   3193000   1.9742442e-10  133733.22      131834.38      769236.5       3.2956362e-06  5.1777284e-07  2.7778634e-06  1.3406184e+08
   3194000   1.9748625e-10  133742.52      131843.05      769457.41      3.2956199e-06  5.1756342e-07  2.7780565e-06  1.3406171e+08
   3195000   1.9754808e-10  133738.31      131836.39      770271.8       3.2955995e-06  5.1763042e-07  2.7779691e-06  1.3405855e+08
   3196000   1.9760991e-10  133737.17      131834.61      770484.95      3.2956049e-06  5.1765941e-07  2.7779455e-06  1.3405979e+08
   3197000   1.9767174e-10  133727.48      131827.82      769508.42      3.2956082e-06  5.1786395e-07  2.7777442e-06  1.3405789e+08
   3198000   1.9773357e-10  133730.64      131834.85      768216.26      3.2956087e-06  5.177988e-07   2.7778099e-06  1.3406002e+08
   3199000   1.977954e-10   133729.6       131839.51      766307.8       3.29562e-06    5.1783169e-07  2.7777883e-06  1.3406116e+08
   3200000   1.9785723e-10  133723.06      131834.26      765868.81      3.2956248e-06  5.1797257e-07  2.7776523e-06  1.340588e+08 
   3201000   1.9791906e-10  133735.23      131847.08      765665.69      3.2956256e-06  5.1772033e-07  2.7779052e-06  1.3406403e+08
   3202000   1.9798089e-10  133722.8       131837.94      764553.43      3.2956208e-06  5.1797378e-07  2.777647e-06   1.3405968e+08
   3203000   1.9804272e-10  133716.71      131834.03      763815.6       3.2956304e-06  5.1810988e-07  2.7775205e-06  1.3405828e+08
   3204000   1.9810455e-10  133711.72      131830.29      763394.16      3.2956402e-06  5.1822331e-07  2.7774169e-06  1.3405658e+08
   3205000   1.9816638e-10  133727.75      131847.2       763115.18      3.2956447e-06  5.1789493e-07  2.7777497e-06  1.3406319e+08
   3206000   1.9822821e-10  133723.61      131845.62      762253.53      3.2956387e-06  5.1797493e-07  2.7776637e-06  1.3406172e+08
   3207000   1.9829004e-10  133721.74      131847.3       761065.88      3.2956415e-06  5.1801658e-07  2.777625e-06   1.3406143e+08
   3208000   1.9835187e-10  133713.01      131842.99      759576.16      3.2956503e-06  5.1820681e-07  2.7774435e-06  1.3405881e+08
   3209000   1.984137e-10   133727.89      131859.56      759028.33      3.2956524e-06  5.1789977e-07  2.7777527e-06  1.3406492e+08
   3210000   1.9847553e-10  133733         131868.29      757821.29      3.2956603e-06  5.1780157e-07  2.7778588e-06  1.3406742e+08
   3211000   1.9853736e-10  133723.5       131860.79      757146         3.2956486e-06  5.1798708e-07  2.7776615e-06  1.340632e+08 
   3212000   1.9859919e-10  133729.03      131867.95      756604.94      3.2956536e-06  5.178771e-07   2.7777765e-06  1.3406622e+08
   3213000   1.9866102e-10  133730.7       131870.11      756445.03      3.2956649e-06  5.1785376e-07  2.7778111e-06  1.3406821e+08
   3214000   1.9872285e-10  133718.15      131858.69      756052.65      3.2956563e-06  5.1810586e-07  2.7775505e-06  1.3406343e+08
   3215000   1.9878468e-10  133727.45      131870.56      755202.22      3.2956686e-06  5.1792504e-07  2.7777436e-06  1.3406817e+08
   3216000   1.9884651e-10  133728.52      131873.85      754457.45      3.2956718e-06  5.1790616e-07  2.7777657e-06  1.3406891e+08
   3217000   1.9890835e-10  133720.49      131867.28      753964.39      3.29567e-06    5.1807088e-07  2.7775991e-06  1.340662e+08 
   3218000   1.9897018e-10  133720.26      131872.23      752230.95      3.2956653e-06  5.1807105e-07  2.7775942e-06  1.3406595e+08
   3219000   1.9903201e-10  133722.61      131877.43      751280.86      3.2956656e-06  5.1802249e-07  2.7776431e-06  1.3406697e+08
   3220000   1.9909384e-10  133722.88      131882.97      749519.87      3.2956537e-06  5.180051e-07   2.7776486e-06  1.3406539e+08
   3221000   1.9915567e-10  133714.91      131879.12      748131.04      3.295668e-06   5.1818498e-07  2.777483e-06   1.3406296e+08
   3222000   1.992175e-10   133715.73      131883.46      746957.91      3.295663e-06   5.1816287e-07  2.7775002e-06  1.3406212e+08
   3223000   1.9927933e-10  133723.54      131892.07      746698.35      3.2956556e-06  5.1799324e-07  2.7776624e-06  1.3406326e+08
   3224000   1.9934116e-10  133744.66      131917.43      745301.14      3.2956537e-06  5.1755252e-07  2.7781011e-06  1.3407068e+08
   3225000   1.9940299e-10  133739.26      131915.88      744004.33      3.2956539e-06  5.1766511e-07  2.7779888e-06  1.3406883e+08
   3226000   1.9946482e-10  133730.22      131907.42      743801.55      3.2956446e-06  5.1784357e-07  2.7778011e-06  1.3406519e+08
   3227000   1.9952665e-10  133728.06      131908.58      742692.1       3.2956588e-06  5.1790252e-07  2.7777563e-06  1.3406596e+08
   3228000   1.9958848e-10  133723.91      131906.69      741933.54      3.2956664e-06  5.1799626e-07  2.7776701e-06  1.3406555e+08
   3229000   1.9965031e-10  133734.03      131918.67      741321.79      3.295659e-06   5.1777867e-07  2.7778803e-06  1.3406916e+08
   3230000   1.9971214e-10  133727.24      131914.43      740459.28      3.2956678e-06  5.1792865e-07  2.7777391e-06  1.3406729e+08
   3231000   1.9977397e-10  133706.54      131895.14      739967.12      3.2956721e-06  5.1836294e-07  2.7773092e-06  1.3405963e+08
   3232000   1.998358e-10   133720.42      131915.37      737855.06      3.2956647e-06  5.1806726e-07  2.7775975e-06  1.3406462e+08
   3233000   1.9989763e-10  133724.6       131923.81      736438.7       3.2956648e-06  5.1798032e-07  2.7776844e-06  1.3406659e+08
   3234000   1.9995946e-10  133720.38      131918.71      736726.07      3.2956639e-06  5.1806714e-07  2.7775967e-06  1.3406566e+08
   3235000   2.0002129e-10  133717.53      131916.8       736409.54      3.2956622e-06  5.1812461e-07  2.7775376e-06  1.34064e+08  
   3236000   2.0008312e-10  133701.39      131900.78      736352.6       3.2956726e-06  5.1847045e-07  2.7772021e-06  1.3405755e+08
   3237000   2.0014495e-10  133718.18      131918.72      735985.86      3.2956662e-06  5.1811519e-07  2.7775511e-06  1.3406352e+08
   3238000   2.0020678e-10  133725.33      131929.86      734659.08      3.2956671e-06  5.1796744e-07  2.7776996e-06  1.3406597e+08
   3239000   2.0026861e-10  133710.69      131920.88      732750.41      3.2956632e-06  5.1826783e-07  2.7773953e-06  1.3405953e+08
   3240000   2.0033044e-10  133723.96      131932.83      733208.37      3.2956478e-06  5.1797665e-07  2.7776712e-06  1.3406256e+08
   3241000   2.0039227e-10  133740.58      131950.07      733013.54      3.2956435e-06  5.1762734e-07  2.7780162e-06  1.3406773e+08
   3242000   2.004541e-10   133733.83      131945.25      732362.48      3.2956555e-06  5.1777945e-07  2.7778761e-06  1.3406598e+08
   3243000   2.0051594e-10  133721.71      131933         732390.87      3.295652e-06   5.1802777e-07  2.7776242e-06  1.3406173e+08
   3244000   2.0057777e-10  133715.76      131927.3       732301.31      3.2956449e-06  5.1814425e-07  2.7775006e-06  1.3405977e+08
   3245000   2.006396e-10   133723.34      131936.83      731658.44      3.2956398e-06  5.1798168e-07  2.7776581e-06  1.3406268e+08
   3246000   2.0070143e-10  133732.54      131949         730675.6       3.2956408e-06  5.1779153e-07  2.7778493e-06  1.3406635e+08
   3247000   2.0076326e-10  133719.76      131940.2       729329.53      3.2956602e-06  5.1807647e-07  2.7775838e-06  1.3406285e+08
   3248000   2.0082509e-10  133707.42      131929.6       728737.45      3.2956541e-06  5.1832646e-07  2.7773276e-06  1.3405761e+08
   3249000   2.0088692e-10  133728.22      131952.53      728046.4       3.2956446e-06  5.1788513e-07  2.7777595e-06  1.3406393e+08
   3250000   2.0094875e-10  133733.8       131959.02      727747.01      3.2956344e-06  5.1775895e-07  2.7778754e-06  1.3406359e+08
   3251000   2.0101058e-10  133742.8       131969.9       727126.07      3.2956241e-06  5.1756178e-07  2.7780624e-06  1.3406594e+08
   3252000   2.0107241e-10  133726.58      131956.75      726085.2       3.2956401e-06  5.1791454e-07  2.7777255e-06  1.3406215e+08
   3253000   2.0113424e-10  133708.61      131939.61      725789.21      3.2956338e-06  5.1828154e-07  2.7773522e-06  1.3405579e+08
   3254000   2.0119607e-10  133718.65      131951.09      725318.75      3.2956427e-06  5.1808193e-07  2.7775608e-06  1.3406063e+08
   3255000   2.012579e-10   133733.01      131967.48      724652.41      3.2956493e-06  5.177903e-07   2.777859e-06   1.3406616e+08
   3256000   2.0131973e-10  133731.06      131967.97      723834.19      3.2956511e-06  5.1783265e-07  2.7778185e-06  1.3406524e+08
   3257000   2.0138156e-10  133724.07      131962.73      723244.9       3.2956478e-06  5.1797438e-07  2.7776734e-06  1.3406251e+08
   3258000   2.0144339e-10  133714.77      131954.76      722787         3.2956704e-06  5.1819031e-07  2.7774801e-06  1.3406173e+08
   3259000   2.0150522e-10  133714.4       131957         721913.24      3.2956657e-06  5.1819324e-07  2.7774725e-06  1.3406275e+08
   3260000   2.0156705e-10  133716.91      131962.67      720862.13      3.2956626e-06  5.1813787e-07  2.7775247e-06  1.3406451e+08
   3261000   2.0162888e-10  133715.03      131964.45      719633.98      3.2956686e-06  5.1818311e-07  2.7774855e-06  1.3406497e+08
   3262000   2.0169071e-10  133711.9       131964.7       718500.93      3.2956661e-06  5.1824549e-07  2.7774206e-06  1.3406388e+08
   3263000   2.0175254e-10  133717.83      131973.54      717532.77      3.2956815e-06  5.1813783e-07  2.7775436e-06  1.3406714e+08
   3264000   2.0181437e-10  133727.29      131983.46      717388.86      3.2956741e-06  5.1793387e-07  2.7777403e-06  1.3406889e+08
   3265000   2.018762e-10   133720.71      131980.44      716193.62      3.2956589e-06  5.1805534e-07  2.7776036e-06  1.340637e+08 
   3266000   2.0193803e-10  133729.63      131990.54      715807.7       3.2956753e-06  5.1788635e-07  2.7777889e-06  1.3406724e+08
   3267000   2.0199986e-10  133733.04      131993.79      715864.83      3.2956577e-06  5.1779798e-07  2.7778597e-06  1.3406699e+08
   3268000   2.0206169e-10  133720.22      131980.04      716163.44      3.295645e-06   5.1805157e-07  2.7775934e-06  1.3406176e+08
   3269000   2.0212353e-10  133726.48      131987.03      715924.71      3.2956576e-06  5.1793416e-07  2.7777235e-06  1.3406585e+08
   3270000   2.0218536e-10  133727.3       131987.03      716197.99      3.2956581e-06  5.179177e-07   2.7777404e-06  1.3406517e+08
   3271000   2.0224719e-10  133733.27      131995.48      715375.7       3.2956626e-06  5.1779802e-07  2.7778645e-06  1.3406717e+08
   3272000   2.0230902e-10  133730.58      131993.45      715152.41      3.2956764e-06  5.1786778e-07  2.7778087e-06  1.3406724e+08
   3273000   2.0237085e-10  133719.67      131981.04      715642.61      3.2956679e-06  5.1808588e-07  2.777582e-06   1.3406272e+08
   3274000   2.0243268e-10  133716.9       131977.55      715882.7       3.2956646e-06  5.1814008e-07  2.7775245e-06  1.3406267e+08
   3275000   2.0249451e-10  133717.98      131979.97      715433.14      3.2956414e-06  5.1809452e-07  2.7775469e-06  1.3406085e+08
   3276000   2.0255634e-10  133742.49      132003.99      715621.46      3.2956498e-06  5.1759396e-07  2.7780559e-06  1.3407085e+08
   3277000   2.0261817e-10  133718.95      131978.59      716219.84      3.2956406e-06  5.1807355e-07  2.777567e-06   1.3406105e+08
   3278000   2.0268e-10     133720.32      131982.14      715494.35      3.2956371e-06  5.1804153e-07  2.7775955e-06  1.3406195e+08
   3279000   2.0274183e-10  133704.88      131969.14      714661.69      3.2956468e-06  5.18372e-07    2.7772748e-06  1.3405771e+08
   3280000   2.0280366e-10  133709.62      131979.16      712900.96      3.2956385e-06  5.1826526e-07  2.7773732e-06  1.3405879e+08
   3281000   2.0286549e-10  133719.02      131988.24      713016.43      3.2956346e-06  5.1806617e-07  2.7775684e-06  1.3406067e+08
   3282000   2.0292732e-10  133723.82      131993.59      712835.56      3.2956287e-06  5.1796057e-07  2.7776681e-06  1.3406096e+08
   3283000   2.0298915e-10  133722.15      131992.02      712802.68      3.2956426e-06  5.1800904e-07  2.7776336e-06  1.3406108e+08
   3284000   2.0305098e-10  133732.85      132004.22      712312.92      3.2956476e-06  5.1779185e-07  2.7778557e-06  1.3406551e+08
   3285000   2.0311281e-10  133734.57      132005.66      712408.14      3.2956543e-06  5.1776284e-07  2.7778915e-06  1.3406688e+08
   3286000   2.0317464e-10  133725.64      131997.25      712224.01      3.2956471e-06  5.179412e-07   2.7777059e-06  1.3406379e+08
   3287000   2.0323647e-10  133722.48      131994.14      712204.65      3.2956387e-06  5.1799838e-07  2.7776403e-06  1.34063e+08  
   3288000   2.032983e-10   133720.62      131994.68      711400.49      3.2956468e-06  5.180451e-07   2.7776017e-06  1.3406417e+08
   3289000   2.0336013e-10  133726.93      132001.63      711190.09      3.2956604e-06  5.1792768e-07  2.7777327e-06  1.3406754e+08
   3290000   2.0342196e-10  133731.38      132010.88      709590.35      3.2956744e-06  5.1784918e-07  2.7778252e-06  1.3406961e+08
   3291000   2.0348379e-10  133723.96      132008.3       707967.69      3.2956661e-06  5.1799491e-07  2.7776712e-06  1.3406577e+08
   3292000   2.0354562e-10  133711.18      131998.66      706902.4       3.2956511e-06  5.1824557e-07  2.7774055e-06  1.3405976e+08
   3293000   2.0360745e-10  133716.68      132008.02      705613.72      3.2956533e-06  5.1813354e-07  2.7775197e-06  1.3406122e+08
   3294000   2.0366928e-10  133724.2       132017.44      704988.61      3.295657e-06   5.1798093e-07  2.7776761e-06  1.3406306e+08
   3295000   2.0373112e-10  133722.68      132017.34      704509.96      3.2956659e-06  5.180215e-07   2.7776444e-06  1.3406232e+08
   3296000   2.0379295e-10  133715.51      132011.21      704158.73      3.2956623e-06  5.1816672e-07  2.7774956e-06  1.3405988e+08
   3297000   2.0385478e-10  133723.88      132021.23      703613.24      3.2956535e-06  5.1798415e-07  2.7776694e-06  1.3406428e+08
   3298000   2.0391661e-10  133719.7       132020.7       702388.1       3.2956451e-06  5.180625e-07   2.7775826e-06  1.3406226e+08
   3299000   2.0397844e-10  133728.32      132035.68      700271.12      3.2956413e-06  5.1787962e-07  2.7777617e-06  1.3406395e+08
   3300000   2.0404027e-10  133726.75      132035.96      699647.18      3.2956435e-06  5.1791456e-07  2.7777289e-06  1.3406231e+08
   3301000   2.041021e-10   133724.55      132036.51      698727.91      3.2956446e-06  5.1796133e-07  2.7776832e-06  1.340613e+08 
   3302000   2.0416393e-10  133725.23      132039.52      697951.31      3.2956385e-06  5.1794104e-07  2.7776975e-06  1.3406067e+08
   3303000   2.0422576e-10  133743.94      132062.14      696661.23      3.295643e-06   5.1755701e-07  2.778086e-06   1.3406763e+08
   3304000   2.0428759e-10  133734.76      132052.35      696855.63      3.2956319e-06  5.1773652e-07  2.7778953e-06  1.3406255e+08
   3305000   2.0434942e-10  133730.4       132049.91      696207.77      3.2956259e-06  5.1782106e-07  2.7778048e-06  1.3406068e+08
   3306000   2.0441125e-10  133724.68      132042.43      696791.39      3.2956264e-06  5.1794046e-07  2.777686e-06   1.3405889e+08
   3307000   2.0447308e-10  133725.83      132044.9       696350.76      3.2956196e-06  5.179097e-07   2.7777099e-06  1.340595e+08 
   3308000   2.0453491e-10  133724.4       132045.23      695761.34      3.2956252e-06  5.1794495e-07  2.7776803e-06  1.3406031e+08
   3309000   2.0459674e-10  133719.81      132043.22      694894.15      3.2956332e-06  5.1804831e-07  2.7775849e-06  1.3406036e+08
   3310000   2.0465857e-10  133723.78      132051.25      693538.45      3.295647e-06   5.1797974e-07  2.7776673e-06  1.3406342e+08
   3311000   2.047204e-10   133715.99      132045.54      692838.79      3.295644e-06   5.1813844e-07  2.7775056e-06  1.3405908e+08
   3312000   2.0478223e-10  133722.9       132053.74      692410.83      3.2956436e-06  5.1799462e-07  2.7776489e-06  1.3406075e+08
   3313000   2.0484406e-10  133725.39      132056.88      692196.16      3.2956443e-06  5.1794363e-07  2.7777007e-06  1.340617e+08 
   3314000   2.0490589e-10  133732.03      132064         692041.33      3.2956327e-06  5.1779409e-07  2.7778386e-06  1.3406324e+08
   3315000   2.0496772e-10  133724.18      132058.29      691316.95      3.2956315e-06  5.1795593e-07  2.7776755e-06  1.3406064e+08
   3316000   2.0502955e-10  133720.84      132061.94      688976.74      3.2956458e-06  5.1803956e-07  2.7776062e-06  1.3406091e+08
   3317000   2.0509138e-10  133731.9       132077.84      687373.91      3.2956324e-06  5.1779629e-07  2.7778361e-06  1.3406487e+08
   3318000   2.0515321e-10  133715.62      132063.97      686548.56      3.2956229e-06  5.1812504e-07  2.7774978e-06  1.340586e+08 
   3319000   2.0521504e-10  133722.19      132071.42      686262.15      3.295628e-06   5.1799365e-07  2.7776343e-06  1.3406134e+08
   3320000   2.0527687e-10  133725.68      132074.01      686565.26      3.2956172e-06  5.1791048e-07  2.7777067e-06  1.3406146e+08
   3321000   2.0533871e-10  133716.03      132065.63      686130.2       3.2956379e-06  5.1813158e-07  2.7775063e-06  1.3405867e+08
   3322000   2.0540054e-10  133734.01      132085         685684.08      3.2956417e-06  5.1776193e-07  2.7778797e-06  1.3406558e+08
   3323000   2.0546237e-10  133739.51      132091.02      685516.12      3.2956452e-06  5.176512e-07   2.777994e-06   1.3406717e+08
   3324000   2.055242e-10   133732.9       132084.2       685577.98      3.2956186e-06  5.177619e-07   2.7778567e-06  1.3406168e+08
   3325000   2.0558603e-10  133728.87      132080.08      685604.4       3.2956178e-06  5.1784484e-07  2.777773e-06   1.3405925e+08
   3326000   2.0564786e-10  133731.03      132082.61      685483.69      3.2956146e-06  5.1779662e-07  2.777818e-06   1.3405885e+08
   3327000   2.0570969e-10  133745.21      132097.72      685188.11      3.2956265e-06  5.1751395e-07  2.7781125e-06  1.3406457e+08
   3328000   2.0577152e-10  133745.48      132099.07      684826.87      3.2956462e-06  5.175281e-07   2.7781181e-06  1.3406624e+08
   3329000   2.0583335e-10  133742.71      132099.01      683916.67      3.2956317e-06  5.1757109e-07  2.7780606e-06  1.3406488e+08
   3330000   2.0589518e-10  133739.1       132098.59      682847.65      3.2956466e-06  5.1766098e-07  2.7779856e-06  1.340656e+08 
   3331000   2.0595701e-10  133740.31      132102.46      681958.98      3.2956478e-06  5.1763711e-07  2.7780107e-06  1.3406674e+08
   3332000   2.0601884e-10  133739.21      132107.21      680000.33      3.2956358e-06  5.1764802e-07  2.7779877e-06  1.3406554e+08
   3333000   2.0608067e-10  133739.99      132110.97      679005.32      3.2956435e-06  5.1763936e-07  2.7780041e-06  1.3406661e+08
   3334000   2.061425e-10   133730.6       132106.49      677355.3       3.2956374e-06  5.178283e-07   2.7778091e-06  1.3406294e+08
   3335000   2.0620433e-10  133739.86      132119.44      676129.96      3.2956522e-06  5.1765079e-07  2.7780014e-06  1.3406867e+08
   3336000   2.0626616e-10  133724.89      132106.69      675368.32      3.2956585e-06  5.1796818e-07  2.7776903e-06  1.3406402e+08
   3337000   2.0632799e-10  133740.78      132124.58      674719.01      3.2956538e-06  5.1763331e-07  2.7780205e-06  1.3406988e+08
   3338000   2.0638982e-10  133729.94      132115.15      674237.27      3.2956514e-06  5.1785612e-07  2.7777953e-06  1.3406594e+08
   3339000   2.0645165e-10  133730.91      132118.79      673343.71      3.2956559e-06  5.1784038e-07  2.7778155e-06  1.340671e+08 
   3340000   2.0651348e-10  133717.42      132106.69      672865.09      3.2956495e-06  5.1811429e-07  2.7775352e-06  1.3406161e+08
   3341000   2.0657531e-10  133716.02      132107.42      672151.08      3.2956554e-06  5.1814921e-07  2.7775062e-06  1.3406216e+08
   3342000   2.0663714e-10  133722.76      132113.31      672440.25      3.2956542e-06  5.1800812e-07  2.7776461e-06  1.3406467e+08
   3343000   2.0669897e-10  133723.45      132112.91      672807.3       3.2956457e-06  5.1798519e-07  2.7776605e-06  1.3406404e+08
   3344000   2.067608e-10   133729.49      132120.18      672401.78      3.2956564e-06  5.178706e-07   2.7777859e-06  1.3406702e+08
   3345000   2.0682263e-10  133715.34      132109.5       671227.33      3.2956365e-06  5.1814444e-07  2.7774921e-06  1.3405963e+08
   3346000   2.0688446e-10  133723.08      132119.2       670577.17      3.2956338e-06  5.1798113e-07  2.7776527e-06  1.3406202e+08
   3347000   2.069463e-10   133732.09      132131.6       669455.88      3.2956322e-06  5.1779231e-07  2.7778399e-06  1.3406422e+08
   3348000   2.0700813e-10  133730.49      132136.02      667438.81      3.2956371e-06  5.1783046e-07  2.7778067e-06  1.3406254e+08
   3349000   2.0706996e-10  133735.71      132142.19      667128.33      3.2956436e-06  5.1772845e-07  2.7779151e-06  1.3406453e+08
   3350000   2.0713179e-10  133737.81      132145.93      666580.36      3.295648e-06   5.1768929e-07  2.7779587e-06  1.3406537e+08
   3351000   2.0719362e-10  133745.9       132157.86      665304.51      3.2956448e-06  5.17518e-07    2.7781268e-06  1.3406779e+08
   3352000   2.0725545e-10  133763.57      132178.05      664477.31      3.2956355e-06  5.1714175e-07  2.7784938e-06  1.3407382e+08
   3353000   2.0731728e-10  133743.45      132162.82      662823.69      3.295639e-06   5.1756311e-07  2.7780758e-06  1.3406766e+08
   3354000   2.0737911e-10  133728.36      132147.49      662891.12      3.2956377e-06  5.1787521e-07  2.7777625e-06  1.3406345e+08
   3355000   2.0744094e-10  133716.44      132134.74      663156.06      3.2956262e-06  5.1811123e-07  2.7775149e-06  1.3405866e+08
   3356000   2.0750277e-10  133718.22      132136.43      663184.69      3.2956191e-06  5.1806735e-07  2.7775518e-06  1.3405779e+08
   3357000   2.075646e-10   133739.97      132158.64      663053.9       3.2956084e-06  5.1760493e-07  2.7780035e-06  1.3406369e+08
   3358000   2.0762643e-10  133753.94      132173.25      662852.55      3.2956142e-06  5.1732047e-07  2.7782937e-06  1.340672e+08 
   3359000   2.0768826e-10  133747.39      132167.32      662642.65      3.2956264e-06  5.174686e-07   2.7781578e-06  1.3406396e+08
   3360000   2.0775009e-10  133756.22      132178.24      661949.87      3.2956429e-06  5.1730186e-07  2.7783411e-06  1.3406865e+08
   3361000   2.0781192e-10  133759.79      132182.33      661781.14      3.2956444e-06  5.1722915e-07  2.7784153e-06  1.3407174e+08
   3362000   2.0787375e-10  133751.54      132172.91      662165.34      3.2956434e-06  5.173994e-07   2.778244e-06   1.340709e+08 
   3363000   2.0793558e-10  133741.43      132164.57      661558.29      3.2956467e-06  5.1761281e-07  2.7780339e-06  1.3406923e+08
   3364000   2.0799741e-10  133724.11      132148.36      661174.85      3.295665e-06   5.1799076e-07  2.7776742e-06  1.3406535e+08
   3365000   2.0805924e-10  133727.28      132154.14      660302.74      3.2956639e-06  5.1792391e-07  2.77774e-06    1.3406738e+08
   3366000   2.0812107e-10  133728.42      132158.38      659268.25      3.2956699e-06  5.1790618e-07  2.7777638e-06  1.3406829e+08
   3367000   2.081829e-10   133718.57      132152.13      658055.19      3.295661e-06   5.1810183e-07  2.7775592e-06  1.340641e+08 
   3368000   2.0824473e-10  133718.15      132155.03      656940.43      3.2956535e-06  5.1810313e-07  2.7775503e-06  1.3406361e+08
   3369000   2.0830656e-10  133707.42      132147.39      655899.08      3.2956489e-06  5.1832135e-07  2.7773276e-06  1.3405866e+08
   3370000   2.0836839e-10  133715.34      132158.82      654732.29      3.2956456e-06  5.1815358e-07  2.7774921e-06  1.3406067e+08
   3371000   2.0843022e-10  133710.19      132156         653948.44      3.2956411e-06  5.1825607e-07  2.777385e-06   1.3405772e+08
   3372000   2.0849205e-10  133719.44      132165.18      653979.42      3.2956443e-06  5.1806721e-07  2.7775771e-06  1.3406149e+08
   3373000   2.0855389e-10  133734.06      132180.91      653622.46      3.2956491e-06  5.1776832e-07  2.7778808e-06  1.340673e+08 
   3374000   2.0861572e-10  133720.66      132169.05      653097.21      3.2956377e-06  5.1803516e-07  2.7776026e-06  1.3406144e+08
   3375000   2.0867755e-10  133720.57      132170.34      652632.17      3.2956367e-06  5.1803612e-07  2.7776006e-06  1.3406144e+08
   3376000   2.0873938e-10  133713.47      132165.65      651819.25      3.295642e-06   5.1818889e-07  2.7774531e-06  1.3405864e+08
   3377000   2.0880121e-10  133718.22      132171.7       651391.67      3.2956523e-06  5.1810041e-07  2.7775519e-06  1.3406236e+08
   3378000   2.0886304e-10  133696.11      132153.67      650002.53      3.2956451e-06  5.1855264e-07  2.7770925e-06  1.3405536e+08
   3379000   2.0892487e-10  133702.34      132162.81      649038.53      3.2956433e-06  5.1842135e-07  2.777222e-06   1.3405743e+08
   3380000   2.089867e-10   133719.74      132183.65      647902.93      3.2956451e-06  5.1806172e-07  2.7775834e-06  1.3406291e+08
   3381000   2.0904853e-10  133727.88      132193.19      647442.21      3.2956412e-06  5.1788877e-07  2.7777524e-06  1.3406445e+08
   3382000   2.0911036e-10  133715.8       132183.71      646561.79      3.2956353e-06  5.1813381e-07  2.7775015e-06  1.3405875e+08
   3383000   2.0917219e-10  133712.12      132182.54      645720.95      3.2956306e-06  5.1820541e-07  2.7774252e-06  1.3405755e+08
   3384000   2.0923402e-10  133717.58      132191.4       644587.19      3.295635e-06   5.180965e-07   2.7775385e-06  1.3405989e+08
   3385000   2.0929585e-10  133721.55      132198.6       643511.43      3.295649e-06   5.18028e-07    2.777621e-06   1.3406198e+08
   3386000   2.0935768e-10  133730.42      132211.31      642235.97      3.2956471e-06  5.1784181e-07  2.7778053e-06  1.3406551e+08
   3387000   2.0941951e-10  133731.29      132214.19      641564.07      3.295637e-06   5.1781378e-07  2.7778232e-06  1.340656e+08 
   3388000   2.0948134e-10  133718.63      132205.03      640383.68      3.295647e-06   5.180866e-07   2.7775604e-06  1.3406185e+08
   3389000   2.0954317e-10  133717.49      132207.1       639308.21      3.2956456e-06  5.1810892e-07  2.7775367e-06  1.340605e+08 
   3390000   2.09605e-10    133721.33      132213.54      638443.27      3.2956405e-06  5.1802397e-07  2.7776165e-06  1.3406042e+08
   3391000   2.0966683e-10  133730.43      132228.47      636501.92      3.2956263e-06  5.178208e-07   2.7778055e-06  1.3406255e+08
   3392000   2.0972866e-10  133724.1       132221.53      636695.81      3.2956213e-06  5.1794745e-07  2.7776739e-06  1.340599e+08 
   3393000   2.0979049e-10  133727.78      132225.58      636575.29      3.295625e-06   5.1787466e-07  2.7777503e-06  1.3406086e+08
   3394000   2.0985232e-10  133728.08      132223.13      637498.52      3.2956237e-06  5.1786711e-07  2.7777566e-06  1.3406043e+08
   3395000   2.0991415e-10  133724.31      132217.13      638241.64      3.2956196e-06  5.1794123e-07  2.7776784e-06  1.3405886e+08
   3396000   2.0997598e-10  133724.68      132214.64      639194.22      3.2956352e-06  5.1794928e-07  2.7776859e-06  1.3406137e+08
   3397000   2.1003781e-10  133732.36      132221.2       639578.83      3.2956384e-06  5.1779282e-07  2.7778456e-06  1.3406465e+08
   3398000   2.1009964e-10  133734.22      132224.7       639032.61      3.2956374e-06  5.1775317e-07  2.7778843e-06  1.3406495e+08
   3399000   2.1016148e-10  133733.36      132224.54      638797.91      3.2956204e-06  5.1775412e-07  2.7778663e-06  1.3406196e+08
   3400000   2.1022331e-10  133728.54      132221.86      638075.06      3.2956359e-06  5.1786985e-07  2.7777661e-06  1.3406083e+08
   3401000   2.1028514e-10  133723.41      132217.77      637725.87      3.2956529e-06  5.1799325e-07  2.7776597e-06  1.3406035e+08
   3402000   2.1034697e-10  133731.76      132229.05      636752.03      3.2956528e-06  5.1781965e-07  2.7778331e-06  1.3406417e+08
   3403000   2.104088e-10   133723.94      132220.55      636972.99      3.2956475e-06  5.1797675e-07  2.7776707e-06  1.340614e+08 
   3404000   2.1047063e-10  133743.61      132240.8       636799.46      3.2956529e-06  5.1757362e-07  2.7780792e-06  1.3407058e+08
   3405000   2.1053246e-10  133729.15      132226.3       636794.29      3.2956526e-06  5.1787377e-07  2.7777788e-06  1.3406497e+08
   3406000   2.1059429e-10  133738.1       132239.46      635397.48      3.2956425e-06  5.176777e-07   2.7779648e-06  1.3406804e+08
   3407000   2.1065612e-10  133734.74      132238.72      634516.81      3.2956452e-06  5.1775024e-07  2.777895e-06   1.3406666e+08
   3408000   2.1071795e-10  133730.01      132235.91      633872.34      3.2956406e-06  5.1784392e-07  2.7777967e-06  1.3406367e+08
   3409000   2.1077978e-10  133726.6       132234.42      633225.42      3.2956289e-06  5.1790289e-07  2.777726e-06   1.3406097e+08
   3410000   2.1084161e-10  133734.93      132245.09      632454.21      3.2956343e-06  5.1773523e-07  2.777899e-06   1.3406467e+08
   3411000   2.1090344e-10  133722         132236.24      631074.23      3.2956305e-06  5.1800023e-07  2.7776303e-06  1.3405962e+08
   3412000   2.1096527e-10  133712.82      132229.49      630253.98      3.2956346e-06  5.181948e-07   2.7774398e-06  1.3405629e+08
   3413000   2.110271e-10   133743.48      132261.63      629788.5       3.2956336e-06  5.1755702e-07  2.7780766e-06  1.3406659e+08
   3414000   2.1108893e-10  133738.26      132259.41      628779         3.2956378e-06  5.1766969e-07  2.7779682e-06  1.3406355e+08
   3415000   2.1115076e-10  133740.98      132263.59      628294.04      3.2956401e-06  5.1761552e-07  2.7780246e-06  1.3406509e+08
   3416000   2.1121259e-10  133734.9       132261.27      627028.85      3.2956334e-06  5.1773521e-07  2.7778982e-06  1.3406373e+08
   3417000   2.1127442e-10  133721.89      132252.43      625619.44      3.2956302e-06  5.1800218e-07  2.777628e-06   1.3405942e+08
   3418000   2.1133625e-10  133717.7       132250.25      624943.52      3.295638e-06   5.1809711e-07  2.7775409e-06  1.340592e+08 
   3419000   2.1139808e-10  133732.94      132267.51      624283.45      3.2956439e-06  5.1778635e-07  2.7778575e-06  1.3406611e+08
   3420000   2.1145991e-10  133726.55      132262.13      623941.97      3.2956654e-06  5.1794053e-07  2.7777249e-06  1.340657e+08 
   3421000   2.1152174e-10  133718.26      132256.01      623205.38      3.2956656e-06  5.1811301e-07  2.7775526e-06  1.3406344e+08
   3422000   2.1158357e-10  133719.67      132259.14      622634.42      3.2956564e-06  5.1807439e-07  2.777582e-06   1.3406348e+08
   3423000   2.116454e-10   133725.61      132265.76      622412.05      3.2956549e-06  5.1794949e-07  2.7777054e-06  1.3406503e+08
   3424000   2.1170723e-10  133726.83      132265.64      622864.65      3.2956493e-06  5.1791856e-07  2.7777308e-06  1.3406451e+08
   3425000   2.1176907e-10  133711.72      132252.19      622291.37      3.2956379e-06  5.1822108e-07  2.7774168e-06  1.3405687e+08
   3426000   2.118309e-10   133713.41      132256.49      621419.86      3.2956243e-06  5.1817246e-07  2.7774519e-06  1.3405482e+08
   3427000   2.1189273e-10  133712.63      132257.21      620920.03      3.2956318e-06  5.18196e-07    2.7774358e-06  1.3405441e+08
   3428000   2.1195456e-10  133737.44      132283.17      620560.25      3.2956248e-06  5.1767369e-07  2.7779511e-06  1.3406308e+08
   3429000   2.1201639e-10  133745.68      132292.53      620192.42      3.2956196e-06  5.1749733e-07  2.7781223e-06  1.3406452e+08
   3430000   2.1207822e-10  133765.95      132313         620146.68      3.2956375e-06  5.1709424e-07  2.7785433e-06  1.3407316e+08
   3431000   2.1214005e-10  133752.9       132301.98      619454.3       3.2956399e-06  5.1736762e-07  2.7782723e-06  1.3406897e+08
   3432000   2.1220188e-10  133738.49      132289.3       618858.88      3.295643e-06   5.1767018e-07  2.7779728e-06  1.3406541e+08
   3433000   2.1226371e-10  133732.36      132285.22      618168.96      3.2956402e-06  5.1779474e-07  2.7778455e-06  1.3406437e+08
   3434000   2.1232554e-10  133713.33      132269.9       616909.98      3.2956316e-06  5.1818133e-07  2.7774503e-06  1.3405801e+08
   3435000   2.1238737e-10  133722.47      132281.23      616184.9       3.2956364e-06  5.1799625e-07  2.7776401e-06  1.3406194e+08
   3436000   2.124492e-10   133734.11      132295.01      615483.34      3.2956396e-06  5.177576e-07   2.777882e-06   1.3406564e+08
   3437000   2.1251103e-10  133738.58      132298.79      615716.67      3.2956476e-06  5.1767287e-07  2.7779748e-06  1.3406683e+08
   3438000   2.1257286e-10  133742.2       132304.5       615023.44      3.2956399e-06  5.1758991e-07  2.77805e-06    1.3406666e+08
   3439000   2.1263469e-10  133733.75      132300.08      613664.8       3.2956487e-06  5.1777435e-07  2.7778744e-06  1.3406366e+08
   3440000   2.1269652e-10  133727.45      132295.58      613056.01      3.29566e-06    5.1791636e-07  2.7777436e-06  1.3406254e+08
   3441000   2.1275835e-10  133724.61      132295.05      612280.59      3.2956497e-06  5.1796517e-07  2.7776846e-06  1.3406127e+08
   3442000   2.1282018e-10  133730.24      132302.54      611662.95      3.2956383e-06  5.1783678e-07  2.7778015e-06  1.3406387e+08
   3443000   2.1288201e-10  133730.5       132306.46      610441.35      3.2956201e-06  5.1781323e-07  2.7778069e-06  1.3406337e+08
   3444000   2.1294384e-10  133743.47      132320.11      610225.01      3.2956138e-06  5.175375e-07   2.7780763e-06  1.3406694e+08
   3445000   2.1300567e-10  133744.58      132318.45      611152.08      3.2956168e-06  5.175175e-07   2.7780993e-06  1.3406598e+08
   3446000   2.130675e-10   133734.6       132308.02      611293.7       3.2956133e-06  5.177212e-07   2.7778921e-06  1.3406044e+08
   3447000   2.1312933e-10  133744.98      132319.34      610991.1       3.2956243e-06  5.1751669e-07  2.7781076e-06  1.3406533e+08
   3448000   2.1319116e-10  133732.7       132307.9       610695.62      3.2956341e-06  5.1778163e-07  2.7778525e-06  1.3406169e+08
   3449000   2.1325299e-10  133730.04      132306.22      610364.74      3.2956095e-06  5.1781219e-07  2.7777973e-06  1.3406027e+08
   3450000   2.1331482e-10  133722.86      132303.28      608940.59      3.295614e-06   5.179657e-07   2.7776483e-06  1.3405848e+08
   3451000   2.1337666e-10  133725.69      132309.47      607820.43      3.2956333e-06  5.179262e-07   2.7777071e-06  1.3406093e+08
   3452000   2.1343849e-10  133718.98      132303.18      607674.05      3.2956272e-06  5.1805955e-07  2.7775676e-06  1.3405882e+08
   3453000   2.1350032e-10  133728.76      132314.44      607189.62      3.2956378e-06  5.178669e-07   2.7777709e-06  1.3406454e+08
   3454000   2.1356215e-10  133727.53      132315.61      606385.57      3.295616e-06   5.1787071e-07  2.7777453e-06  1.3406259e+08
   3455000   2.1362398e-10  133723.44      132312.59      606020.49      3.2956343e-06  5.1797406e-07  2.7776603e-06  1.3406205e+08
   3456000   2.1368581e-10  133725.43      132317.18      605153.11      3.2956139e-06  5.179123e-07   2.7777016e-06  1.3406049e+08
   3457000   2.1374764e-10  133737.16      132331.18      604408.13      3.2956118e-06  5.1766649e-07  2.7779453e-06  1.3406375e+08
   3458000   2.1380947e-10  133746.48      132341.63      604037.92      3.295619e-06   5.1748021e-07  2.7781388e-06  1.3406646e+08
   3459000   2.138713e-10   133735.55      132331.91      603623.16      3.2956197e-06  5.1770787e-07  2.7779118e-06  1.3406123e+08
   3460000   2.1393313e-10  133732.83      132330.07      603324.14      3.2956304e-06  5.1777524e-07  2.7778552e-06  1.3406113e+08
   3461000   2.1399496e-10  133721.82      132321.11      602630.34      3.2956375e-06  5.1801093e-07  2.7776266e-06  1.3405779e+08
   3462000   2.1405679e-10  133743.43      132343.08      602528.78      3.2956407e-06  5.1756526e-07  2.7780754e-06  1.3406682e+08
   3463000   2.1411862e-10  133727.76      132331.68      601087.63      3.2956508e-06  5.1790083e-07  2.77775e-06    1.3406219e+08
   3464000   2.1418045e-10  133724.32      132331.39      600031.43      3.2956469e-06  5.1796833e-07  2.7776785e-06  1.3406054e+08
   3465000   2.1424228e-10  133747.08      132356.33      599322.41      3.2956522e-06  5.175009e-07   2.7781513e-06  1.3406963e+08
   3466000   2.1430411e-10  133746.18      132359.8       597859.58      3.2956467e-06  5.1751414e-07  2.7781325e-06  1.3406894e+08
   3467000   2.1436594e-10  133722.61      132338.32      597141.55      3.2956551e-06  5.1801203e-07  2.7776431e-06  1.340617e+08 
   3468000   2.1442777e-10  133708.14      132322.39      597612.69      3.295667e-06   5.1832454e-07  2.7773425e-06  1.3405874e+08
   3469000   2.144896e-10   133714.12      132329.74      597160.31      3.2956593e-06  5.1819262e-07  2.7774667e-06  1.3406121e+08
   3470000   2.1455143e-10  133728.4       132346         596509.57      3.2956509e-06  5.178877e-07   2.7777632e-06  1.3406604e+08
   3471000   2.1461326e-10  133733.79      132351.97      596323.02      3.2956446e-06  5.1776936e-07  2.7778753e-06  1.3406662e+08
   3472000   2.1467509e-10  133724.11      132342.55      596224.75      3.2956401e-06  5.1796599e-07  2.7776741e-06  1.3406186e+08
   3473000   2.1473692e-10  133709.85      132329.21      595904.29      3.2956304e-06  5.1825238e-07  2.777378e-06   1.3405547e+08
   3474000   2.1479875e-10  133722.85      132342.55      595806.05      3.295633e-06   5.1798489e-07  2.7776481e-06  1.3406187e+08
   3475000   2.1486058e-10  133704.08      132324.26      595624.76      3.2956246e-06  5.1836648e-07  2.7772581e-06  1.3405459e+08
   3476000   2.1492241e-10  133714.99      132333.79      596095.09      3.2956322e-06  5.1814754e-07  2.7774846e-06  1.3405891e+08
   3477000   2.1498425e-10  133723.75      132340.21      596891.2       3.2956406e-06  5.1797382e-07  2.7776668e-06  1.3406271e+08
   3478000   2.1504608e-10  133726.71      132345.51      596109.36      3.2956512e-06  5.1792304e-07  2.7777282e-06  1.3406549e+08
   3479000   2.1510791e-10  133726.48      132346.19      595806.87      3.2956412e-06  5.1791772e-07  2.7777234e-06  1.3406473e+08
   3480000   2.1516974e-10  133730.79      132354.77      594380.61      3.2956581e-06  5.1784515e-07  2.7778129e-06  1.3406706e+08
   3481000   2.1523157e-10  133727.2       132353.38      593640.34      3.2956513e-06  5.1791305e-07  2.7777383e-06  1.3406379e+08
   3482000   2.152934e-10   133731.4       132359.19      593109.31      3.2956418e-06  5.1781615e-07  2.7778257e-06  1.3406379e+08
   3483000   2.1535523e-10  133733.68      132359.48      593774.65      3.2956358e-06  5.177628e-07   2.777873e-06   1.3406416e+08
   3484000   2.1541706e-10  133733.79      132359.27      593881.62      3.295642e-06   5.1776676e-07  2.7778753e-06  1.3406533e+08
   3485000   2.1547889e-10  133725.57      132353.44      593072.2       3.2956427e-06  5.1793822e-07  2.7777044e-06  1.3406229e+08
   3486000   2.1554072e-10  133738.09      132369.63      591859.1       3.2956295e-06  5.1766495e-07  2.7779645e-06  1.3406655e+08
   3487000   2.1560255e-10  133735.44      132368.9       591216.05      3.2956236e-06  5.1771404e-07  2.7779096e-06  1.3406561e+08
   3488000   2.1566438e-10  133734.13      132368.5       590908.12      3.2956171e-06  5.1773487e-07  2.7778823e-06  1.3406486e+08
   3489000   2.1572621e-10  133728.15      132365.52      589897.22      3.2956435e-06  5.1788554e-07  2.777758e-06   1.3406375e+08
   3490000   2.1578804e-10  133728.63      132369.12      588858.56      3.2956459e-06  5.1787775e-07  2.7777682e-06  1.3406365e+08
   3491000   2.1584987e-10  133740.52      132383.25      588122.16      3.2956626e-06  5.1764755e-07  2.7780151e-06  1.3406948e+08
   3492000   2.159117e-10   133738.31      132384.98      586800.04      3.2956535e-06  5.1768427e-07  2.7779692e-06  1.3406783e+08
   3493000   2.1597353e-10  133733.3       132381.25      586368.49      3.2956539e-06  5.1778874e-07  2.7778651e-06  1.3406582e+08
   3494000   2.1603536e-10  133742.47      132392.44      585697.89      3.2956627e-06  5.1760718e-07  2.7780555e-06  1.3407018e+08
   3495000   2.1609719e-10  133729.54      132384.35      584067.77      3.2956772e-06  5.1789027e-07  2.7777869e-06  1.3406671e+08
   3496000   2.1615902e-10  133727.61      132385.08      583176.57      3.2956669e-06  5.1792006e-07  2.7777468e-06  1.3406592e+08
   3497000   2.1622085e-10  133728.4       132388.73      582224.49      3.2956631e-06  5.1789972e-07  2.7777634e-06  1.3406629e+08
   3498000   2.1628268e-10  133739.23      132399.98      582094.26      3.2956518e-06  5.1766348e-07  2.7779883e-06  1.34069e+08  
   3499000   2.1634451e-10  133735.43      132399.4       581009.14      3.295647e-06   5.1773768e-07  2.7779093e-06  1.3406643e+08
   3500000   2.1640634e-10  133730.51      132396.53      580319.6       3.2956411e-06  5.1783397e-07  2.7778071e-06  1.3406466e+08
   3501000   2.1646817e-10  133724.42      132393.54      579276.41      3.2956425e-06  5.1796194e-07  2.7776806e-06  1.3406273e+08
   3502000   2.1653e-10     133721.98      132391.23      579232.06      3.2956391e-06  5.1800916e-07  2.7776299e-06  1.3406053e+08
   3503000   2.1659184e-10  133737.04      132408.46      578520.95      3.2956255e-06  5.1768282e-07  2.7779427e-06  1.3406399e+08
   3504000   2.1665367e-10  133744.76      132417.28      578161.82      3.2956291e-06  5.1752592e-07  2.7781032e-06  1.3406555e+08
   3505000   2.167155e-10   133741.89      132415.62      577752.02      3.2956288e-06  5.1758541e-07  2.7780434e-06  1.3406339e+08
   3506000   2.1677733e-10  133729.77      132409.24      575821.38      3.2956382e-06  5.1784641e-07  2.7777918e-06  1.3405991e+08
   3507000   2.1683916e-10  133735.35      132419.37      574303.76      3.2956364e-06  5.1772879e-07  2.7779076e-06  1.3406305e+08
   3508000   2.1690099e-10  133719.88      132406.86      573299.59      3.2956226e-06  5.1803629e-07  2.7775863e-06  1.3405718e+08
   3509000   2.1696282e-10  133732.28      132421.62      572522.52      3.2956286e-06  5.1778475e-07  2.7778438e-06  1.3406292e+08
   3510000   2.1702465e-10  133747.01      132440.27      571225.6       3.2956327e-06  5.1748289e-07  2.7781498e-06  1.34069e+08  
   3511000   2.1708648e-10  133737.99      132432.89      570667.25      3.2956384e-06  5.1767599e-07  2.7779624e-06  1.340668e+08 
   3512000   2.1714831e-10  133737.48      132434.97      569800.75      3.2956351e-06  5.1768323e-07  2.7779519e-06  1.3406739e+08
   3513000   2.1721014e-10  133730.54      132429.48      569309.35      3.2956332e-06  5.1782545e-07  2.7778078e-06  1.3406471e+08
   3514000   2.1727197e-10  133727.57      132426.94      569164.28      3.2956371e-06  5.1789108e-07  2.777746e-06   1.3406278e+08
   3515000   2.173338e-10   133747.71      132448.5       568709.12      3.2956429e-06  5.1747857e-07  2.7781643e-06  1.3406942e+08
   3516000   2.1739563e-10  133737.1       132436.78      569068.21      3.2956506e-06  5.1770661e-07  2.777944e-06   1.3406572e+08
   3517000   2.1745746e-10  133732.93      132434.63      568390.78      3.2956536e-06  5.1779617e-07  2.7778575e-06  1.3406507e+08
   3518000   2.1751929e-10  133730.62      132434.87      567534.18      3.295644e-06   5.1783458e-07  2.7778094e-06  1.3406407e+08
   3519000   2.1758112e-10  133733.44      132441.33      566317.16      3.2956347e-06  5.1776682e-07  2.7778679e-06  1.3406477e+08
   3520000   2.1764295e-10  133733.78      132445.75      564957.36      3.2956556e-06  5.1778056e-07  2.7778751e-06  1.3406575e+08
   3521000   2.1770478e-10  133732.25      132446.92      564051.92      3.2956402e-06  5.1779692e-07  2.7778433e-06  1.3406298e+08
   3522000   2.1776661e-10  133748.93      132464.33      563822.5       3.2956383e-06  5.174486e-07   2.7781897e-06  1.3406891e+08
   3523000   2.1782844e-10  133745.85      132462.3       563469.1       3.2956144e-06  5.1748861e-07  2.7781258e-06  1.3406506e+08
   3524000   2.1789027e-10  133733.77      132449.57      563674.41      3.295615e-06   5.1774014e-07  2.7778748e-06  1.3405919e+08
   3525000   2.179521e-10   133750.01      132464.19      564233.33      3.2956024e-06  5.1739032e-07  2.7782121e-06  1.3406402e+08
   3526000   2.1801393e-10  133742.72      132457.55      564007.77      3.2956156e-06  5.175549e-07   2.7780607e-06  1.3406247e+08
   3527000   2.1807576e-10  133745.28      132460.03      564040.34      3.2956339e-06  5.1751994e-07  2.778114e-06   1.3406503e+08
   3528000   2.1813759e-10  133753.47      132468.31      564015.89      3.2956348e-06  5.1735074e-07  2.778284e-06   1.3406811e+08
   3529000   2.1819943e-10  133754.79      132470.56      563706.37      3.2956235e-06  5.1731212e-07  2.7783114e-06  1.340678e+08 
   3530000   2.1826126e-10  133751.66      132470.52      562669.57      3.2956305e-06  5.1738401e-07  2.7782465e-06  1.3406836e+08
   3531000   2.1832309e-10  133737.42      132460.12      561371.88      3.2956332e-06  5.1768251e-07  2.7779507e-06  1.3406513e+08
   3532000   2.1838492e-10  133718.77      132443.45      560688.1       3.2956237e-06  5.1806049e-07  2.7775632e-06  1.3405823e+08
   3533000   2.1844675e-10  133717.28      132443.34      560227.13      3.2956162e-06  5.1808393e-07  2.7775323e-06  1.3405691e+08
   3534000   2.1850858e-10  133722.49      132450.88      559453.05      3.2956492e-06  5.180087e-07   2.7776405e-06  1.3406097e+08
   3535000   2.1857041e-10  133728.81      132460.67      558300.26      3.2956377e-06  5.1786582e-07  2.7777719e-06  1.3406296e+08
   3536000   2.1863224e-10  133719.99      132451.61      558371.88      3.2956389e-06  5.1805029e-07  2.7775886e-06  1.3406117e+08
   3537000   2.1869407e-10  133703.59      132435.69      558192.36      3.2956448e-06  5.1839688e-07  2.7772479e-06  1.3405704e+08
   3538000   2.187559e-10   133704.4       132439         557356.17      3.2956435e-06  5.1837881e-07  2.7772647e-06  1.340591e+08 
   3539000   2.1881773e-10  133704.01      132442.93      555913.56      3.2956582e-06  5.1840149e-07  2.7772567e-06  1.3406036e+08
   3540000   2.1887956e-10  133696.78      132438.2       555070.89      3.2956637e-06  5.1855721e-07  2.7771065e-06  1.3405691e+08
   3541000   2.1894139e-10  133716.39      132459.88      554395.93      3.2956602e-06  5.1814634e-07  2.7775138e-06  1.3406243e+08
   3542000   2.1900322e-10  133720.35      132463.7       554449.64      3.2956601e-06  5.1806394e-07  2.7775961e-06  1.3406297e+08
   3543000   2.1906505e-10  133724.52      132468.85      554123.37      3.2956633e-06  5.1798056e-07  2.7776827e-06  1.3406523e+08
   3544000   2.1912688e-10  133714.98      132460.93      553573.21      3.2956539e-06  5.1816936e-07  2.7774845e-06  1.3406182e+08
   3545000   2.1918871e-10  133720.82      132468.48      553007.19      3.295667e-06   5.180612e-07   2.7776058e-06  1.340659e+08 
   3546000   2.1925054e-10  133720.29      132470.22      552244.88      3.2956669e-06  5.1807212e-07  2.7775948e-06  1.3406596e+08
   3547000   2.1931237e-10  133720.33      132471.35      551884.43      3.2956747e-06  5.1807906e-07  2.7775957e-06  1.3406727e+08
   3548000   2.193742e-10   133708.38      132463.11      550626.93      3.2956706e-06  5.1832323e-07  2.7773474e-06  1.3406332e+08
   3549000   2.1943603e-10  133696.52      132454.05      549678.91      3.2956585e-06  5.185575e-07   2.777101e-06   1.340581e+08 
   3550000   2.1949786e-10  133709.78      132466.19      550067.85      3.2956651e-06  5.182887e-07   2.7773764e-06  1.3406322e+08
   3551000   2.1955969e-10  133723.81      132481.79      549558.29      3.2956535e-06  5.179856e-07   2.7776679e-06  1.3406563e+08
   3552000   2.1962152e-10  133737.04      132494.37      549790.78      3.295644e-06   5.1770119e-07  2.7779428e-06  1.3406748e+08
   3553000   2.1968335e-10  133736.82      132496.56      548982.25      3.295647e-06   5.1770875e-07  2.7779382e-06  1.340672e+08 
   3554000   2.1974518e-10  133716         132476.19      548811.12      3.2956292e-06  5.1812358e-07  2.7775057e-06  1.3405785e+08
   3555000   2.1980702e-10  133716.8       132478.33      548363.09      3.295626e-06   5.1810362e-07  2.7775224e-06  1.3405755e+08
   3556000   2.1986885e-10  133738.44      132500.59      548179.01      3.2956209e-06  5.1764914e-07  2.7779718e-06  1.3406497e+08
   3557000   2.1993068e-10  133737.44      132502.01      547368.3       3.2956176e-06  5.1766642e-07  2.7779511e-06  1.3406415e+08
   3558000   2.1999251e-10  133723.27      132490.5       546464.92      3.2956267e-06  5.1796994e-07  2.7776568e-06  1.3405981e+08
   3559000   2.2005434e-10  133716.92      132487.68      545277.83      3.2956325e-06  5.1810759e-07  2.7775249e-06  1.3405779e+08
   3560000   2.2011617e-10  133715.79      132488.27      544698.84      3.2956248e-06  5.1812355e-07  2.7775013e-06  1.3405681e+08
   3561000   2.20178e-10    133715.28      132490.53      543775.5       3.2956406e-06  5.181498e-07   2.7774908e-06  1.3405779e+08
   3562000   2.2023983e-10  133722.46      132498.28      543590.56      3.2956387e-06  5.1799878e-07  2.7776399e-06  1.3406027e+08
   3563000   2.2030166e-10  133726.07      132500.98      543898.67      3.2956176e-06  5.1790265e-07  2.7777149e-06  1.3406063e+08
   3564000   2.2036349e-10  133735.84      132511.27      543733.69      3.295632e-06   5.1771417e-07  2.7779178e-06  1.3406696e+08
   3565000   2.2042532e-10  133729.82      132506.59      543281.09      3.2956264e-06  5.1783359e-07  2.7777928e-06  1.3406509e+08
   3566000   2.2048715e-10  133736.96      132514.68      542968.28      3.2956342e-06  5.1769311e-07  2.7779411e-06  1.3406889e+08
   3567000   2.2054898e-10  133719.66      132498.04      542729.97      3.29565e-06    5.1806828e-07  2.7775817e-06  1.3406339e+08
   3568000   2.2061081e-10  133715.66      132495.74      542158.25      3.2956541e-06  5.1815541e-07  2.7774987e-06  1.3406253e+08
   3569000   2.2067264e-10  133724.82      132508.17      541073.54      3.2956664e-06  5.1797761e-07  2.7776888e-06  1.3406657e+08
   3570000   2.2073447e-10  133733.39      132518.03      540651.89      3.2956593e-06  5.1779234e-07  2.777867e-06   1.3406799e+08
   3571000   2.207963e-10   133737.09      132526.7       538990.19      3.2956445e-06  5.177008e-07   2.7779437e-06  1.3406768e+08
   3572000   2.2085813e-10  133736         132527.55      538343.17      3.2956358e-06  5.1771456e-07  2.7779212e-06  1.3406701e+08
   3573000   2.2091996e-10  133726.47      132517.19      538612.03      3.2956458e-06  5.1792262e-07  2.7777232e-06  1.3406348e+08
   3574000   2.2098179e-10  133724         132515.68      538288.58      3.29564e-06    5.1796803e-07  2.777672e-06   1.3406155e+08
   3575000   2.2104362e-10  133729.2       132522.22      537842.25      3.2956479e-06  5.1786801e-07  2.7777798e-06  1.3406335e+08
   3576000   2.2110545e-10  133737.36      132532.45      537161.42      3.2956386e-06  5.1768924e-07  2.7779494e-06  1.3406506e+08
   3577000   2.2116728e-10  133729.14      132526.1       536526.56      3.2956307e-06  5.1785203e-07  2.7777787e-06  1.3406112e+08
   3578000   2.2122911e-10  133727.58      132530.06      534680.8       3.2956418e-06  5.1789548e-07  2.7777464e-06  1.3406132e+08
   3579000   2.2129094e-10  133717.44      132521.67      534084.63      3.2956387e-06  5.1810303e-07  2.7775356e-06  1.3405761e+08
   3580000   2.2135277e-10  133736.23      132540.97      533930.8       3.2956535e-06  5.1772758e-07  2.7779259e-06  1.3406698e+08
   3581000   2.2141461e-10  133733.92      132537.65      534266.94      3.2956463e-06  5.1776836e-07  2.7778779e-06  1.3406648e+08
   3582000   2.2147644e-10  133717.07      132522.74      533603.8       3.2956329e-06  5.181049e-07   2.777528e-06   1.3405987e+08
   3583000   2.2153827e-10  133717.65      132528.68      531808.89      3.2956457e-06  5.1810572e-07  2.77754e-06    1.3406041e+08
   3584000   2.216001e-10   133719.34      132530.76      531678.39      3.2956403e-06  5.1806528e-07  2.777575e-06   1.3405903e+08
   3585000   2.2166193e-10  133735.2       132547.42      531430.31      3.2956393e-06  5.1773467e-07  2.7779046e-06  1.340649e+08 
   3586000   2.2172376e-10  133718.86      132532.41      530966.05      3.295641e-06   5.1807597e-07  2.7775651e-06  1.3405917e+08
   3587000   2.2178559e-10  133725.46      132542.06      529956.7       3.2956378e-06  5.1793558e-07  2.7777023e-06  1.3406227e+08
   3588000   2.2184742e-10  133727.79      132546.92      529110.92      3.2956576e-06  5.1790701e-07  2.7777506e-06  1.3406543e+08
   3589000   2.2190925e-10  133718.1       132539.79      528246.02      3.2956644e-06  5.1811505e-07  2.7775494e-06  1.3406287e+08
   3590000   2.2197108e-10  133736.88      132560.14      527737.95      3.2956599e-06  5.1772049e-07  2.7779394e-06  1.3407051e+08
   3591000   2.2203291e-10  133728.11      132552.08      527492.16      3.2956497e-06  5.1789255e-07  2.7777572e-06  1.3406611e+08
   3592000   2.2209474e-10  133740.98      132568.14      526440.12      3.2956524e-06  5.1762773e-07  2.7780247e-06  1.3406964e+08
   3593000   2.2215657e-10  133741.21      132570.16      525840.66      3.2956554e-06  5.1762606e-07  2.7780293e-06  1.3406896e+08
   3594000   2.222184e-10   133735.13      132566.88      524897.67      3.2956585e-06  5.1775543e-07  2.7779031e-06  1.34067e+08  
   3595000   2.2228023e-10  133725.96      132561.03      523777.1       3.2956535e-06  5.1794098e-07  2.7777125e-06  1.3406381e+08
   3596000   2.2234206e-10  133715.22      132551.45      523377.74      3.2956474e-06  5.1815793e-07  2.7774895e-06  1.3406032e+08
   3597000   2.2240389e-10  133716.47      132554.56      522755.94      3.2956465e-06  5.1813106e-07  2.7775154e-06  1.3406076e+08
   3598000   2.2246572e-10  133726.2       132567.63      521650.22      3.2956397e-06  5.1792214e-07  2.7777176e-06  1.3406237e+08
   3599000   2.2252755e-10  133722.58      132568.76      520058.19      3.2956307e-06  5.1798833e-07  2.7776424e-06  1.3405905e+08
   3600000   2.2258938e-10  133725.88      132573.82      519473.1       3.2956313e-06  5.1792045e-07  2.7777109e-06  1.3406036e+08
   3601000   2.2265121e-10  133717.81      132568.93      518403.19      3.2956182e-06  5.1807483e-07  2.7775433e-06  1.3405643e+08
   3602000   2.2271304e-10  133711.04      132560.68      518889         3.295624e-06   5.1822138e-07  2.7774026e-06  1.3405444e+08
   3603000   2.2277487e-10  133728.02      132577.81      518857.19      3.2956202e-06  5.1786482e-07  2.7777554e-06  1.3406052e+08
   3604000   2.228367e-10   133730.17      132582.54      517994.15      3.295634e-06   5.1783405e-07  2.7778e-06     1.3406169e+08
   3605000   2.2289853e-10  133747.88      132602.22      517353.6       3.29563e-06    5.1746214e-07  2.7781678e-06  1.3406815e+08
   3606000   2.2296036e-10  133740.72      132597.57      516510.21      3.2956236e-06  5.1760431e-07  2.7780193e-06  1.3406584e+08
   3607000   2.230222e-10   133721.68      132579.32      516224.14      3.2956397e-06  5.1801597e-07  2.7776237e-06  1.3406127e+08
   3608000   2.2308403e-10  133699.41      132560.06      515195.96      3.2956558e-06  5.1849459e-07  2.7771612e-06  1.3405462e+08
   3609000   2.2314586e-10  133734.38      132598.27      514147.8       3.2956648e-06  5.1777728e-07  2.7778875e-06  1.3406866e+08
   3610000   2.2320769e-10  133753.01      132618.01      513793.31      3.2956615e-06  5.1738706e-07  2.7782744e-06  1.34075e+08  
   3611000   2.2326952e-10  133738.62      132605.29      513223.76      3.2956713e-06  5.1769575e-07  2.7779756e-06  1.3407065e+08
   3612000   2.2333135e-10  133726.45      132594.37      512793.51      3.2956639e-06  5.1794104e-07  2.7777229e-06  1.3406627e+08
   3613000   2.2339318e-10  133724.85      132594.57      512188.34      3.2956575e-06  5.179679e-07   2.7776896e-06  1.3406587e+08
   3614000   2.2345501e-10  133712.76      132582.45      512188.27      3.2956737e-06  5.1823524e-07  2.7774385e-06  1.3406295e+08
   3615000   2.2351684e-10  133710.14      132580.19      512064.8       3.295671e-06   5.1828691e-07  2.7773841e-06  1.3406238e+08
   3616000   2.2357867e-10  133703.42      132573.11      512175.16      3.2956592e-06  5.1841489e-07  2.7772444e-06  1.3406006e+08
   3617000   2.236405e-10   133701.84      132571.12      512311.23      3.2956622e-06  5.1845069e-07  2.7772115e-06  1.3405988e+08
   3618000   2.2370233e-10  133701.73      132572.79      511716.62      3.2956578e-06  5.1844861e-07  2.7772092e-06  1.3405886e+08
   3619000   2.2376416e-10  133702.83      132574.13      511638.77      3.2956428e-06  5.1841065e-07  2.7772322e-06  1.3405653e+08
   3620000   2.2382599e-10  133733.58      132608.05      510610.23      3.2956288e-06  5.1775793e-07  2.7778709e-06  1.3406478e+08
   3621000   2.2388782e-10  133741.26      132618.01      509851.89      3.2956407e-06  5.176104e-07   2.7780303e-06  1.3406668e+08
   3622000   2.2394965e-10  133752.7       132630.54      509499.45      3.2956449e-06  5.1737694e-07  2.778268e-06   1.3407236e+08
   3623000   2.2401148e-10  133722.03      132600.42      509286.63      3.2956497e-06  5.180187e-07   2.777631e-06   1.3406221e+08
   3624000   2.2407331e-10  133737.72      132618.51      508500.22      3.295658e-06   5.177011e-07   2.7779569e-06  1.340694e+08 
   3625000   2.2413514e-10  133731.43      132614.69      507666.4       3.2956497e-06  5.178235e-07   2.7778262e-06  1.340657e+08 
   3626000   2.2419697e-10  133715.47      132599.87      507268.53      3.2956372e-06  5.1814251e-07  2.7774947e-06  1.3405799e+08
   3627000   2.242588e-10   133728.66      132617.54      505786.17      3.2956328e-06  5.1786409e-07  2.7777687e-06  1.3406279e+08
   3628000   2.2432063e-10  133726.74      132616.7       505422.99      3.2956492e-06  5.1792034e-07  2.7777289e-06  1.3406283e+08
   3629000   2.2438246e-10  133733.9       132624.6       505181.84      3.2956468e-06  5.1776929e-07  2.7778775e-06  1.3406514e+08
   3630000   2.2444429e-10  133736.68      132627.2       505243.41      3.2956424e-06  5.1770716e-07  2.7779353e-06  1.3406601e+08
   3631000   2.2450612e-10  133721.08      132611.78      505166.07      3.2956355e-06  5.1802431e-07  2.7776112e-06  1.3405954e+08
   3632000   2.2456795e-10  133733.46      132625.6       504696.63      3.295642e-06   5.1777373e-07  2.7778683e-06  1.340652e+08 
   3633000   2.2462979e-10  133730.67      132628.37      502835.68      3.2956214e-06  5.1781109e-07  2.7778103e-06  1.3406291e+08
   3634000   2.2469162e-10  133724.99      132624.26      502305.75      3.295624e-06   5.1793149e-07  2.7776925e-06  1.3406062e+08
   3635000   2.2475345e-10  133727.81      132629.69      501435.67      3.2956205e-06  5.1786951e-07  2.777751e-06   1.3406094e+08
   3636000   2.2481528e-10  133733.59      132635.52      501424.32      3.2956212e-06  5.1775016e-07  2.7778711e-06  1.3406208e+08
   3637000   2.2487711e-10  133736.66      132637.1       501927.2       3.2956192e-06  5.1768426e-07  2.7779349e-06  1.340622e+08 
   3638000   2.2493894e-10  133731.83      132631.47      502188.88      3.2956379e-06  5.1780346e-07  2.7778345e-06  1.3406208e+08
   3639000   2.2500077e-10  133723.12      132622.27      502343.08      3.2956438e-06  5.1799031e-07  2.7776535e-06  1.3405977e+08
   3640000   2.250626e-10   133726.18      132625.43      502313.51      3.2956475e-06  5.1793021e-07  2.7777172e-06  1.3406264e+08
   3641000   2.2512443e-10  133714.83      132615.04      501980.33      3.295641e-06   5.1815965e-07  2.7774814e-06  1.3405928e+08
   3642000   2.2518626e-10  133731.96      132631.82      502115.98      3.2956565e-06  5.1781929e-07  2.7778372e-06  1.3406781e+08
   3643000   2.2524809e-10  133727.21      132627.45      501983.29      3.2956517e-06  5.1791317e-07  2.7777386e-06  1.3406571e+08
   3644000   2.2530992e-10  133726.2       132627.76      501541.62      3.2956542e-06  5.179366e-07   2.7777176e-06  1.3406506e+08
   3645000   2.2537175e-10  133731.16      132635.97      500456.58      3.295672e-06   5.1785146e-07  2.7778206e-06  1.3406807e+08
   3646000   2.2543358e-10  133717.23      132624.31      499684.2       3.2956533e-06  5.1812212e-07  2.7775312e-06  1.3406226e+08
   3647000   2.2549541e-10  133709.49      132618.64      498984.34      3.2956662e-06  5.1829575e-07  2.7773705e-06  1.3406162e+08
   3648000   2.2555724e-10  133711.33      132619.08      499458.53      3.295662e-06   5.1825323e-07  2.7774088e-06  1.3406284e+08
   3649000   2.2561907e-10  133713         132619.58      499847.39      3.2956739e-06  5.1823045e-07  2.7774434e-06  1.340638e+08 
   3650000   2.256809e-10   133717.5       132625.55      499361.78      3.2956786e-06  5.181416e-07   2.777537e-06   1.3406471e+08
   3651000   2.2574273e-10  133720.92      132631.51      498514.26      3.2956683e-06  5.1806045e-07  2.7776078e-06  1.3406469e+08
   3652000   2.2580456e-10  133708.61      132617.93      498928.98      3.295647e-06   5.182948e-07   2.7773522e-06  1.3405738e+08
   3653000   2.2586639e-10  133722.58      132631.76      498991.88      3.2956381e-06  5.1799558e-07  2.7776425e-06  1.3406227e+08
   3654000   2.2592822e-10  133716.3       132628.07      498115.13      3.2956324e-06  5.1812046e-07  2.7775119e-06  1.3406022e+08
   3655000   2.2599005e-10  133721.17      132635.11      497394.48      3.2956416e-06  5.1802849e-07  2.7776131e-06  1.3406343e+08
   3656000   2.2605188e-10  133725.65      132640.38      497138.11      3.2956445e-06  5.1793824e-07  2.7777062e-06  1.3406468e+08
   3657000   2.2611371e-10  133721.3       132635.06      497456.38      3.295657e-06   5.1804115e-07  2.7776159e-06  1.3406242e+08
   3658000   2.2617554e-10  133734.45      132649.04      497189.77      3.2956703e-06  5.1778137e-07  2.7778889e-06  1.3406774e+08
   3659000   2.2623738e-10  133733.35      132648.72      496929.16      3.2956515e-06  5.1778531e-07  2.7778662e-06  1.3406607e+08
   3660000   2.2629921e-10  133733.93      132650.7       496461.89      3.2956377e-06  5.1775953e-07  2.7778781e-06  1.3406584e+08
   3661000   2.2636104e-10  133736.11      132654.46      495938.03      3.295632e-06   5.1770852e-07  2.7779235e-06  1.3406713e+08
   3662000   2.2642287e-10  133733.01      132649.12      496682.91      3.2956474e-06  5.1778839e-07  2.777859e-06   1.3406756e+08
   3663000   2.264847e-10   133711.7       132628.45      496447.59      3.2956814e-06  5.1826505e-07  2.7774164e-06  1.3406247e+08
   3664000   2.2654653e-10  133721.79      132640.07      495944.7       3.2956744e-06  5.1804843e-07  2.7776259e-06  1.3406709e+08
   3665000   2.2660836e-10  133702.15      132621.71      495499.05      3.2956681e-06  5.1845007e-07  2.7772181e-06  1.3406029e+08
   3666000   2.2667019e-10  133696.44      132617.35      495041.93      3.2956666e-06  5.1856714e-07  2.7770995e-06  1.3405862e+08
   3667000   2.2673202e-10  133697.74      132621.05      494236.36      3.2956692e-06  5.1854289e-07  2.7771264e-06  1.3405951e+08
   3668000   2.2679385e-10  133702.14      132628.18      493332.05      3.2956763e-06  5.1845845e-07  2.7772179e-06  1.3406149e+08
   3669000   2.2685568e-10  133714.79      132644.34      492168.74      3.2956665e-06  5.1818584e-07  2.7774807e-06  1.3406588e+08
   3670000   2.2691751e-10  133704.89      132637.49      491138.49      3.2956622e-06  5.1838727e-07  2.777275e-06   1.3406143e+08
   3671000   2.2697934e-10  133718.2       132653.33      490305.58      3.2956743e-06  5.1812289e-07  2.7775514e-06  1.3406671e+08
   3672000   2.2704117e-10  133723.07      132656.78      490786.69      3.2956776e-06  5.1802505e-07  2.7776526e-06  1.3406844e+08
   3673000   2.27103e-10    133720.64      132652.45      491418.04      3.2956779e-06  5.1807583e-07  2.7776021e-06  1.340681e+08 
   3674000   2.2716483e-10  133721.71      132654.94      490941.6       3.295689e-06   5.1806481e-07  2.7776242e-06  1.3406872e+08
   3675000   2.2722666e-10  133721.13      132657.34      489945.04      3.2956728e-06  5.1806057e-07  2.7776122e-06  1.3406571e+08
   3676000   2.2728849e-10  133726.52      132663.78      489603.83      3.2956721e-06  5.1794781e-07  2.7777243e-06  1.3406591e+08
   3677000   2.2735032e-10  133734.75      132670.89      489986.15      3.2956519e-06  5.1775668e-07  2.7778952e-06  1.34067e+08  
   3678000   2.2741215e-10  133722.84      132659.39      489835.56      3.2956484e-06  5.1800059e-07  2.7776478e-06  1.3406261e+08
   3679000   2.2747398e-10  133724.61      132662.97      489230.99      3.295643e-06   5.179585e-07   2.7776845e-06  1.3406288e+08
   3680000   2.2753581e-10  133717.13      132654.03      489712.88      3.2956392e-06  5.1811003e-07  2.7775292e-06  1.3405936e+08
   3681000   2.2759764e-10  133724.37      132662.97      489151.47      3.295642e-06   5.1796238e-07  2.7776797e-06  1.3406171e+08
   3682000   2.2765947e-10  133736.64      132677.57      488383.86      3.2956244e-06  5.1768994e-07  2.7779344e-06  1.3406434e+08
   3683000   2.277213e-10   133720.17      132662         488068.9       3.2956424e-06  5.1804998e-07  2.7775924e-06  1.340592e+08 
   3684000   2.2778313e-10  133719.96      132664.18      487268.27      3.2956549e-06  5.1806683e-07  2.777588e-06   1.3406011e+08
   3685000   2.2784497e-10  133734.63      132682.09      486196.44      3.2956496e-06  5.1775694e-07  2.7778927e-06  1.3406487e+08
   3686000   2.279068e-10   133738.03      132687.74      485451.95      3.2956394e-06  5.1767604e-07  2.7779634e-06  1.3406497e+08
   3687000   2.2796863e-10  133740.06      132692.43      484560.35      3.2956476e-06  5.1764217e-07  2.7780055e-06  1.3406697e+08
   3688000   2.2803046e-10  133739.7       132694.44      483767.83      3.2956354e-06  5.1763733e-07  2.777998e-06   1.3406667e+08
   3689000   2.2809229e-10  133738.71      132696.1       482881.87      3.2956512e-06  5.176737e-07   2.7779775e-06  1.3406912e+08
   3690000   2.2815412e-10  133711.9       132668.18      483223.59      3.295648e-06   5.1822755e-07  2.7774205e-06  1.3405966e+08
   3691000   2.2821595e-10  133726.25      132684.56      482559.84      3.2956339e-06  5.1791541e-07  2.7777185e-06  1.3406322e+08
   3692000   2.2827778e-10  133730.22      132688.93      482430.56      3.2956421e-06  5.1784098e-07  2.7778011e-06  1.3406446e+08
   3693000   2.2833961e-10  133719.8       132678.87      482300.96      3.2956319e-06  5.1804732e-07  2.7775846e-06  1.3405932e+08
   3694000   2.2840144e-10  133749.18      132708.63      482204.02      3.2956418e-06  5.174469e-07   2.7781949e-06  1.3407033e+08
   3695000   2.2846327e-10  133738.41      132698.5       481977.81      3.295644e-06   5.1767275e-07  2.7779712e-06  1.3406603e+08
   3696000   2.285251e-10   133724.74      132685.34      481791.71      3.2956467e-06  5.1795954e-07  2.7776872e-06  1.3406229e+08
   3697000   2.2858693e-10  133719.81      132682.61      481052.07      3.2956388e-06  5.1805404e-07  2.7775848e-06  1.3406146e+08
   3698000   2.2864876e-10  133712.88      132676.92      480630.46      3.2956325e-06  5.1819169e-07  2.7774408e-06  1.3405885e+08
   3699000   2.2871059e-10  133725.26      132690.04      480398.12      3.2956357e-06  5.1793767e-07  2.7776981e-06  1.3406349e+08
   3700000   2.2877242e-10  133726.86      132693.27      479851.57      3.2956379e-06  5.1790665e-07  2.7777312e-06  1.3406297e+08
   3701000   2.2883425e-10  133734.46      132701.68      479589.34      3.2956428e-06  5.1775365e-07  2.7778891e-06  1.3406552e+08
   3702000   2.2889608e-10  133733         132702.42      478850.4       3.2956433e-06  5.1778447e-07  2.7778588e-06  1.3406534e+08
   3703000   2.2895791e-10  133744.57      132716         478190.26      3.295649e-06   5.1754987e-07  2.7780992e-06  1.3407007e+08
   3704000   2.2901974e-10  133744.32      132716.25      478025.93      3.2956528e-06  5.1755872e-07  2.778094e-06   1.340697e+08 
   3705000   2.2908157e-10  133737.51      132710.06      477807.76      3.2956548e-06  5.177024e-07   2.7779524e-06  1.3406694e+08
   3706000   2.291434e-10   133739.28      132713.58      477224.93      3.2956446e-06  5.1765545e-07  2.7779892e-06  1.3406689e+08
   3707000   2.2920523e-10  133733.69      132708.45      477065.42      3.2956477e-06  5.1777459e-07  2.7778731e-06  1.3406534e+08
   3708000   2.2926706e-10  133720.33      132693.81      477481.63      3.2956426e-06  5.1804693e-07  2.7775957e-06  1.3406167e+08
   3709000   2.2932889e-10  133725.62      132699.5       477352.54      3.2956405e-06  5.1793502e-07  2.7777055e-06  1.3406488e+08
   3710000   2.2939072e-10  133713.72      132686.04      477864.49      3.2956541e-06  5.1819568e-07  2.7774585e-06  1.3406143e+08
   3711000   2.2945256e-10  133708.28      132680.24      477977.9       3.2956414e-06  5.18296e-07    2.7773454e-06  1.3405817e+08
   3712000   2.2951439e-10  133729.72      132701.32      478118.05      3.2956253e-06  5.1783465e-07  2.7777906e-06  1.3406355e+08
   3713000   2.2957622e-10  133735.86      132708.22      477872.52      3.295628e-06   5.1770969e-07  2.7779183e-06  1.3406403e+08
   3714000   2.2963805e-10  133725.96      132699.45      477487.28      3.2956226e-06  5.1790994e-07  2.7777127e-06  1.3405867e+08
   3715000   2.2969988e-10  133727.38      132703.06      476752.81      3.2956124e-06  5.1787033e-07  2.777742e-06   1.3405827e+08
   3716000   2.2976171e-10  133723.06      132700.81      476058.78      3.2956188e-06  5.1796636e-07  2.7776524e-06  1.3405859e+08
   3717000   2.2982354e-10  133715.48      132693.3       476027.26      3.295615e-06   5.1811995e-07  2.777495e-06   1.3405679e+08
   3718000   2.2988537e-10  133706.52      132686.66      475240.69      3.2956158e-06  5.1830693e-07  2.7773089e-06  1.3405468e+08
   3719000   2.299472e-10   133719.74      132703.69      473979.25      3.2956295e-06  5.1804619e-07  2.7775833e-06  1.3406059e+08
   3720000   2.3000903e-10  133721.88      132707.32      473484.61      3.2956344e-06  5.1800648e-07  2.777628e-06   1.3406033e+08
   3721000   2.3007086e-10  133734.03      132720.98      472987.66      3.2956402e-06  5.1776005e-07  2.7778801e-06  1.3406499e+08
   3722000   2.3013269e-10  133725.49      132712.35      473014.22      3.2956489e-06  5.1794598e-07  2.7777029e-06  1.3406333e+08
   3723000   2.3019452e-10  133699.61      132686.99      472812.03      3.2956579e-06  5.1849265e-07  2.7771653e-06  1.340563e+08 
   3724000   2.3025635e-10  133698.27      132687.59      472163.03      3.2956631e-06  5.1852561e-07  2.7771375e-06  1.3405818e+08
   3725000   2.3031818e-10  133701.43      132692.56      471558.61      3.2956605e-06  5.184575e-07   2.777203e-06   1.3406009e+08
   3726000   2.3038001e-10  133706.8       132697.89      471578.6       3.2956639e-06  5.1834934e-07  2.7773146e-06  1.3406181e+08
   3727000   2.3044184e-10  133710.59      132702.32      471366.53      3.2956577e-06  5.1826438e-07  2.7773933e-06  1.3406114e+08
   3728000   2.3050367e-10  133726.11      132718.76      471076.17      3.2956491e-06  5.1793351e-07  2.7777156e-06  1.3406588e+08
   3729000   2.305655e-10   133724.49      132718.68      470562.6       3.295655e-06   5.1797285e-07  2.7776822e-06  1.3406631e+08
   3730000   2.3062733e-10  133717.97      132713.56      470082.95      3.2956643e-06  5.1811773e-07  2.7775466e-06  1.3406495e+08
   3731000   2.3068916e-10  133715.36      132712.16      469676.42      3.2956659e-06  5.1817349e-07  2.7774924e-06  1.3406507e+08
   3732000   2.3075099e-10  133712.49      132710.41      469299.8       3.2956587e-06  5.1822593e-07  2.7774328e-06  1.340638e+08 
   3733000   2.3081282e-10  133704.55      132706.03      468102.63      3.2956549e-06  5.1838696e-07  2.7772679e-06  1.3406064e+08
   3734000   2.3087465e-10  133703.64      132705.59      467942.87      3.2956521e-06  5.1840317e-07  2.777249e-06   1.3405977e+08
   3735000   2.3093648e-10  133697.41      132700.6       467521.37      3.2956494e-06  5.1852982e-07  2.7771195e-06  1.3405588e+08
   3736000   2.3099831e-10  133706.32      132710.63      467158.1       3.295638e-06   5.1833327e-07  2.7773047e-06  1.3405753e+08
   3737000   2.3106015e-10  133704.88      132711.78      466290.55      3.2956397e-06  5.1836486e-07  2.7772748e-06  1.3405652e+08
   3738000   2.3112198e-10  133717.01      132722.95      466621.41      3.2956429e-06  5.1811614e-07  2.7775267e-06  1.3406097e+08
   3739000   2.3118381e-10  133723.05      132730.28      466198.86      3.2956455e-06  5.1799332e-07  2.7776522e-06  1.340631e+08 
   3740000   2.3124564e-10  133734.95      132743.8       465666.62      3.2956429e-06  5.1774365e-07  2.7778993e-06  1.3406742e+08
   3741000   2.3130747e-10  133745.52      132753.99      465806.22      3.2956513e-06  5.1753233e-07  2.778119e-06   1.340722e+08 
   3742000   2.313693e-10   133736.66      132745.41      465702.54      3.2956599e-06  5.1772497e-07  2.7779349e-06  1.3406945e+08
   3743000   2.3143113e-10  133731.05      132737.07      466609.68      3.295658e-06   5.1783971e-07  2.7778183e-06  1.340677e+08 
   3744000   2.3149296e-10  133712.24      132717.13      466968.71      3.2956509e-06  5.1822331e-07  2.7774276e-06  1.34061e+08  
   3745000   2.3155479e-10  133700.9       132704.38      467430.15      3.2956483e-06  5.1845624e-07  2.7771921e-06  1.340578e+08 
   3746000   2.3161662e-10  133714.06      132716.7       467724.74      3.2956386e-06  5.1817319e-07  2.7774654e-06  1.3406234e+08
   3747000   2.3167845e-10  133716.65      132719.51      467654.44      3.2956391e-06  5.1811975e-07  2.7775193e-06  1.3406241e+08
   3748000   2.3174028e-10  133727.18      132729.48      467852.47      3.2956279e-06  5.1788994e-07  2.777738e-06   1.3406481e+08
   3749000   2.3180211e-10  133718.4       132721.02      467734.05      3.2956303e-06  5.180748e-07   2.7775555e-06  1.3406088e+08
   3750000   2.3186394e-10  133708.18      132712.07      467298.89      3.295623e-06   5.1827966e-07  2.7773433e-06  1.340554e+08 
   3751000   2.3192577e-10  133716.42      132722.78      466483.57      3.2956257e-06  5.1811117e-07  2.7775145e-06  1.340586e+08 
   3752000   2.319876e-10   133705.8       132714.18      465797.69      3.2956252e-06  5.1833129e-07  2.7772939e-06  1.3405446e+08
   3753000   2.3204943e-10  133708.19      132717.62      465445.03      3.2956274e-06  5.1828388e-07  2.7773435e-06  1.3405624e+08
   3754000   2.3211126e-10  133717.83      132728.28      465116.15      3.2956444e-06  5.1810061e-07  2.7775438e-06  1.3406173e+08
   3755000   2.3217309e-10  133714.29      132725.46      464870.97      3.2956372e-06  5.1816698e-07  2.7774702e-06  1.340605e+08 
   3756000   2.3223492e-10  133725.07      132736.72      464718.48      3.2956399e-06  5.179459e-07   2.777694e-06   1.3406572e+08
   3757000   2.3229675e-10  133726.89      132738.45      464751.1       3.2956463e-06  5.1791445e-07  2.7777319e-06  1.34067e+08  
   3758000   2.3235858e-10  133713.98      132726.39      464454.71      3.2956436e-06  5.1817991e-07  2.7774637e-06  1.3406178e+08
   3759000   2.3242041e-10  133719.24      132729.15      465296.24      3.2956463e-06  5.1807328e-07  2.777573e-06   1.3406339e+08
   3760000   2.3248224e-10  133719.08      132727.47      465806.22      3.2956454e-06  5.1807574e-07  2.7775697e-06  1.3406174e+08
   3761000   2.3254407e-10  133738.45      132747.36      465653.87      3.2956583e-06  5.1768611e-07  2.7779721e-06  1.3406908e+08
   3762000   2.326059e-10   133737.84      132746.39      465769.59      3.29565e-06    5.1769069e-07  2.7779593e-06  1.3406705e+08
   3763000   2.3266774e-10  133735         132742.56      466096.6       3.2956329e-06  5.1773259e-07  2.7779003e-06  1.340638e+08 
   3764000   2.3272957e-10  133723.9       132731.94      465927.25      3.2956492e-06  5.1797942e-07  2.7776698e-06  1.3406106e+08
   3765000   2.327914e-10   133726.44      132736.78      465159.57      3.2956413e-06  5.1791873e-07  2.7777225e-06  1.3406192e+08
   3766000   2.3285323e-10  133719.03      132731.46      464451.37      3.2956498e-06  5.1808124e-07  2.7775686e-06  1.3406124e+08
   3767000   2.3291506e-10  133716.29      132729.39      464226.94      3.2956446e-06  5.1813297e-07  2.7775117e-06  1.3406086e+08
   3768000   2.3297689e-10  133724.43      132737.66      464190.5       3.2956519e-06  5.179712e-07   2.7776807e-06  1.3406536e+08
   3769000   2.3303872e-10  133713.29      132724.55      464840.84      3.29566e-06    5.1821064e-07  2.7774494e-06  1.3406263e+08
   3770000   2.3310055e-10  133707.14      132716.38      465506.71      3.2956559e-06  5.1833432e-07  2.7773216e-06  1.3405916e+08
   3771000   2.3316238e-10  133729.55      132740.07      465104.53      3.295649e-06   5.1786178e-07  2.7777872e-06  1.3406662e+08
   3772000   2.3322421e-10  133717.89      132728.29      465132.91      3.2956519e-06  5.1810697e-07  2.777545e-06   1.3406237e+08
   3773000   2.3328604e-10  133710.26      132719.81      465407.07      3.2956503e-06  5.182638e-07   2.7773865e-06  1.3405967e+08
   3774000   2.3334787e-10  133713.38      132721.51      465885.95      3.2956356e-06  5.1818437e-07  2.7774512e-06  1.3405985e+08
   3775000   2.334097e-10   133710.17      132717.69      466087.12      3.2956469e-06  5.1826239e-07  2.7773845e-06  1.3405927e+08
   3776000   2.3347153e-10  133710.2       132717.19      466262.15      3.2956426e-06  5.1825744e-07  2.7773852e-06  1.3405905e+08
   3777000   2.3353336e-10  133719.98      132726.43      466455.79      3.2956559e-06  5.180675e-07   2.7775884e-06  1.3406405e+08
   3778000   2.3359519e-10  133712.95      132721.82      465638.34      3.2956521e-06  5.1820969e-07  2.7774424e-06  1.3406139e+08
   3779000   2.3365702e-10  133728.88      132740.87      464610.44      3.2956316e-06  5.1785838e-07  2.7777732e-06  1.3406507e+08
   3780000   2.3371885e-10  133739.44      132755.58      463232.91      3.2956525e-06  5.1765984e-07  2.7779926e-06  1.3406967e+08
   3781000   2.3378068e-10  133725.32      132741.77      463115.14      3.2956497e-06  5.1795042e-07  2.7776993e-06  1.3406371e+08
   3782000   2.3384251e-10  133727.15      132744.49      462818.62      3.2956479e-06  5.1791059e-07  2.7777373e-06  1.340644e+08 
   3783000   2.3390434e-10  133722.64      132741.81      462204.62      3.2956378e-06  5.1799402e-07  2.7776437e-06  1.3406128e+08
   3784000   2.3396617e-10  133714.22      132737.12      460947.58      3.29564e-06    5.1817121e-07  2.7774688e-06  1.3405734e+08
   3785000   2.34028e-10    133722.53      132746.09      460736.65      3.2956286e-06  5.1798715e-07  2.7776414e-06  1.3405905e+08
   3786000   2.3408983e-10  133728.49      132749.83      461483.49      3.2956386e-06  5.1787342e-07  2.7777651e-06  1.3406197e+08
   3787000   2.3415166e-10  133722.19      132744.48      461157.91      3.2956193e-06  5.1798506e-07  2.7776342e-06  1.3405725e+08
   3788000   2.3421349e-10  133750.63      132774.46      460673.07      3.2956024e-06  5.1737737e-07  2.7782251e-06  1.3406572e+08
   3789000   2.3427533e-10  133745.11      132770.37      460191.16      3.2956235e-06  5.1751301e-07  2.7781105e-06  1.3406464e+08
   3790000   2.3433716e-10  133735.81      132762.89      459571.6       3.2956263e-06  5.1770908e-07  2.7779172e-06  1.3406217e+08
   3791000   2.3439899e-10  133738.41      132766.97      459080.42      3.2956288e-06  5.1765755e-07  2.7779713e-06  1.3406508e+08
   3792000   2.3446082e-10  133739.85      132769.51      458710.01      3.2956396e-06  5.1763852e-07  2.7780011e-06  1.3406826e+08
   3793000   2.3452265e-10  133726.74      132758.08      458136.01      3.2956513e-06  5.1792252e-07  2.7777288e-06  1.3406494e+08
   3794000   2.3458448e-10  133727.78      132760.06      457822.8       3.2956621e-06  5.1791173e-07  2.7777504e-06  1.3406583e+08
   3795000   2.3464631e-10  133740.55      132771.7       458214.43      3.2956493e-06  5.1763368e-07  2.7780156e-06  1.3406909e+08
   3796000   2.3470814e-10  133731.64      132761.15      458756.58      3.295646e-06   5.1781534e-07  2.7778306e-06  1.3406559e+08
   3797000   2.3476997e-10  133722.22      132750.22      459246.9       3.29565e-06    5.1801512e-07  2.7776348e-06  1.3406338e+08
   3798000   2.348318e-10   133713.75      132743.25      458741.68      3.2956482e-06  5.1818921e-07  2.777459e-06   1.340608e+08 
   3799000   2.3489363e-10  133711.1       132740.6       458733.77      3.2956472e-06  5.1824333e-07  2.7774038e-06  1.3405964e+08
   3800000   2.3495546e-10  133721.67      132754.22      457729.8       3.2956494e-06  5.1802585e-07  2.7776236e-06  1.3406364e+08
   3801000   2.3501729e-10  133720.18      132753.72      457394.33      3.2956479e-06  5.1805527e-07  2.7775926e-06  1.3406271e+08
   3802000   2.3507912e-10  133718.11      132751.16      457555.62      3.2956678e-06  5.1811825e-07  2.7775496e-06  1.3406397e+08
   3803000   2.3514095e-10  133706.26      132739.57      457458.03      3.2956858e-06  5.1838245e-07  2.7773033e-06  1.3406226e+08
   3804000   2.3520278e-10  133717.5       132751.94      457091.27      3.2956842e-06  5.1814726e-07  2.7775369e-06  1.3406751e+08
   3805000   2.3526461e-10  133713.18      132748.95      456643.49      3.2956932e-06  5.18246e-07    2.7774472e-06  1.34068e+08  
   3806000   2.3532644e-10  133702.12      132741.09      455561.83      3.2956857e-06  5.1846828e-07  2.7772174e-06  1.3406438e+08
   3807000   2.3538827e-10  133687.96      132727.42      455380.46      3.2956722e-06  5.1874902e-07  2.7769232e-06  1.3405785e+08
   3808000   2.354501e-10   133697.43      132739.48      454524.6       3.2956851e-06  5.1856515e-07  2.77712e-06    1.3406154e+08
   3809000   2.3551193e-10  133706.89      132748.48      454688.94      3.2956804e-06  5.1836385e-07  2.7773165e-06  1.3406333e+08
   3810000   2.3557376e-10  133705.53      132746.88      454766.59      3.2956686e-06  5.1838048e-07  2.7772882e-06  1.3406098e+08
   3811000   2.3563559e-10  133716.33      132757.12      454965.94      3.2956606e-06  5.1814805e-07  2.7775125e-06  1.3406289e+08
   3812000   2.3569742e-10  133733.29      132775.02      454669         3.2956648e-06  5.1779986e-07  2.7778649e-06  1.3406828e+08
   3813000   2.3575925e-10  133723.15      132765.15      454567.52      3.2956655e-06  5.1801127e-07  2.7776542e-06  1.3406479e+08
   3814000   2.3582108e-10  133732.75      132775.49      454328.95      3.2956516e-06  5.1779802e-07  2.7778536e-06  1.3406799e+08
   3815000   2.3588291e-10  133721.74      132766.55      453626.46      3.2956467e-06  5.1802178e-07  2.7776249e-06  1.3406365e+08
   3816000   2.3594475e-10  133725.38      132772.04      453011.36      3.2956535e-06  5.1795289e-07  2.7777006e-06  1.340656e+08 
   3817000   2.3600658e-10  133730.23      132777.62      452773.91      3.2956579e-06  5.1785649e-07  2.7778014e-06  1.3406619e+08
   3818000   2.3606841e-10  133726.75      132775.63      452270.34      3.295675e-06   5.1794593e-07  2.777729e-06   1.3406532e+08
   3819000   2.3613024e-10  133725.15      132773.81      452344.4       3.2956562e-06  5.1796042e-07  2.7776958e-06  1.3406285e+08
   3820000   2.3619207e-10  133738.53      132786.85      452468.91      3.2956551e-06  5.1768141e-07  2.7779737e-06  1.3406802e+08
   3821000   2.362539e-10   133724.75      132772.85      452529.41      3.2956446e-06  5.1795708e-07  2.7776875e-06  1.34062e+08  
   3822000   2.3631573e-10  133731.96      132780.62      452349.71      3.2956446e-06  5.1780733e-07  2.7778373e-06  1.340649e+08 
   3823000   2.3637756e-10  133729.8       132779.02      452160.04      3.295645e-06   5.1785262e-07  2.7777924e-06  1.3406407e+08
   3824000   2.3643939e-10  133723.71      132773.7       451896.7       3.2956426e-06  5.1797673e-07  2.7776658e-06  1.3406229e+08
   3825000   2.3650122e-10  133730.04      132780.85      451630.05      3.2956585e-06  5.1786115e-07  2.7777974e-06  1.340672e+08 
   3826000   2.3656305e-10  133713.13      132763.31      451821.15      3.2956459e-06  5.1819991e-07  2.777446e-06   1.3406006e+08
   3827000   2.3662488e-10  133721.99      132770.85      452276.22      3.2956477e-06  5.1801744e-07  2.7776302e-06  1.3406335e+08
   3828000   2.3668671e-10  133722.91      132773.06      451844.29      3.2956504e-06  5.1800114e-07  2.7776493e-06  1.3406309e+08
   3829000   2.3674854e-10  133718.09      132770.72      451007.77      3.2956401e-06  5.1809103e-07  2.777549e-06   1.3406145e+08
   3830000   2.3681037e-10  133708.33      132761.64      450770.15      3.2956388e-06  5.1829245e-07  2.7773464e-06  1.3405939e+08
   3831000   2.368722e-10   133698.37      132753.45      450169.18      3.2956225e-06  5.1848298e-07  2.7771396e-06  1.3405497e+08
   3832000   2.3693403e-10  133716.39      132772.3       449907.92      3.2956241e-06  5.1811027e-07  2.7775138e-06  1.3406117e+08
   3833000   2.3699586e-10  133713.03      132769.99      449558.1       3.2956423e-06  5.1819813e-07  2.7774441e-06  1.3405938e+08
   3834000   2.3705769e-10  133726.03      132783.66      449343.63      3.295643e-06   5.1792883e-07  2.7777141e-06  1.3406256e+08
   3835000   2.3711952e-10  133739         132798.08      448871.45      3.2956379e-06  5.1765444e-07  2.7779835e-06  1.3406615e+08
   3836000   2.3718135e-10  133733.68      132793.94      448470.82      3.2956342e-06  5.177613e-07   2.7778729e-06  1.3406488e+08
   3837000   2.3724318e-10  133701.49      132762.38      448228.59      3.2956313e-06  5.1842689e-07  2.7772044e-06  1.3405399e+08
   3838000   2.3730501e-10  133706.26      132763.54      449442.38      3.2956299e-06  5.1832655e-07  2.7773034e-06  1.3405607e+08
   3839000   2.3736684e-10  133733.03      132790.64      449360.25      3.2956403e-06  5.1778074e-07  2.7778596e-06  1.3406706e+08
   3840000   2.3742867e-10  133731.77      132788.69      449586.96      3.2956522e-06  5.178189e-07   2.7778333e-06  1.3406769e+08
   3841000   2.374905e-10   133711.07      132770.69      448662.28      3.2956537e-06  5.1825045e-07  2.7774033e-06  1.3405956e+08
   3842000   2.3755234e-10  133726.14      132787.12      448224.45      3.2956433e-06  5.1792694e-07  2.7777164e-06  1.3406411e+08
   3843000   2.3761417e-10  133735.21      132795.7       448397.03      3.2956313e-06  5.1772657e-07  2.7779047e-06  1.3406554e+08
   3844000   2.37676e-10    133732.85      132795.54      447657.62      3.2956404e-06  5.177847e-07   2.7778557e-06  1.3406417e+08
   3845000   2.3773783e-10  133733.42      132797.65      447141.77      3.2956355e-06  5.1776799e-07  2.7778675e-06  1.3406276e+08
   3846000   2.3779966e-10  133737.36      132803.36      446555.5       3.2956365e-06  5.1768713e-07  2.7779493e-06  1.3406353e+08
   3847000   2.3786149e-10  133738.04      132803.53      446729.13      3.2956261e-06  5.1766259e-07  2.7779636e-06  1.3406292e+08
   3848000   2.3792332e-10  133713.11      132780.07      446210.43      3.2956244e-06  5.1817867e-07  2.7774458e-06  1.3405448e+08
   3849000   2.3798515e-10  133723.91      132792.07      445819.45      3.2956278e-06  5.1795788e-07  2.7776699e-06  1.3405968e+08
   3850000   2.3804698e-10  133735.28      132804.91      445340.15      3.295618e-06   5.1771184e-07  2.7779062e-06  1.3406337e+08
   3851000   2.3810881e-10  133729.38      132799.91      445031.64      3.2956302e-06  5.1784656e-07  2.7777836e-06  1.3406204e+08
   3852000   2.3817064e-10  133722.86      132792.56      445304.2       3.2956299e-06  5.179817e-07   2.7776482e-06  1.3406009e+08
   3853000   2.3823247e-10  133719.52      132788.99      445379.37      3.2956384e-06  5.180595e-07   2.7775789e-06  1.340606e+08 
   3854000   2.382943e-10   133714.05      132784.21      445142.57      3.295638e-06   5.1817272e-07  2.7774653e-06  1.3405988e+08
   3855000   2.3835613e-10  133712.23      132782.84      444988.82      3.2956454e-06  5.1821799e-07  2.7774274e-06  1.3406114e+08
   3856000   2.3841796e-10  133715.77      132787.93      444472.93      3.2956309e-06  5.1812996e-07  2.777501e-06   1.3406088e+08
   3857000   2.3847979e-10  133735.21      132809.28      443856.57      3.2956347e-06  5.1772988e-07  2.7779048e-06  1.3406814e+08
   3858000   2.3854162e-10  133739.1       132814.5       443414.12      3.2956395e-06  5.1765395e-07  2.7779855e-06  1.3406897e+08
   3859000   2.3860345e-10  133738.33      132812.95      443673.85      3.295646e-06   5.1767636e-07  2.7779696e-06  1.3406741e+08
   3860000   2.3866528e-10  133736.01      132812.93      442903.64      3.2956419e-06  5.1772047e-07  2.7779214e-06  1.3406578e+08
   3861000   2.3872711e-10  133720.78      132798.51      442617.73      3.2956636e-06  5.1805849e-07  2.7776051e-06  1.3406138e+08
   3862000   2.3878894e-10  133716.43      132795.55      442145.13      3.295662e-06   5.1814739e-07  2.7775146e-06  1.3406019e+08
   3863000   2.3885077e-10  133713.44      132794.12      441623.37      3.2956464e-06  5.1819372e-07  2.7774526e-06  1.3405986e+08
   3864000   2.389126e-10   133720.76      132803.44      440962.69      3.2956456e-06  5.1804091e-07  2.7776047e-06  1.3406288e+08
   3865000   2.3897443e-10  133740.15      132825.86      439968.18      3.2956473e-06  5.1763984e-07  2.7780075e-06  1.3406876e+08
   3866000   2.3903626e-10  133745.79      132833.91      439164.12      3.2956229e-06  5.1749851e-07  2.7781244e-06  1.3406726e+08
   3867000   2.3909809e-10  133738.93      132826.84      439229.6       3.2956302e-06  5.1764813e-07  2.7779821e-06  1.3406544e+08
   3868000   2.3915993e-10  133731.05      132818.22      439468.24      3.2956316e-06  5.1781331e-07  2.7778183e-06  1.340636e+08 
   3869000   2.3922176e-10  133717.17      132804.18      439508.82      3.2956321e-06  5.1810203e-07  2.7775301e-06  1.3405833e+08
   3870000   2.3928359e-10  133732.97      132822.35      438730.86      3.29563e-06    5.1777183e-07  2.7778581e-06  1.3406383e+08
   3871000   2.3934542e-10  133730.99      132823.02      437842.87      3.295642e-06   5.1782493e-07  2.777817e-06   1.3406365e+08
   3872000   2.3940725e-10  133734.2       132828.35      437137.68      3.2956441e-06  5.1776043e-07  2.7778837e-06  1.3406494e+08
   3873000   2.3946908e-10  133726.77      132822.21      436698.21      3.2956438e-06  5.1791447e-07  2.7777294e-06  1.3406174e+08
   3874000   2.3953091e-10  133737.18      132832.01      436914.19      3.2956242e-06  5.1767848e-07  2.7779457e-06  1.340639e+08 
   3875000   2.3959274e-10  133741.14      132836.9       436608.1       3.2956153e-06  5.1758731e-07  2.778028e-06   1.340641e+08 
   3876000   2.3965457e-10  133731.96      132827.74      436590.4       3.2956094e-06  5.1777215e-07  2.7778372e-06  1.3405937e+08
   3877000   2.397164e-10   133733.26      132829.03      436596.47      3.2956142e-06  5.1774995e-07  2.7778643e-06  1.3406013e+08
   3878000   2.3977823e-10  133750.59      132846.75      436484.3       3.2956167e-06  5.1739242e-07  2.7782243e-06  1.3406802e+08
   3879000   2.3984006e-10  133722.16      132820.82      435620.44      3.2956261e-06  5.1799236e-07  2.7776338e-06  1.3405939e+08
   3880000   2.3990189e-10  133720.63      132819.42      435571.3       3.2956321e-06  5.1803019e-07  2.7776019e-06  1.3406165e+08
   3881000   2.3996372e-10  133704.61      132804.27      435266.91      3.2956367e-06  5.1836762e-07  2.7772691e-06  1.3405629e+08
   3882000   2.4002555e-10  133711.5       132812.88      434698.11      3.2956364e-06  5.1822409e-07  2.7774123e-06  1.3405841e+08
   3883000   2.4008738e-10  133708.4       132811.61      434081.06      3.295638e-06   5.1829021e-07  2.7773478e-06  1.3405662e+08
   3884000   2.4014921e-10  133713.17      132817.03      433868.81      3.2956329e-06  5.18186e-07    2.7774469e-06  1.3405768e+08
   3885000   2.4021104e-10  133719.72      132823.05      434052.98      3.2956425e-06  5.1805955e-07  2.7775829e-06  1.3406062e+08
   3886000   2.4027287e-10  133710.43      132814.94      433650.55      3.2956468e-06  5.1825669e-07  2.7773901e-06  1.3405763e+08
   3887000   2.403347e-10   133714.79      132821.3       432986.32      3.295632e-06   5.1815128e-07  2.7774807e-06  1.3405932e+08
   3888000   2.4039653e-10  133714.2       132823.51      432045.54      3.2956225e-06  5.1815428e-07  2.7774682e-06  1.3405871e+08
   3889000   2.4045836e-10  133725.92      132839.76      430544.29      3.2956272e-06  5.1791544e-07  2.7777118e-06  1.3406312e+08
   3890000   2.4052019e-10  133734.76      132851.21      429680.11      3.2956393e-06  5.1774396e-07  2.7778953e-06  1.3406623e+08
   3891000   2.4058202e-10  133734.8       132853.11      429061.64      3.2956361e-06  5.1773982e-07  2.7778963e-06  1.3406411e+08
   3892000   2.4064385e-10  133749.86      132868.83      428855.58      3.2956354e-06  5.1742631e-07  2.7782091e-06  1.3406923e+08
   3893000   2.4070568e-10  133736.9       132857.51      428292.17      3.2956447e-06  5.1770479e-07  2.7779399e-06  1.3406554e+08
   3894000   2.4076752e-10  133721.05      132842.66      427939.05      3.2956442e-06  5.1803364e-07  2.7776106e-06  1.3406067e+08
   3895000   2.4082935e-10  133729.5       132853.19      427252.69      3.2956588e-06  5.1787275e-07  2.7777861e-06  1.340658e+08 
   3896000   2.4089118e-10  133736.08      132858.91      427547.16      3.2956562e-06  5.1773333e-07  2.7779228e-06  1.340687e+08 
   3897000   2.4095301e-10  133728.1       132852.45      427031.81      3.2956374e-06  5.178803e-07   2.7777571e-06  1.3406372e+08
   3898000   2.4101484e-10  133723.59      132848.28      426913.25      3.2956375e-06  5.1797424e-07  2.7776633e-06  1.340613e+08 
   3899000   2.4107667e-10  133731.11      132859.81      425581.28      3.2956355e-06  5.1781593e-07  2.7778196e-06  1.3406385e+08
   3900000   2.411385e-10   133730.31      132859.85      425297.47      3.2956308e-06  5.1782791e-07  2.7778029e-06  1.3406317e+08
   3901000   2.4120033e-10  133725.55      132855.91      425020.24      3.2956348e-06  5.1793066e-07  2.7777042e-06  1.3406263e+08
   3902000   2.4126216e-10  133718.01      132849.52      424626.31      3.2956275e-06  5.1808001e-07  2.7775475e-06  1.340593e+08 
   3903000   2.4132399e-10  133723.99      132855.51      424629.97      3.295639e-06   5.1796728e-07  2.7776718e-06  1.3406218e+08
   3904000   2.4138582e-10  133734.67      132866.26      424619         3.2956469e-06  5.1775326e-07  2.7778936e-06  1.3406587e+08
   3905000   2.4144765e-10  133744.22      132874.38      425106.89      3.2956396e-06  5.1754766e-07  2.778092e-06   1.3406752e+08
   3906000   2.4150948e-10  133737.62      132868.1       424994.08      3.2956246e-06  5.1766974e-07  2.7779549e-06  1.3406367e+08
   3907000   2.4157131e-10  133719.61      132851.99      424336.17      3.2956327e-06  5.18052e-07    2.7775807e-06  1.3405836e+08
   3908000   2.4163314e-10  133715.45      132848.53      424099         3.2956509e-06  5.1815655e-07  2.7774943e-06  1.3405909e+08
   3909000   2.4169497e-10  133726.45      132859.71      424048.37      3.2956449e-06  5.1792223e-07  2.7777227e-06  1.3406307e+08
   3910000   2.417568e-10   133736.85      132869.29      424335.61      3.2956418e-06  5.1770292e-07  2.7779389e-06  1.3406695e+08
   3911000   2.4181863e-10  133733.89      132867.81      423835.76      3.2956407e-06  5.1776335e-07  2.7778773e-06  1.3406565e+08
   3912000   2.4188046e-10  133725.33      132860.15      423527.82      3.2956465e-06  5.1794689e-07  2.7776996e-06  1.3406268e+08
   3913000   2.4194229e-10  133731.58      132869.23      422587.73      3.2956401e-06  5.178107e-07   2.7778294e-06  1.3406482e+08
   3914000   2.4200412e-10  133734.49      132873.27      422211.36      3.2956575e-06  5.1776772e-07  2.7778898e-06  1.3406689e+08
   3915000   2.4206595e-10  133732.38      132871.16      422208.57      3.2956555e-06  5.178096e-07   2.7778459e-06  1.3406587e+08
   3916000   2.4212778e-10  133738.06      132877.74      421915.34      3.2956488e-06  5.1768489e-07  2.7779639e-06  1.3406713e+08
   3917000   2.4218961e-10  133731.31      132874.35      420783.99      3.2956436e-06  5.1781984e-07  2.7778238e-06  1.3406393e+08
   3918000   2.4225144e-10  133729.61      132872.59      420802.67      3.2956247e-06  5.1783642e-07  2.7777883e-06  1.3406117e+08
   3919000   2.4231327e-10  133738.77      132882.3       420627.59      3.2956325e-06  5.1765377e-07  2.7779787e-06  1.3406465e+08
   3920000   2.4237511e-10  133734.86      132877.32      420982.58      3.2956216e-06  5.1772413e-07  2.7778975e-06  1.3406255e+08
   3921000   2.4243694e-10  133737.02      132877.14      421764.42      3.2956303e-06  5.17688e-07    2.7779423e-06  1.3406488e+08
   3922000   2.4249877e-10  133729.22      132867.97      422215.77      3.2956366e-06  5.178564e-07   2.7777802e-06  1.3406306e+08
   3923000   2.425606e-10   133721.35      132860.3       422142.65      3.2956426e-06  5.1802568e-07  2.7776169e-06  1.3406121e+08
   3924000   2.4262243e-10  133700.2       132839.99      421839.66      3.2956436e-06  5.1846604e-07  2.7771775e-06  1.3405472e+08
   3925000   2.4268426e-10  133707.6       132850.91      420671.74      3.2956314e-06  5.1830011e-07  2.7773313e-06  1.3405742e+08
   3926000   2.4274609e-10  133723.09      132869.74      419567.65      3.2956207e-06  5.1796774e-07  2.7776529e-06  1.3406144e+08
   3927000   2.4280792e-10  133715.18      132863.48      419010.08      3.2956274e-06  5.1813865e-07  2.7774888e-06  1.3405709e+08
   3928000   2.4286975e-10  133732.34      132881.91      418602.85      3.295619e-06   5.177738e-07   2.7778452e-06  1.3406156e+08
   3929000   2.4293158e-10  133748.14      132899.2       418118.6       3.2956188e-06  5.1744538e-07  2.7781734e-06  1.3406677e+08
   3930000   2.4299341e-10  133735.54      132889.05      417289.07      3.2956124e-06  5.1770072e-07  2.7779117e-06  1.3406121e+08
   3931000   2.4305524e-10  133736.3       132888.71      417655.29      3.295612e-06   5.1768451e-07  2.7779275e-06  1.3406147e+08
   3932000   2.4311707e-10  133746.1       132899.51      417333.67      3.2956271e-06  5.1749612e-07  2.778131e-06   1.3406534e+08
   3933000   2.431789e-10   133718.92      132872.82      417139.1       3.2956244e-06  5.1805806e-07  2.7775664e-06  1.3405402e+08
   3934000   2.4324073e-10  133737.75      132892.38      416915.74      3.2956173e-06  5.176598e-07   2.7779575e-06  1.3406189e+08
   3935000   2.4330256e-10  133725.97      132881.81      416498.15      3.2956168e-06  5.1790398e-07  2.7777129e-06  1.340577e+08 
   3936000   2.4336439e-10  133741.92      132898.04      416421.15      3.2956381e-06  5.1759389e-07  2.7780442e-06  1.3406611e+08
   3937000   2.4342622e-10  133730.42      132884.74      417009.04      3.2956227e-06  5.1781754e-07  2.7778052e-06  1.3406047e+08
   3938000   2.4348805e-10  133734.21      132890.05      416506.27      3.2956209e-06  5.1773698e-07  2.777884e-06   1.3406149e+08
   3939000   2.4354988e-10  133741.56      132898.44      416164.05      3.2956292e-06  5.1759257e-07  2.7780366e-06  1.3406477e+08
   3940000   2.4361171e-10  133733.77      132890.16      416320.04      3.2956298e-06  5.17755e-07    2.7778748e-06  1.3406151e+08
   3941000   2.4367354e-10  133722.18      132878.75      416251.13      3.2956328e-06  5.1799877e-07  2.7776341e-06  1.3405764e+08
   3942000   2.4373537e-10  133712.45      132869.34      416134.14      3.295629e-06   5.1819704e-07  2.777432e-06   1.3405588e+08
   3943000   2.437972e-10   133710.81      132867.07      416340.36      3.2956321e-06  5.1823425e-07  2.7773979e-06  1.3405709e+08
   3944000   2.4385903e-10  133726.88      132881.69      416843.45      3.2956478e-06  5.1791616e-07  2.7777316e-06  1.3406459e+08
   3945000   2.4392086e-10  133728.05      132883.92      416491.24      3.2956445e-06  5.1788854e-07  2.777756e-06   1.3406448e+08
   3946000   2.439827e-10   133724.25      132879.69      416632.92      3.2956379e-06  5.1796075e-07  2.7776772e-06  1.340626e+08 
   3947000   2.4404453e-10  133709.55      132866.32      416169.18      3.2956222e-06  5.1825053e-07  2.7773717e-06  1.340562e+08 
   3948000   2.4410636e-10  133708.11      132866.76      415539.29      3.2956353e-06  5.1829353e-07  2.7773418e-06  1.340572e+08 
   3949000   2.4416819e-10  133727.41      132886.64      415365.78      3.2956359e-06  5.1789318e-07  2.7777428e-06  1.3406407e+08
   3950000   2.4423002e-10  133726.99      132886.95      415122.21      3.2956235e-06  5.1788947e-07  2.777734e-06   1.3406241e+08
   3951000   2.4429185e-10  133729.96      132890.29      415003.7       3.2956421e-06  5.1784636e-07  2.7777958e-06  1.3406513e+08
   3952000   2.4435368e-10  133725.04      132886.03      414775.4       3.2956311e-06  5.1793761e-07  2.7776935e-06  1.3406155e+08
   3953000   2.4441551e-10  133732.62      132892.49      415158.88      3.2956344e-06  5.1778338e-07  2.777851e-06   1.3406397e+08
   3954000   2.4447734e-10  133720.83      132881.5       414876.69      3.2956487e-06  5.1804276e-07  2.777606e-06   1.3405954e+08
   3955000   2.4453917e-10  133728.04      132889.22      414715.17      3.2956264e-06  5.1787051e-07  2.7777559e-06  1.3406112e+08
   3956000   2.44601e-10    133721.39      132883.34      414450.31      3.2956379e-06  5.1802021e-07  2.7776177e-06  1.3406079e+08
   3957000   2.4466283e-10  133710.15      132872.4       414339.05      3.2956489e-06  5.1826475e-07  2.7773841e-06  1.340585e+08 
   3958000   2.4472466e-10  133717.74      132879.72      414437.14      3.2956518e-06  5.1810992e-07  2.7775419e-06  1.3406261e+08
   3959000   2.4478649e-10  133725.71      132888.13      414299.83      3.2956452e-06  5.179377e-07   2.7777075e-06  1.3406567e+08
   3960000   2.4484832e-10  133702.46      132865.47      414075.65      3.2956452e-06  5.1842072e-07  2.7772245e-06  1.3405761e+08
   3961000   2.4491015e-10  133699.75      132863.66      413775.39      3.2956463e-06  5.1847806e-07  2.7771683e-06  1.3405698e+08
   3962000   2.4497198e-10  133709.95      132877.41      412595.41      3.2956326e-06  5.1825264e-07  2.77738e-06    1.3405839e+08
   3963000   2.4503381e-10  133718.47      132886.75      412328.93      3.2956284e-06  5.1807134e-07  2.777557e-06   1.3405932e+08
   3964000   2.4509564e-10  133722.34      132890.9       412240.51      3.2956272e-06  5.1798977e-07  2.7776375e-06  1.3405907e+08
   3965000   2.4515747e-10  133732.92      132904.48      411250.13      3.2956068e-06  5.1774958e-07  2.7778573e-06  1.3406014e+08
   3966000   2.452193e-10   133748.47      132922.67      410377.32      3.2956092e-06  5.1742907e-07  2.7781801e-06  1.3406499e+08
   3967000   2.4528113e-10  133749.99      132925.24      410032.42      3.2955993e-06  5.1738746e-07  2.7782118e-06  1.3406454e+08
   3968000   2.4534296e-10  133748.91      132924.96      409760.96      3.2956089e-06  5.1741954e-07  2.7781893e-06  1.3406467e+08
   3969000   2.4540479e-10  133741         132919.66      408878.96      3.295615e-06   5.1759002e-07  2.778025e-06   1.3406236e+08
   3970000   2.4546662e-10  133736.13      132916.3       408369.28      3.2956209e-06  5.1769711e-07  2.7779238e-06  1.3406169e+08
   3971000   2.4552845e-10  133731.46      132911.89      408281.08      3.2956337e-06  5.1780675e-07  2.7778269e-06  1.3406219e+08
   3972000   2.4559029e-10  133720.02      132904.8       406813.98      3.2956261e-06  5.1803677e-07  2.7775893e-06  1.3405831e+08
   3973000   2.4565212e-10  133718.57      132906.09      405896.09      3.2956213e-06  5.1806225e-07  2.7775591e-06  1.3405818e+08
   3974000   2.4571395e-10  133725.24      132914.86      405200.4       3.2956333e-06  5.1793557e-07  2.7776977e-06  1.340616e+08 
   3975000   2.4577578e-10  133740.18      132933.11      404108.55      3.2956397e-06  5.1763166e-07  2.778008e-06   1.3406766e+08
   3976000   2.4583761e-10  133736.63      132931.6       403424.17      3.2956373e-06  5.1770294e-07  2.7779343e-06  1.3406475e+08
   3977000   2.4589944e-10  133748.88      132943.71      403479.97      3.2956478e-06  5.174591e-07   2.7781887e-06  1.3407006e+08
   3978000   2.4596127e-10  133725.32      132922.09      402809.06      3.2956415e-06  5.1794211e-07  2.7776994e-06  1.3406073e+08
   3979000   2.460231e-10   133740.41      132937.93      402572.89      3.2956289e-06  5.176161e-07   2.7780128e-06  1.340653e+08 
   3980000   2.4608493e-10  133742.93      132941.93      402081.32      3.2956315e-06  5.1756633e-07  2.7780652e-06  1.3406508e+08
   3981000   2.4614676e-10  133759.61      132959.58      401772.73      3.2956439e-06  5.1723236e-07  2.7784115e-06  1.3407179e+08
   3982000   2.4620859e-10  133747.7       132949.36      401195.7       3.2956519e-06  5.1748765e-07  2.7781643e-06  1.3406854e+08
   3983000   2.4627042e-10  133719.74      132924.44      400150.16      3.2956499e-06  5.1806654e-07  2.7775834e-06  1.340599e+08 
   3984000   2.4633225e-10  133726.13      132932.26      399678.82      3.295632e-06   5.1791593e-07  2.7777161e-06  1.3406302e+08
   3985000   2.4639408e-10  133726.06      132932.98      399414.42      3.2956358e-06  5.1792112e-07  2.7777147e-06  1.3406339e+08
   3986000   2.4645591e-10  133724.14      132930.98      399439.54      3.2956348e-06  5.1795992e-07  2.7776749e-06  1.340626e+08 
   3987000   2.4651774e-10  133710.92      132917.18      399622.06      3.2956378e-06  5.1823748e-07  2.7774003e-06  1.3405873e+08
   3988000   2.4657957e-10  133707.34      132914         399484.4       3.2956239e-06  5.1829809e-07  2.7773259e-06  1.3405684e+08
   3989000   2.466414e-10   133721.09      132926.94      399768.26      3.2956329e-06  5.1802156e-07  2.7776114e-06  1.3406213e+08
   3990000   2.4670323e-10  133723.39      132929.32      399741.72      3.2956449e-06  5.1798572e-07  2.7776592e-06  1.3406326e+08
   3991000   2.4676506e-10  133733.81      132942.51      398826.7       3.2956469e-06  5.1777115e-07  2.7778757e-06  1.3406695e+08
   3992000   2.4682689e-10  133732.75      132941.67      398752.24      3.2956651e-06  5.1781138e-07  2.7778537e-06  1.3406808e+08
   3993000   2.4688872e-10  133725.79      132936.18      398253.82      3.2956608e-06  5.179517e-07   2.7777091e-06  1.3406586e+08
   3994000   2.4695055e-10  133720.03      132930.95      398068.58      3.295664e-06   5.1807461e-07  2.7775893e-06  1.3406515e+08
   3995000   2.4701238e-10  133730.67      132939.21      398875.53      3.2956696e-06  5.178592e-07   2.7778104e-06  1.3407075e+08
   3996000   2.4707421e-10  133708.65      132918.76      398328.32      3.295665e-06   5.18312e-07    2.777353e-06   1.3406169e+08
   3997000   2.4713604e-10  133706.8       132920.17      397235.51      3.2956518e-06  5.1833729e-07  2.7773145e-06  1.3405927e+08
   3998000   2.4719788e-10  133710.77      132924.92      396981.7       3.2956594e-06  5.182624e-07   2.777397e-06   1.3406056e+08
   3999000   2.4725971e-10  133715.19      132929.16      397045.88      3.2956406e-06  5.1815167e-07  2.7774889e-06  1.3405951e+08
   4000000   2.4732154e-10  133719.44      132933.94      396873.99      3.2956486e-06  5.1807146e-07  2.7775771e-06  1.3406153e+08
   4001000   2.4738337e-10  133720.69      132935.81      396665.63      3.295642e-06   5.1803896e-07  2.777603e-06   1.3406227e+08
   4002000   2.474452e-10   133703.62      132920.43      396083.06      3.2956246e-06  5.1837613e-07  2.7772485e-06  1.3405495e+08
   4003000   2.4750703e-10  133712.96      132932.24      395270.5       3.2956334e-06  5.181907e-07   2.7774427e-06  1.3405974e+08
   4004000   2.4756886e-10  133717.99      132938.12      394990.5       3.2956388e-06  5.1809172e-07  2.7775471e-06  1.3406164e+08
   4005000   2.4763069e-10  133721.62      132942.85      394624.11      3.2956453e-06  5.180229e-07   2.7776224e-06  1.3406325e+08
   4006000   2.4769252e-10  133719.58      132943.65      393669.35      3.2956478e-06  5.1806784e-07  2.77758e-06    1.3406243e+08
   4007000   2.4775435e-10  133717.18      132943.11      393049.27      3.2956471e-06  5.1811683e-07  2.7775303e-06  1.3406197e+08
   4008000   2.4781618e-10  133710.51      132936.85      392904.67      3.2956511e-06  5.1825938e-07  2.7773917e-06  1.3405964e+08
   4009000   2.4787801e-10  133727.1       132955.81      392128.68      3.2956549e-06  5.1791869e-07  2.7777362e-06  1.3406649e+08
   4010000   2.4793984e-10  133726.35      132954.11      392445.78      3.2956637e-06  5.1794294e-07  2.7777208e-06  1.3406737e+08
   4011000   2.4800167e-10  133721.77      132949.48      392459.64      3.2956535e-06  5.180278e-07   2.7776257e-06  1.3406547e+08
   4012000   2.480635e-10   133713.51      132940.84      392576.29      3.2956606e-06  5.1820657e-07  2.7774541e-06  1.3406299e+08
   4013000   2.4812533e-10  133710.61      132939.09      392190.49      3.2956571e-06  5.1826325e-07  2.7773939e-06  1.3406145e+08
   4014000   2.4818716e-10  133717.72      132946.8       391993.9       3.2956568e-06  5.1811535e-07  2.7775414e-06  1.3406433e+08
   4015000   2.4824899e-10  133700.78      132930.08      391905.19      3.2956605e-06  5.1847088e-07  2.7771896e-06  1.3405816e+08
   4016000   2.4831082e-10  133718.29      132948.31      391682.59      3.2956632e-06  5.1810985e-07  2.7775534e-06  1.3406526e+08
   4017000   2.4837265e-10  133726.6       132957.01      391558.5       3.2956651e-06  5.1793931e-07  2.7777258e-06  1.3406831e+08
   4018000   2.4843448e-10  133724.36      132956.41      391008.33      3.2956634e-06  5.1798408e-07  2.7776794e-06  1.3406667e+08
   4019000   2.4849631e-10  133728.77      132961.4       390817         3.2956592e-06  5.1788833e-07  2.7777709e-06  1.3406704e+08
   4020000   2.4855814e-10  133729.25      132962.68      390552.57      3.2956566e-06  5.1787553e-07  2.777781e-06   1.3406719e+08
   4021000   2.4861997e-10  133710.74      132946.03      389913.48      3.2956507e-06  5.1825423e-07  2.7773965e-06  1.3406007e+08
   4022000   2.486818e-10   133717.15      132953.48      389571.7       3.2956457e-06  5.1811605e-07  2.7775297e-06  1.3406158e+08
   4023000   2.4874363e-10  133716.17      132951.34      389956.3       3.29564e-06    5.1813078e-07  2.7775092e-06  1.340606e+08 
   4024000   2.4880547e-10  133708.08      132945.53      389187.66      3.2956439e-06  5.1830257e-07  2.7773413e-06  1.3405787e+08
   4025000   2.488673e-10   133720.9       132959.16      388928.36      3.2956431e-06  5.1803558e-07  2.7776075e-06  1.3406254e+08
   4026000   2.4892913e-10  133715.34      132953.93      388812.31      3.2956445e-06  5.1815247e-07  2.777492e-06   1.3406047e+08
   4027000   2.4899096e-10  133716.61      132956.16      388493.82      3.2956434e-06  5.1812494e-07  2.7775184e-06  1.3406125e+08
   4028000   2.4905279e-10  133705.27      132945.59      388225.19      3.2956618e-06  5.1837899e-07  2.7772828e-06  1.3405918e+08
   4029000   2.4911462e-10  133705.33      132944.57      388583.52      3.2956745e-06  5.1839042e-07  2.7772841e-06  1.3406103e+08
   4030000   2.4917645e-10  133714.39      132952.48      388977.11      3.2956624e-06  5.1819018e-07  2.7774722e-06  1.3406304e+08
   4031000   2.4923828e-10  133723.4       132962.43      388674.89      3.2956595e-06  5.1800002e-07  2.7776595e-06  1.3406486e+08
   4032000   2.4930011e-10  133730.18      132968.67      388861.27      3.2956528e-06  5.1785253e-07  2.7778003e-06  1.3406583e+08
   4033000   2.4936194e-10  133723.29      132962.75      388529.79      3.2956587e-06  5.1800152e-07  2.7776572e-06  1.340634e+08 
   4034000   2.4942377e-10  133713.28      132953.97      388106.19      3.2956419e-06  5.1819274e-07  2.7774491e-06  1.340584e+08 
   4035000   2.494856e-10   133721.7       132964.4       387445.44      3.2956594e-06  5.1803519e-07  2.7776242e-06  1.3406377e+08
   4036000   2.4954743e-10  133711.72      132955.51      387067.01      3.2956661e-06  5.1824935e-07  2.7774167e-06  1.3406272e+08
   4037000   2.4960926e-10  133701.27      132943.95      387430.77      3.295672e-06   5.1847231e-07  2.7771997e-06  1.3406178e+08
   4038000   2.4967109e-10  133695.03      132937.26      387573.61      3.2956936e-06  5.1862357e-07  2.7770701e-06  1.3406213e+08
   4039000   2.4973292e-10  133711.85      132955.31      387179.51      3.2957001e-06  5.1828051e-07  2.7774195e-06  1.3406789e+08
   4040000   2.4979475e-10  133727.06      132971.3       386933.2       3.2956898e-06  5.1795434e-07  2.7777355e-06  1.3407151e+08
   4041000   2.4985658e-10  133719.19      132964.2       386666.43      3.2956886e-06  5.181167e-07   2.7775719e-06  1.3406797e+08
   4042000   2.4991841e-10  133714.86      132962.65      385731.51      3.2956803e-06  5.1819834e-07  2.7774819e-06  1.3406512e+08
   4043000   2.4998024e-10  133729.14      132977.85      385440.23      3.2956544e-06  5.1787579e-07  2.7777787e-06  1.3406755e+08
   4044000   2.5004207e-10  133725.08      132974.2       385299.1       3.295638e-06   5.1794373e-07  2.7776943e-06  1.3406322e+08
   4045000   2.501039e-10   133730.39      132981.3       384706.25      3.2956326e-06  5.17828e-07    2.7778046e-06  1.3406295e+08
   4046000   2.5016573e-10  133739.61      132991.82      384281         3.2956274e-06  5.1763122e-07  2.7779961e-06  1.340649e+08 
   4047000   2.5022756e-10  133726.48      132980.02      383825.11      3.2956407e-06  5.1791722e-07  2.7777235e-06  1.3406073e+08
   4048000   2.5028939e-10  133735.02      132987.63      384144.57      3.2956235e-06  5.1772264e-07  2.7779008e-06  1.340637e+08 
   4049000   2.5035122e-10  133723.67      132976.33      384112.13      3.2956438e-06  5.1797885e-07  2.7776649e-06  1.3406235e+08
   4050000   2.5041306e-10  133728.79      132983.63      383392.19      3.295636e-06   5.1786455e-07  2.7777714e-06  1.3406491e+08
   4051000   2.5047489e-10  133722.13      132979.01      382700.64      3.2956224e-06  5.1798938e-07  2.777633e-06   1.3406143e+08
   4052000   2.5053672e-10  133721.01      132978.93      382352.16      3.2956326e-06  5.180229e-07   2.7776097e-06  1.3406116e+08
   4053000   2.5059855e-10  133729.97      132990         381657.06      3.2956362e-06  5.1784022e-07  2.7777959e-06  1.340641e+08 
   4054000   2.5066038e-10  133727.81      132988.23      381525.06      3.2956394e-06  5.1788839e-07  2.777751e-06   1.3406342e+08
   4055000   2.5072221e-10  133716.08      132975.28      381922.18      3.2956414e-06  5.1813392e-07  2.7775075e-06  1.3405937e+08
   4056000   2.5078404e-10  133720.86      132980.28      381853.08      3.2956471e-06  5.1804031e-07  2.7776068e-06  1.3406239e+08
   4057000   2.5084587e-10  133713.38      132972.64      381895.46      3.295653e-06   5.1820174e-07  2.7774512e-06  1.3406055e+08
   4058000   2.509077e-10   133729.52      132988.81      381904.98      3.2956537e-06  5.1786709e-07  2.7777866e-06  1.3406712e+08
   4059000   2.5096953e-10  133721.3       132980.7       381857.56      3.2956612e-06  5.1804544e-07  2.7776157e-06  1.3406373e+08
   4060000   2.5103136e-10  133719.9       132981.04      381272.08      3.2956573e-06  5.1807069e-07  2.7775866e-06  1.3406238e+08
   4061000   2.5109319e-10  133728.99      132990.71      381088.44      3.2956598e-06  5.1788439e-07  2.7777755e-06  1.3406702e+08
   4062000   2.5115502e-10  133714.98      132975.49      381477.85      3.295656e-06   5.1817153e-07  2.7774844e-06  1.3406175e+08
   4063000   2.5121685e-10  133714.42      132973.51      381957.12      3.2956318e-06  5.1815882e-07  2.777473e-06   1.3405931e+08
   4064000   2.5127868e-10  133722.96      132980.53      382470.85      3.2956297e-06  5.1797934e-07  2.7776503e-06  1.3406147e+08
   4065000   2.5134051e-10  133724.83      132981.3       382842.88      3.2956331e-06  5.1794398e-07  2.7776892e-06  1.3406184e+08
   4066000   2.5140234e-10  133723.25      132978.61      383210.2       3.2956511e-06  5.1799483e-07  2.7776563e-06  1.3406207e+08
   4067000   2.5146417e-10  133727.49      132983.62      382960.48      3.2956442e-06  5.1789978e-07  2.7777444e-06  1.340627e+08 
   4068000   2.51526e-10    133747.01      133003.49      382861.03      3.295639e-06   5.1748918e-07  2.7781498e-06  1.340699e+08 
   4069000   2.5158783e-10  133733.66      132991.59      382362.51      3.2956411e-06  5.1776858e-07  2.7778725e-06  1.3406487e+08
   4070000   2.5164966e-10  133737.73      132998.73      381341.23      3.2956326e-06  5.1767549e-07  2.7779571e-06  1.3406605e+08
   4071000   2.5171149e-10  133724.19      132986.77      380795.28      3.2956347e-06  5.1795895e-07  2.7776757e-06  1.3406095e+08
   4072000   2.5177332e-10  133712.85      132975.08      380902.54      3.2956436e-06  5.1820339e-07  2.7774403e-06  1.3405763e+08
   4073000   2.5183515e-10  133716.45      132978.04      381118.47      3.2956472e-06  5.1813221e-07  2.777515e-06   1.3406017e+08
   4074000   2.5189698e-10  133705.72      132966.8       381282.02      3.2956447e-06  5.1835246e-07  2.7772923e-06  1.3405673e+08
   4075000   2.5195881e-10  133717.83      132981.35      380475.85      3.2956507e-06  5.1810694e-07  2.7775437e-06  1.3406233e+08
   4076000   2.5202065e-10  133712.94      132978.29      379860.43      3.2956525e-06  5.1821035e-07  2.7774422e-06  1.3406002e+08
   4077000   2.5208248e-10  133707.3       132970.27      380650.14      3.295657e-06   5.1833198e-07  2.777325e-06   1.3405801e+08
   4078000   2.5214431e-10  133714.02      132976.35      380872.86      3.2956584e-06  5.1819376e-07  2.7774646e-06  1.3406065e+08
   4079000   2.5220614e-10  133711.09      132975.63      380127.25      3.2956503e-06  5.1824666e-07  2.7774036e-06  1.3405895e+08
   4080000   2.5226797e-10  133726.22      132992.25      379647.62      3.2956451e-06  5.1792696e-07  2.7777181e-06  1.3406514e+08
   4081000   2.523298e-10   133723.48      132990.32      379373.47      3.2956431e-06  5.1798201e-07  2.7776611e-06  1.3406457e+08
   4082000   2.5239163e-10  133715.25      132982.33      379283.95      3.2956413e-06  5.1815114e-07  2.7774902e-06  1.3406126e+08
   4083000   2.5245346e-10  133725.14      132993.06      379013.16      3.2956593e-06  5.1796374e-07  2.7776956e-06  1.3406607e+08
   4084000   2.5251529e-10  133726.84      132992.89      379639.87      3.2956608e-06  5.1792991e-07  2.7777309e-06  1.3406714e+08
   4085000   2.5257712e-10  133713.51      132977.25      380397.85      3.295652e-06   5.1819804e-07  2.777454e-06   1.340614e+08 
   4086000   2.5263895e-10  133724.79      132987.5       380756.64      3.2956502e-06  5.1796185e-07  2.7776884e-06  1.3406522e+08
   4087000   2.5270078e-10  133728.51      132991.02      380825.64      3.295653e-06   5.1788748e-07  2.7777655e-06  1.3406596e+08
   4088000   2.5276261e-10  133726.58      132988.2       381122.73      3.2956537e-06  5.1792817e-07  2.7777255e-06  1.34064e+08  
   4089000   2.5282444e-10  133722.34      132985.4       380633.75      3.29565e-06    5.1801261e-07  2.7776373e-06  1.3406183e+08
   4090000   2.5288627e-10  133716.99      132981.43      380167.63      3.2956506e-06  5.1812441e-07  2.7775262e-06  1.3406081e+08
   4091000   2.529481e-10   133710.41      132975.16      380057.52      3.295652e-06   5.1826235e-07  2.7773896e-06  1.3405888e+08
   4092000   2.5300993e-10  133714.5       132980.48      379650.5       3.2956522e-06  5.1817761e-07  2.7774746e-06  1.340605e+08 
   4093000   2.5307176e-10  133731.83      132999.44      379124.32      3.295649e-06   5.1781436e-07  2.7778346e-06  1.3406629e+08
   4094000   2.5313359e-10  133738.96      133005.44      379507.56      3.2956504e-06  5.176678e-07   2.7779826e-06  1.3406945e+08
   4095000   2.5319542e-10  133716.84      132984.17      379202.82      3.2956522e-06  5.1812896e-07  2.7775232e-06  1.3406232e+08
   4096000   2.5325725e-10  133710.89      132978.7       379036.56      3.2956468e-06  5.1824719e-07  2.7773997e-06  1.3406005e+08
   4097000   2.5331908e-10  133722.05      132990.45      378847.67      3.2956365e-06  5.1800519e-07  2.7776313e-06  1.3406268e+08
   4098000   2.5338091e-10  133722.41      132993.21      378046.21      3.2956238e-06  5.1798487e-07  2.7776389e-06  1.340607e+08 
   4099000   2.5344274e-10  133719.82      132991.02      377912.04      3.2956266e-06  5.1804148e-07  2.7775851e-06  1.3405948e+08
   4100000   2.5350457e-10  133735.33      133007.35      377651.15      3.2956365e-06  5.1772926e-07  2.7779073e-06  1.3406634e+08
   4101000   2.535664e-10   133732.08      133006.01      377007.59      3.2956399e-06  5.1780027e-07  2.7778397e-06  1.3406506e+08
   4102000   2.5362824e-10  133722.73      132998.12      376510.37      3.2956385e-06  5.1799304e-07  2.7776455e-06  1.3406151e+08
   4103000   2.5369007e-10  133730.32      133005.17      376700.93      3.2956419e-06  5.1783869e-07  2.7778032e-06  1.3406379e+08
   4104000   2.537519e-10   133754.91      133031.01      376306.93      3.2956421e-06  5.1732808e-07  2.778314e-06   1.3407141e+08
   4105000   2.5381373e-10  133739.72      133015.97      376242.33      3.2956389e-06  5.1764038e-07  2.7779985e-06  1.3406473e+08
   4106000   2.5387556e-10  133742.32      133019.24      376020.72      3.2956477e-06  5.1759518e-07  2.7780525e-06  1.3406735e+08
   4107000   2.5393739e-10  133737.73      133013.57      376377.9       3.2956605e-06  5.1770345e-07  2.7779571e-06  1.3406761e+08
   4108000   2.5399922e-10  133729.66      133005.68      376307.5       3.2956585e-06  5.178691e-07   2.7777894e-06  1.3406563e+08
   4109000   2.5406105e-10  133728.02      133004.61      376115.51      3.2956608e-06  5.1790534e-07  2.7777555e-06  1.340663e+08 
   4110000   2.5412288e-10  133713.43      132991.21      375702.37      3.2956517e-06  5.181994e-07   2.7774523e-06  1.3406053e+08
   4111000   2.5418471e-10  133731.39      133009.14      375730.14      3.2956696e-06  5.1784419e-07  2.7778254e-06  1.3406841e+08
   4112000   2.5424654e-10  133725.22      133000.58      376523.11      3.2956493e-06  5.1795213e-07  2.7776972e-06  1.3406342e+08
   4113000   2.5430837e-10  133729.7       133003.41      377080.25      3.2956453e-06  5.1785498e-07  2.7777903e-06  1.3406383e+08
   4114000   2.543702e-10   133736.84      133011.24      376856.87      3.2956453e-06  5.1770661e-07  2.7779387e-06  1.3406653e+08
   4115000   2.5443203e-10  133718.02      132994.69      376078.61      3.2956375e-06  5.1808984e-07  2.7775476e-06  1.3405952e+08
   4116000   2.5449386e-10  133717.07      132993.85      376040.94      3.2956419e-06  5.1811399e-07  2.7775279e-06  1.3406044e+08
   4117000   2.5455569e-10  133718.23      132994.7       376147.71      3.2956439e-06  5.1809181e-07  2.7775521e-06  1.3406135e+08
   4118000   2.5461752e-10  133729.35      133006.61      375891.41      3.2956655e-06  5.1788256e-07  2.777783e-06   1.3406646e+08
   4119000   2.5467935e-10  133732.27      133009.91      375769.01      3.2956681e-06  5.1782452e-07  2.7778436e-06  1.3406685e+08
   4120000   2.5474118e-10  133721.3       132999.64      375525.04      3.2956448e-06  5.1802895e-07  2.7776158e-06  1.3405974e+08
   4121000   2.5480301e-10  133731.98      133012.97      374648.91      3.2956342e-06  5.1779658e-07  2.7778376e-06  1.340623e+08 
   4122000   2.5486484e-10  133731.58      133012.25      374753.39      3.2956312e-06  5.1780192e-07  2.7778293e-06  1.3406128e+08
   4123000   2.5492667e-10  133741.43      133022.84      374518.34      3.2956206e-06  5.1758668e-07  2.7780339e-06  1.3406382e+08
   4124000   2.549885e-10   133748.6       133031.54      374010.97      3.2956072e-06  5.1742445e-07  2.7781828e-06  1.340656e+08 
   4125000   2.5505033e-10  133739.59      133025.88      372885.14      3.2956243e-06  5.1762857e-07  2.7779957e-06  1.3406414e+08
   4126000   2.5511216e-10  133735.22      133023.68      372154.41      3.2956166e-06  5.1771156e-07  2.777905e-06   1.3406246e+08
   4127000   2.5517399e-10  133746.74      133035.19      372168.52      3.2956353e-06  5.1749104e-07  2.7781442e-06  1.340681e+08 
   4128000   2.5523583e-10  133741.67      133028.79      372607.19      3.2956455e-06  5.1760657e-07  2.778039e-06   1.3406719e+08
   4129000   2.5529766e-10  133726.19      133013.33      372586.29      3.2956572e-06  5.1793982e-07  2.7777174e-06  1.3406321e+08
   4130000   2.5535949e-10  133714.95      132999.97      373284.83      3.2956667e-06  5.1818281e-07  2.7774839e-06  1.3406101e+08
   4131000   2.5542132e-10  133735.34      133020.59      373224.3       3.2956773e-06  5.1776996e-07  2.7779074e-06  1.3407019e+08
   4132000   2.5548315e-10  133741.16      133026.47      373214.31      3.2956771e-06  5.1764869e-07  2.7780284e-06  1.3407226e+08
   4133000   2.5554498e-10  133734.54      133020.73      372912.01      3.2956699e-06  5.1777904e-07  2.7778908e-06  1.3406996e+08
   4134000   2.5560681e-10  133702.85      132989.6       372693.51      3.295665e-06   5.1843239e-07  2.7772326e-06  1.3405868e+08
   4135000   2.5566864e-10  133711.85      132999.62      372363.64      3.2956546e-06  5.1823501e-07  2.7774196e-06  1.3406252e+08
   4136000   2.5573047e-10  133702.46      132990.95      372109.68      3.2956409e-06  5.1841649e-07  2.7772244e-06  1.3405776e+08
   4137000   2.557923e-10   133705.15      132994.53      371816.99      3.2956327e-06  5.1835228e-07  2.7772804e-06  1.3405819e+08
   4138000   2.5585413e-10  133704.42      132994.31      371642.8       3.2956369e-06  5.1837175e-07  2.7772652e-06  1.3405755e+08
   4139000   2.5591596e-10  133720.2       133009.75      371773.04      3.2956346e-06  5.1804171e-07  2.7775929e-06  1.3406291e+08
   4140000   2.5597779e-10  133717.8       133006.72      371982.91      3.2956429e-06  5.180998e-07   2.7775431e-06  1.3406189e+08
   4141000   2.5603962e-10  133727.88      133016.29      372163.21      3.2956536e-06  5.1790112e-07  2.7777525e-06  1.3406539e+08
   4142000   2.5610145e-10  133732.03      133019.49      372483.68      3.2956695e-06  5.1783087e-07  2.7778386e-06  1.340676e+08 
   4143000   2.5616328e-10  133733.1       133020.91      372368.06      3.2956631e-06  5.178022e-07   2.7778609e-06  1.3406651e+08
   4144000   2.5622511e-10  133714.68      133002.65      372296.9       3.29566e-06    5.1818161e-07  2.7774784e-06  1.3405871e+08
   4145000   2.5628694e-10  133718.92      133006.42      372460.04      3.2956489e-06  5.1808242e-07  2.7775665e-06  1.3405972e+08
   4146000   2.5634877e-10  133734.48      133024.42      371659.03      3.2956384e-06  5.1774875e-07  2.7778896e-06  1.3406476e+08
   4147000   2.564106e-10   133741.36      133034.33      370652.57      3.2956278e-06  5.1759521e-07  2.7780326e-06  1.3406691e+08
   4148000   2.5647243e-10  133726.23      133021.54      369852.18      3.2956353e-06  5.1791719e-07  2.7777181e-06  1.3406301e+08
   4149000   2.5653426e-10  133725.22      133021.14      369648.66      3.2956544e-06  5.1795717e-07  2.7776973e-06  1.34065e+08  
   4150000   2.5659609e-10  133724.08      133023.05      368626.39      3.2956323e-06  5.1795878e-07  2.7776735e-06  1.340631e+08 
   4151000   2.5665792e-10  133722.83      133021.13      368848.29      3.2956321e-06  5.1798466e-07  2.7776475e-06  1.3406274e+08
   4152000   2.5671975e-10  133708.86      133008.42      368415.33      3.2956359e-06  5.182784e-07   2.7773575e-06  1.3405696e+08
   4153000   2.5678158e-10  133717.74      133018.27      368099.59      3.295624e-06   5.1808216e-07  2.7775418e-06  1.3405985e+08
   4154000   2.5684342e-10  133716.14      133017.55      367802.54      3.2956313e-06  5.1812266e-07  2.7775086e-06  1.3406051e+08
   4155000   2.5690525e-10  133718.88      133019.29      368139.37      3.2956166e-06  5.180511e-07   2.7775655e-06  1.3405964e+08
   4156000   2.5696708e-10  133711.39      133011.49      368234.92      3.2956425e-06  5.1823254e-07  2.77741e-06    1.3405802e+08
   4157000   2.5702891e-10  133717.15      133018.09      367961.17      3.2956341e-06  5.181046e-07   2.7775295e-06  1.3405874e+08
   4158000   2.5709074e-10  133742.72      133044.63      367662.48      3.2956381e-06  5.1757741e-07  2.7780607e-06  1.3406843e+08
   4159000   2.5715257e-10  133723.66      133025.81      367563.11      3.2956409e-06  5.1797601e-07  2.7776649e-06  1.3406073e+08
   4160000   2.572144e-10   133734.15      133038.89      366707.02      3.2956398e-06  5.1775701e-07  2.7778828e-06  1.3406538e+08
   4161000   2.5727623e-10  133722.71      133029.02      366169.45      3.2956314e-06  5.1798634e-07  2.777645e-06   1.3406087e+08
   4162000   2.5733806e-10  133732.52      133038.72      366216.6       3.2956155e-06  5.1776661e-07  2.7778489e-06  1.340633e+08 
   4163000   2.5739989e-10  133731.25      133037.25      366282.01      3.2956458e-06  5.1782339e-07  2.7778224e-06  1.3406459e+08
   4164000   2.5746172e-10  133730.51      133036.88      366159.76      3.2956311e-06  5.1782389e-07  2.7778072e-06  1.3406232e+08
   4165000   2.5752355e-10  133742.58      133049.64      365938.75      3.2956207e-06  5.1756287e-07  2.7780578e-06  1.3406565e+08
   4166000   2.5758538e-10  133736.11      133042.12      366282.75      3.2955977e-06  5.1767432e-07  2.7779234e-06  1.340615e+08 
   4167000   2.5764721e-10  133732.02      133037.07      366601.31      3.2955988e-06  5.1776035e-07  2.7778385e-06  1.3406004e+08
   4168000   2.5770904e-10  133723.17      133030.15      365947.89      3.2956146e-06  5.1795985e-07  2.7776547e-06  1.3405728e+08
   4169000   2.5777087e-10  133727.12      133034.27      365895.36      3.2956162e-06  5.178795e-07   2.7777367e-06  1.3405826e+08
   4170000   2.578327e-10   133732.76      133039.05      366188.53      3.2956262e-06  5.1777242e-07  2.7778538e-06  1.3406126e+08
   4171000   2.5789453e-10  133726.1       133032.06      366291.16      3.2956306e-06  5.1791507e-07  2.7777155e-06  1.3405991e+08
   4172000   2.5795636e-10  133735.73      133040.96      366546.86      3.2956323e-06  5.1771668e-07  2.7779156e-06  1.3406413e+08
   4173000   2.5801819e-10  133727.69      133034.8       365910.43      3.2956206e-06  5.1787197e-07  2.7777486e-06  1.3406057e+08
   4174000   2.5808002e-10  133718.58      133027         365461.44      3.295622e-06   5.1806254e-07  2.7775594e-06  1.3405792e+08
   4175000   2.5814185e-10  133719.94      133030.11      364877.72      3.2956291e-06  5.1804145e-07  2.7775876e-06  1.3406014e+08
   4176000   2.5820368e-10  133705.1       133016.55      364436.45      3.2956281e-06  5.1834877e-07  2.7772794e-06  1.340556e+08 
   4177000   2.5826551e-10  133709.3       133021.34      364240.58      3.2956408e-06  5.1827425e-07  2.7773666e-06  1.3405938e+08
   4178000   2.5832734e-10  133722.26      133033.48      364531.38      3.2956543e-06  5.1801842e-07  2.7776358e-06  1.3406566e+08
   4179000   2.5838917e-10  133715.03      133026.77      364344.54      3.2956677e-06  5.1818226e-07  2.7774855e-06  1.3406459e+08
   4180000   2.5845101e-10  133708.86      133022.04      363859.75      3.2956704e-06  5.1831288e-07  2.7773575e-06  1.3406284e+08
   4181000   2.5851284e-10  133727.48      133040.72      363857.9       3.2956766e-06  5.1793248e-07  2.7777441e-06  1.3406934e+08
   4182000   2.5857467e-10  133740.62      133054.49      363659.89      3.2956956e-06  5.1767847e-07  2.7780171e-06  1.3407406e+08
   4183000   2.586365e-10   133732.37      133047.1       363363.43      3.2956793e-06  5.1783366e-07  2.7778457e-06  1.3406915e+08
   4184000   2.5869833e-10  133725.17      133040.33      363213.97      3.2956649e-06  5.1796858e-07  2.7776963e-06  1.3406459e+08
   4185000   2.5876016e-10  133737.8       133052.91      363242.61      3.2956513e-06  5.1769284e-07  2.7779585e-06  1.3406807e+08
   4186000   2.5882199e-10  133735.43      133050.64      363207.49      3.2956514e-06  5.1774199e-07  2.7779094e-06  1.3406678e+08
   4187000   2.5888382e-10  133730.59      133045.61      363265.83      3.2956452e-06  5.1783637e-07  2.7778089e-06  1.3406447e+08
   4188000   2.5894565e-10  133727.08      133040.39      363835.53      3.2956471e-06  5.1791121e-07  2.7777359e-06  1.3406445e+08
   4189000   2.5900748e-10  133709.21      133022.6       363789.27      3.2956463e-06  5.1828165e-07  2.7773646e-06  1.3405927e+08
   4190000   2.5906931e-10  133702.11      133016.16      363562.35      3.2956478e-06  5.1843063e-07  2.7772172e-06  1.3405773e+08
   4191000   2.5913114e-10  133724.12      133039.1       363272.81      3.2956445e-06  5.1797022e-07  2.7776743e-06  1.3406672e+08
   4192000   2.5919297e-10  133708.57      133023.93      363131.35      3.2956413e-06  5.1828986e-07  2.7773514e-06  1.3406008e+08
   4193000   2.592548e-10   133708.41      133025.2       362651.83      3.2956527e-06  5.1830463e-07  2.7773481e-06  1.340598e+08 
   4194000   2.5931663e-10  133727.54      133045.85      362163.35      3.2956548e-06  5.1790939e-07  2.7777454e-06  1.3406587e+08
   4195000   2.5937846e-10  133731.75      133051.81      361581.74      3.2956582e-06  5.1782541e-07  2.7778328e-06  1.3406702e+08
   4196000   2.5944029e-10  133744.21      133064         361686.21      3.295662e-06   5.1757025e-07  2.7780918e-06  1.3407195e+08
   4197000   2.5950212e-10  133732.68      133053.97      361170.57      3.2956561e-06  5.1780388e-07  2.7778522e-06  1.3406636e+08
   4198000   2.5956395e-10  133716.76      133039.86      360547.76      3.2956526e-06  5.1813108e-07  2.7775215e-06  1.3405943e+08
   4199000   2.5962578e-10  133722.21      133045.41      360521.82      3.2956355e-06  5.1800082e-07  2.7776347e-06  1.3405974e+08
   4200000   2.5968761e-10  133718.46      133042.23      360326.71      3.2956331e-06  5.1807637e-07  2.7775568e-06  1.3405888e+08
   4201000   2.5974944e-10  133701.6       133025.21      360364.98      3.2956504e-06  5.184438e-07   2.7772066e-06  1.3405478e+08
   4202000   2.5981127e-10  133726.97      133050.57      360390.37      3.2956585e-06  5.1792498e-07  2.7777335e-06  1.3406579e+08
   4203000   2.598731e-10   133717.13      133040.75      360376.23      3.2956595e-06  5.1813018e-07  2.7775293e-06  1.3406268e+08
   4204000   2.5993493e-10  133726.44      133049.05      360722.38      3.2956457e-06  5.179231e-07   2.7777226e-06  1.3406571e+08
   4205000   2.5999676e-10  133716.01      133038.17      360863.6       3.2956456e-06  5.1813973e-07  2.7775058e-06  1.3406111e+08
   4206000   2.600586e-10   133717.23      133040.55      360477.6       3.2956449e-06  5.1811351e-07  2.7775314e-06  1.3406115e+08
   4207000   2.6012043e-10  133711.58      133036.67      359879.21      3.2956565e-06  5.1824256e-07  2.7774139e-06  1.3405899e+08
   4208000   2.6018226e-10  133729.01      133054.59      359730.21      3.2956357e-06  5.1785976e-07  2.7777759e-06  1.3406254e+08
   4209000   2.6024409e-10  133731.1       133056.01      359957.69      3.2956286e-06  5.1780919e-07  2.7778194e-06  1.3406244e+08
   4210000   2.6030592e-10  133727.68      133051.6       360286.69      3.2956262e-06  5.1787774e-07  2.7777484e-06  1.3406161e+08
   4211000   2.6036775e-10  133731.19      133054.25      360577.25      3.2956228e-06  5.1780159e-07  2.7778212e-06  1.3406232e+08
   4212000   2.6042958e-10  133753.67      133078.19      360112.03      3.2956224e-06  5.1733433e-07  2.7782881e-06  1.3407052e+08
   4213000   2.6049141e-10  133741.99      133066.71      360034.82      3.2956202e-06  5.1757455e-07  2.7780456e-06  1.3406599e+08
   4214000   2.6055324e-10  133735.1       133059.42      360158.43      3.2956063e-06  5.1770395e-07  2.7779024e-06  1.3406332e+08
   4215000   2.6061507e-10  133739.06      133063.67      360067.09      3.2956219e-06  5.1763731e-07  2.7779846e-06  1.3406627e+08
   4216000   2.606769e-10   133744.7       133067.94      360529.71      3.2956231e-06  5.1752124e-07  2.7781019e-06  1.3406764e+08
   4217000   2.6073873e-10  133733.91      133056.7       360670.79      3.2956372e-06  5.1775939e-07  2.7778778e-06  1.3406412e+08
   4218000   2.6080056e-10  133721.17      133042         361315.67      3.2956426e-06  5.1802944e-07  2.7776132e-06  1.3406011e+08
   4219000   2.6086239e-10  133721.76      133045.07      360483.97      3.2956372e-06  5.1801186e-07  2.7776253e-06  1.340601e+08 
   4220000   2.6092422e-10  133726.94      133052.37      359779.5       3.2956391e-06  5.1790614e-07  2.7777329e-06  1.3406246e+08
   4221000   2.6098605e-10  133733.41      133058.88      359771.57      3.2956474e-06  5.1778009e-07  2.7778673e-06  1.3406577e+08
   4222000   2.6104788e-10  133747.11      133072.67      359758.57      3.2956387e-06  5.1748675e-07  2.778152e-06   1.340702e+08 
   4223000   2.6110971e-10  133743.16      133068.61      359788.89      3.2956336e-06  5.1756379e-07  2.7780698e-06  1.3406751e+08
   4224000   2.6117154e-10  133742.96      133068.46      359770.8       3.2956218e-06  5.1755618e-07  2.7780657e-06  1.3406595e+08
   4225000   2.6123337e-10  133736.27      133062.79      359426.44      3.295637e-06   5.1771025e-07  2.7779268e-06  1.340639e+08 
   4226000   2.612952e-10   133738.09      133065.12      359255.83      3.2956309e-06  5.1766636e-07  2.7779646e-06  1.3406416e+08
   4227000   2.6135703e-10  133730.83      133059.42      358728.16      3.2956391e-06  5.1782535e-07  2.7778137e-06  1.3406278e+08
   4228000   2.6141886e-10  133725.4       133054.76      358466.32      3.2956481e-06  5.1794706e-07  2.7777011e-06  1.3406149e+08
   4229000   2.6148069e-10  133740.66      133071.31      358051.09      3.2956462e-06  5.1762816e-07  2.778018e-06   1.3406734e+08
   4230000   2.6154252e-10  133734.32      133064.81      358096.14      3.2956357e-06  5.177494e-07   2.7778863e-06  1.3406367e+08
   4231000   2.6160435e-10  133740.98      133068.98      358936.96      3.2956277e-06  5.1760305e-07  2.7780246e-06  1.3406463e+08
   4232000   2.6166619e-10  133740.33      133066.91      359407.18      3.2956225e-06  5.1761149e-07  2.778011e-06   1.3406374e+08
   4233000   2.6172802e-10  133717.6       133046.97      358454.61      3.2956213e-06  5.1808234e-07  2.7775389e-06  1.3405578e+08
   4234000   2.6178985e-10  133707.26      133035.48      358829.12      3.2956223e-06  5.1829806e-07  2.7773242e-06  1.3405246e+08
   4235000   2.6185168e-10  133718.74      133047.38      358697.02      3.2956199e-06  5.1805737e-07  2.7775625e-06  1.3405675e+08
   4236000   2.6191351e-10  133723.94      133053.12      358523.2       3.295632e-06   5.1796147e-07  2.7776706e-06  1.3405937e+08
   4237000   2.6197534e-10  133726.55      133055.41      358631.95      3.2956319e-06  5.1790707e-07  2.7777249e-06  1.3406075e+08
   4238000   2.6203717e-10  133731.95      133062.21      358167.32      3.2956311e-06  5.1779417e-07  2.7778369e-06  1.3406368e+08
   4239000   2.62099e-10    133735.05      133065.68      358048.92      3.2956491e-06  5.1774761e-07  2.7779015e-06  1.3406788e+08
   4240000   2.6216083e-10  133724.62      133054.44      358312.53      3.2956471e-06  5.1796224e-07  2.7776849e-06  1.3406491e+08
   4241000   2.6222266e-10  133735.49      133064.03      358748.96      3.2956499e-06  5.1773935e-07  2.7779105e-06  1.3406996e+08
   4242000   2.6228449e-10  133715.34      133042.82      359082.18      3.2956456e-06  5.1815368e-07  2.7774919e-06  1.3406174e+08
   4243000   2.6234632e-10  133720.38      133046.07      359687.66      3.2956435e-06  5.1804684e-07  2.7775966e-06  1.3406289e+08
   4244000   2.6240815e-10  133713.41      133038.35      359930.95      3.2956476e-06  5.181956e-07   2.777452e-06   1.3405978e+08
   4245000   2.6246998e-10  133717.4       133043.44      359565.55      3.2956297e-06  5.1809496e-07  2.7775347e-06  1.340591e+08 
   4246000   2.6253181e-10  133719.5       133046.44      359268.27      3.2956378e-06  5.1805934e-07  2.7775785e-06  1.340604e+08 
   4247000   2.6259364e-10  133725.52      133052.73      359184.38      3.2956367e-06  5.179331e-07   2.7777036e-06  1.3406419e+08
   4248000   2.6265547e-10  133716.1       133044.15      358895.4       3.2956437e-06  5.1813582e-07  2.7775078e-06  1.3406261e+08
   4249000   2.627173e-10   133707.41      133034.52      359197.04      3.2956509e-06  5.183237e-07   2.7773272e-06  1.3406058e+08
   4250000   2.6277913e-10  133712.43      133041.08      358687.71      3.2956576e-06  5.1822606e-07  2.7774315e-06  1.3406263e+08
   4251000   2.6284096e-10  133712.52      133041.05      358727.41      3.2956359e-06  5.1820255e-07  2.7774334e-06  1.3406035e+08
   4252000   2.6290279e-10  133720.27      133049.31      358564.9       3.2956349e-06  5.1804061e-07  2.7775943e-06  1.3406184e+08
   4253000   2.6296462e-10  133724.53      133053.02      358754.07      3.2956446e-06  5.1796181e-07  2.7776828e-06  1.3406207e+08
   4254000   2.6302645e-10  133735.49      133064.76      358505.66      3.2956329e-06  5.177222e-07   2.7779107e-06  1.3406311e+08
   4255000   2.6308828e-10  133742.5       133072.67      358210.89      3.2956356e-06  5.1757937e-07  2.7780563e-06  1.3406449e+08
   4256000   2.6315011e-10  133738.81      133070.47      357709.64      3.2956212e-06  5.1764167e-07  2.7779796e-06  1.340615e+08 
   4257000   2.6321194e-10  133729.57      133062.05      357424.75      3.2956291e-06  5.1784148e-07  2.7777876e-06  1.340589e+08 
   4258000   2.6327378e-10  133728.67      133062.42      356999.62      3.2956256e-06  5.1785667e-07  2.7777689e-06  1.3405905e+08
   4259000   2.6333561e-10  133724.98      133059.71      356666.88      3.2956123e-06  5.179201e-07   2.7776922e-06  1.3405799e+08
   4260000   2.6339744e-10  133734.67      133071.59      355943.57      3.2956136e-06  5.1772018e-07  2.7778934e-06  1.3406339e+08
   4261000   2.6345927e-10  133723.7       133061.41      355671.77      3.2956247e-06  5.1795901e-07  2.7776657e-06  1.3406047e+08
   4262000   2.635211e-10   133732.17      133069.81      355701.92      3.2956344e-06  5.1779278e-07  2.7778416e-06  1.340643e+08 
   4263000   2.6358293e-10  133742.6       133082.56      354938.57      3.2956455e-06  5.1758723e-07  2.7780583e-06  1.3406955e+08
   4264000   2.6364476e-10  133735.65      133076.25      354715.83      3.2956473e-06  5.1773348e-07  2.7779138e-06  1.3406777e+08
   4265000   2.6370659e-10  133725.59      133066.81      354498.8       3.29566e-06    5.1795506e-07  2.7777049e-06  1.3406539e+08
   4266000   2.6376842e-10  133710.57      133054.05      353726.14      3.2956581e-06  5.1826525e-07  2.7773928e-06  1.3406046e+08
   4267000   2.6383025e-10  133709.63      133053.67      353540.33      3.2956748e-06  5.183014e-07   2.7773734e-06  1.340633e+08 
   4268000   2.6389208e-10  133720.86      133064.29      353755.05      3.295665e-06   5.1805829e-07  2.7776067e-06  1.3406738e+08
   4269000   2.6395391e-10  133726.54      133068.93      354109.33      3.2956722e-06  5.1794756e-07  2.7777247e-06  1.3406906e+08
   4270000   2.6401574e-10  133730.22      133072.46      354162.1       3.2956795e-06  5.1787837e-07  2.7778011e-06  1.340704e+08 
   4271000   2.6407757e-10  133721.82      133064.96      353851.81      3.2956699e-06  5.1804331e-07  2.7776266e-06  1.3406666e+08
   4272000   2.641394e-10   133722.21      133064.93      353992.71      3.2956676e-06  5.1803298e-07  2.7776347e-06  1.3406634e+08
   4273000   2.6420123e-10  133722.8       133065.02      354161.91      3.2956598e-06  5.1801287e-07  2.777647e-06   1.3406513e+08
   4274000   2.6426306e-10  133720.42      133063.56      353852.55      3.2956432e-06  5.1804564e-07  2.7775975e-06  1.3406254e+08
   4275000   2.6432489e-10  133709.27      133051.89      354014.14      3.295647e-06   5.1828101e-07  2.777366e-06   1.3405819e+08
   4276000   2.6438672e-10  133712.76      133056.69      353578.98      3.2956517e-06  5.1821331e-07  2.7774384e-06  1.3405888e+08
   4277000   2.6444855e-10  133726.54      133071.47      353258.61      3.2956464e-06  5.1792174e-07  2.7777247e-06  1.3406276e+08
   4278000   2.6451038e-10  133731.82      133075.93      353539.39      3.2956374e-06  5.1780298e-07  2.7778344e-06  1.3406442e+08
   4279000   2.6457221e-10  133728.15      133073.1       353252.68      3.2956408e-06  5.1788276e-07  2.777758e-06   1.3406351e+08
   4280000   2.6463404e-10  133729.21      133075.2       352907.47      3.2956432e-06  5.1786311e-07  2.7777801e-06  1.3406373e+08
   4281000   2.6469587e-10  133727.97      133073.99      352894.88      3.2956537e-06  5.1789943e-07  2.7777543e-06  1.3406351e+08
   4282000   2.647577e-10   133738.31      133084.46      352861.4       3.2956626e-06  5.1769348e-07  2.7779691e-06  1.3406813e+08
   4283000   2.6481953e-10  133731.8       133078.94      352526.39      3.2956527e-06  5.1781875e-07  2.7778339e-06  1.3406559e+08
   4284000   2.6488137e-10  133726.77      133073.67      352599.12      3.2956459e-06  5.1791653e-07  2.7777294e-06  1.3406357e+08
   4285000   2.649432e-10   133720.34      133066.39      352876.18      3.29565e-06    5.180542e-07   2.7775958e-06  1.3406145e+08
   4286000   2.6500503e-10  133736.26      133080.82      353392.96      3.2956545e-06  5.1772787e-07  2.7779266e-06  1.3406724e+08
   4287000   2.6506686e-10  133732.5       133076.32      353637.49      3.2956547e-06  5.1780617e-07  2.7778485e-06  1.340657e+08 
   4288000   2.6512869e-10  133720.5       133063.11      354028.9       3.2956496e-06  5.1805033e-07  2.7775993e-06  1.3406163e+08
   4289000   2.6519052e-10  133728.64      133070.69      354224.42      3.2956443e-06  5.1787608e-07  2.7777682e-06  1.3406492e+08
   4290000   2.6525235e-10  133745.11      133088.47      353800.14      3.2956437e-06  5.1753342e-07  2.7781103e-06  1.3407083e+08
   4291000   2.6531418e-10  133735.81      133081.41      353044         3.2956454e-06  5.1772816e-07  2.7779172e-06  1.3406675e+08
   4292000   2.6537601e-10  133739.46      133087.68      352171.67      3.2956471e-06  5.1765403e-07  2.7779931e-06  1.3406851e+08
   4293000   2.6543784e-10  133733.41      133081.6       352175.76      3.2956346e-06  5.1776725e-07  2.7778673e-06  1.3406573e+08
   4294000   2.6549967e-10  133726.2       133075.72      351723.17      3.2956273e-06  5.1790977e-07  2.7777175e-06  1.3406301e+08
   4295000   2.655615e-10   133713.04      133063.68      351334.78      3.2956375e-06  5.1819328e-07  2.7774443e-06  1.3405847e+08
   4296000   2.6562333e-10  133726.25      133078.67      350754.5       3.295633e-06   5.1791436e-07  2.7777186e-06  1.3406306e+08
   4297000   2.6568516e-10  133720.33      133074.98      350000.87      3.2956217e-06  5.1802604e-07  2.7775956e-06  1.340594e+08 
   4298000   2.6574699e-10  133725.5       133081.57      349530.79      3.2956238e-06  5.1792082e-07  2.777703e-06   1.34061e+08  
   4299000   2.6580882e-10  133734.43      133089.07      350017.45      3.2956192e-06  5.1773075e-07  2.7778885e-06  1.3406332e+08
   4300000   2.6587065e-10  133739.16      133092.36      350507.42      3.2956297e-06  5.1764288e-07  2.7779868e-06  1.3406576e+08
   4301000   2.6593248e-10  133734.3       133087.3       350565.83      3.2956311e-06  5.1774533e-07  2.7778858e-06  1.3406396e+08
   4302000   2.6599431e-10  133737.9       133092.43      350060.27      3.2956313e-06  5.1767055e-07  2.7779607e-06  1.3406578e+08
   4303000   2.6605614e-10  133731.58      133087.25      349669.17      3.2956359e-06  5.1780661e-07  2.7778293e-06  1.3406452e+08
   4304000   2.6611797e-10  133726.1       133083.34      349142.85      3.2956353e-06  5.1791974e-07  2.7777156e-06  1.340631e+08 
   4305000   2.661798e-10   133717.59      133075.84      348793.88      3.2956364e-06  5.1809764e-07  2.7775387e-06  1.3406112e+08
   4306000   2.6624163e-10  133711.71      133070.57      348582.97      3.2956454e-06  5.182288e-07   2.7774166e-06  1.3406017e+08
   4307000   2.6630346e-10  133716.5       133078.26      347621.94      3.2956469e-06  5.1813072e-07  2.7775162e-06  1.3406229e+08
   4308000   2.6636529e-10  133723.7       133087.35      346996.17      3.2956415e-06  5.1797584e-07  2.7776657e-06  1.3406349e+08
   4309000   2.6642712e-10  133717.78      133082.75      346545.8       3.2956416e-06  5.180989e-07   2.7775427e-06  1.3406111e+08
   4310000   2.6648896e-10  133709.87      133076.24      346068.69      3.295658e-06   5.1827966e-07  2.7773783e-06  1.3405925e+08
   4311000   2.6655079e-10  133727.28      133092.65      346425.77      3.2956751e-06  5.1793499e-07  2.7777401e-06  1.3406732e+08
   4312000   2.6661262e-10  133732.27      133097.24      346562.3       3.2956736e-06  5.1782991e-07  2.7778437e-06  1.3407014e+08
   4313000   2.6667445e-10  133721.23      133086.55      346433.82      3.2956587e-06  5.180443e-07   2.7776144e-06  1.3406528e+08
   4314000   2.6673628e-10  133721.47      133087.29      346264.98      3.2956584e-06  5.1803903e-07  2.7776193e-06  1.3406533e+08
   4315000   2.6679811e-10  133728.42      133095.93      345709.02      3.2956494e-06  5.1788563e-07  2.7777638e-06  1.3406642e+08
   4316000   2.6685994e-10  133731.55      133101.07      345038.02      3.2956564e-06  5.1782769e-07  2.7778287e-06  1.3406649e+08
   4317000   2.6692177e-10  133744.54      133114.85      344790.13      3.2956567e-06  5.1755811e-07  2.7780986e-06  1.3407069e+08
   4318000   2.669836e-10   133732.65      133104.4       344296.47      3.2956503e-06  5.1779866e-07  2.7778516e-06  1.3406652e+08
   4319000   2.6704543e-10  133714.52      133086.22      344296.24      3.2956473e-06  5.181722e-07   2.7774751e-06  1.340611e+08 
   4320000   2.6710726e-10  133711.59      133082.2       344655.51      3.2956426e-06  5.1822837e-07  2.7774142e-06  1.3406014e+08
   4321000   2.6716909e-10  133725.39      133095.84      344724.5       3.295652e-06   5.1795121e-07  2.7777008e-06  1.3406625e+08
   4322000   2.6723092e-10  133710.24      133079.63      345060.49      3.2956556e-06  5.1826955e-07  2.7773861e-06  1.3406057e+08
   4323000   2.6729275e-10  133722.19      133089.95      345620.7       3.2956477e-06  5.1801343e-07  2.7776343e-06  1.3406392e+08
   4324000   2.6735458e-10  133734.39      133103.01      345343.29      3.2956429e-06  5.1775526e-07  2.7778877e-06  1.340671e+08 
   4325000   2.6741641e-10  133723.3       133092.4       345172.2       3.2956393e-06  5.1798201e-07  2.7776573e-06  1.3406161e+08
   4326000   2.6747824e-10  133727.53      133098.75      344466.74      3.2956299e-06  5.1788465e-07  2.7777452e-06  1.3406246e+08
   4327000   2.6754007e-10  133715.51      133088.25      343946.52      3.29564e-06    5.1814455e-07  2.7774955e-06  1.3405996e+08
   4328000   2.676019e-10   133711.76      133085         343775.43      3.295638e-06   5.1822035e-07  2.7774177e-06  1.3406043e+08
   4329000   2.6766373e-10  133723.23      133096.24      343864.77      3.295639e-06   5.1798298e-07  2.777656e-06   1.3406575e+08
   4330000   2.6772556e-10  133701.99      133075.76      343588.5       3.2956479e-06  5.1843322e-07  2.7772146e-06  1.3405813e+08
   4331000   2.6778739e-10  133716.09      133089.52      343717.62      3.2956485e-06  5.1814088e-07  2.7775076e-06  1.3406285e+08
   4332000   2.6784922e-10  133706.46      133079.99      343671.89      3.2956495e-06  5.1834202e-07  2.7773075e-06  1.3405779e+08
   4333000   2.6791105e-10  133709.29      133083.98      343289.97      3.2956547e-06  5.1828826e-07  2.7773664e-06  1.3405845e+08
   4334000   2.6797288e-10  133730.52      133105.47      343221.36      3.2956511e-06  5.1784381e-07  2.7778073e-06  1.3406566e+08
   4335000   2.6803471e-10  133737.47      133113.94      342722.01      3.2956438e-06  5.1769198e-07  2.7779518e-06  1.3406726e+08
   4336000   2.6809655e-10  133724.93      133103.29      342074.31      3.2956439e-06  5.1795271e-07  2.7776912e-06  1.3406199e+08
   4337000   2.6815838e-10  133743.5       133124.32      341270.5       3.2956423e-06  5.1756547e-07  2.7780769e-06  1.3406904e+08
   4338000   2.6822021e-10  133733.87      133115.49      340996.97      3.2956363e-06  5.1775933e-07  2.7778769e-06  1.340651e+08 
   4339000   2.6828204e-10  133726.88      133109.29      340721.57      3.295631e-06   5.178994e-07   2.7777316e-06  1.340625e+08 
   4340000   2.6834387e-10  133726.05      133109.83      340264.6       3.2956453e-06  5.1793074e-07  2.7777145e-06  1.3406451e+08
   4341000   2.684057e-10   133725.93      133111.74      339586.88      3.2956612e-06  5.1794913e-07  2.7777121e-06  1.3406672e+08
   4342000   2.6846753e-10  133713.1       133099.17      339487.02      3.2956539e-06  5.1820848e-07  2.7774455e-06  1.3406196e+08
   4343000   2.6852936e-10  133714.9       133103.55      338622.94      3.2956471e-06  5.1816427e-07  2.7774828e-06  1.3406233e+08
   4344000   2.6859119e-10  133710.86      133100.27      338368.2       3.2956443e-06  5.1824532e-07  2.777399e-06   1.3406012e+08
   4345000   2.6865302e-10  133709.82      133099.24      338362.23      3.295648e-06   5.1827054e-07  2.7773774e-06  1.3405854e+08
   4346000   2.6871485e-10  133711.74      133102.82      337809.23      3.2956328e-06  5.1821557e-07  2.7774172e-06  1.3405787e+08
   4347000   2.6877668e-10  133731.14      133124.82      336956.8       3.2956339e-06  5.1781376e-07  2.7778202e-06  1.340659e+08 
   4348000   2.6883851e-10  133719.69      133113.64      336855.78      3.2956274e-06  5.1804513e-07  2.7775823e-06  1.3406126e+08
   4349000   2.6890034e-10  133718.63      133113.11      336680.11      3.2956341e-06  5.180737e-07   2.7775604e-06  1.3406134e+08
   4350000   2.6896217e-10  133735.08      133130.84      336269.33      3.2956329e-06  5.1773076e-07  2.7779021e-06  1.3406662e+08
   4351000   2.69024e-10    133738.85      133135.79      335875.02      3.2956362e-06  5.1765594e-07  2.7779803e-06  1.3406703e+08
   4352000   2.6908583e-10  133741.48      133140.62      335142.19      3.2956374e-06  5.1760239e-07  2.778035e-06   1.3406715e+08
   4353000   2.6914766e-10  133724.71      133125         334741.74      3.2956245e-06  5.179378e-07   2.7776867e-06  1.340596e+08 
   4354000   2.6920949e-10  133738.8       133140.81      334182.13      3.295619e-06   5.1763967e-07  2.7779793e-06  1.3406402e+08
   4355000   2.6927132e-10  133740.96      133145.25      333419.28      3.2956247e-06  5.1760045e-07  2.7780242e-06  1.3406429e+08
   4356000   2.6933315e-10  133746.12      133150.17      333503.31      3.2956138e-06  5.1748254e-07  2.7781313e-06  1.3406515e+08
   4357000   2.6939498e-10  133730.42      133135.24      333230.67      3.2956116e-06  5.1780639e-07  2.7778052e-06  1.3405957e+08
   4358000   2.6945681e-10  133736.13      133141.04      333206.7       3.2956108e-06  5.1768698e-07  2.7779239e-06  1.3406196e+08
   4359000   2.6951864e-10  133733.01      133137.89      333215.35      3.2956252e-06  5.177662e-07   2.777859e-06   1.3406214e+08
   4360000   2.6958047e-10  133729.54      133132.62      333815.92      3.2956379e-06  5.1785087e-07  2.7777871e-06  1.3406315e+08
   4361000   2.696423e-10   133733.03      133135.88      333896.59      3.2956301e-06  5.1777053e-07  2.7778595e-06  1.340652e+08 
   4362000   2.6970414e-10  133730.78      133133.57      333909.28      3.2956496e-06  5.17837e-07    2.7778126e-06  1.3406624e+08
   4363000   2.6976597e-10  133726.44      133128.8       334050.3       3.2956579e-06  5.1793546e-07  2.7777225e-06  1.3406502e+08
   4364000   2.698278e-10   133734.68      133137.89      333774.93      3.2956474e-06  5.1775377e-07  2.7778937e-06  1.3406718e+08
   4365000   2.6988963e-10  133724.8       133128.91      333466.71      3.2956467e-06  5.1795813e-07  2.7776886e-06  1.340642e+08 
   4366000   2.6995146e-10  133708.41      133113.79      333024.12      3.2956394e-06  5.1829125e-07  2.7773482e-06  1.3405849e+08
   4367000   2.7001329e-10  133699.38      133105.14      332888.39      3.2956333e-06  5.1847275e-07  2.7771605e-06  1.3405463e+08
   4368000   2.7007512e-10  133719.84      133127.29      332341.04      3.2956339e-06  5.1804852e-07  2.7775854e-06  1.3406135e+08
   4369000   2.7013695e-10  133722.23      133130.31      332133.4       3.2956289e-06  5.1799374e-07  2.7776351e-06  1.3405986e+08
   4370000   2.7019878e-10  133732.14      133142.05      331531.03      3.2956275e-06  5.1778653e-07  2.777841e-06   1.340622e+08 
   4371000   2.7026061e-10  133741.59      133152.4       331240.68      3.2956208e-06  5.1758364e-07  2.7780372e-06  1.3406343e+08
   4372000   2.7032244e-10  133744.15      133155.49      331065.52      3.2956104e-06  5.1752005e-07  2.7780904e-06  1.3406194e+08
   4373000   2.7038427e-10  133746.05      133158.12      330823.12      3.2956217e-06  5.1749187e-07  2.7781298e-06  1.3406253e+08
   4374000   2.704461e-10   133745.03      133156.18      331128.59      3.2956075e-06  5.174988e-07   2.7781087e-06  1.3406086e+08
   4375000   2.7050793e-10  133747.17      133158.16      331186.6       3.295623e-06   5.1746988e-07  2.7781532e-06  1.3406369e+08
   4376000   2.7056976e-10  133735.69      133148.67      330511.86      3.29563e-06    5.1771516e-07  2.7779148e-06  1.3406133e+08
   4377000   2.7063159e-10  133739.9       133154.27      330048.69      3.2956312e-06  5.1762901e-07  2.7780022e-06  1.3406443e+08
   4378000   2.7069342e-10  133727.68      133145.27      328959.65      3.2956634e-06  5.1791502e-07  2.7777484e-06  1.3406369e+08
   4379000   2.7075525e-10  133728.69      133145.59      329192.63      3.2956619e-06  5.1789248e-07  2.7777694e-06  1.3406526e+08
   4380000   2.7081708e-10  133715.18      133132.44      329057.23      3.2956662e-06  5.1817759e-07  2.7774887e-06  1.3406134e+08
   4381000   2.7087891e-10  133723.72      133139.96      329407.13      3.2956626e-06  5.1799656e-07  2.777666e-06   1.3406491e+08
   4382000   2.7094074e-10  133720.61      133137.85      329071.08      3.2956574e-06  5.1805583e-07  2.7776016e-06  1.3406338e+08
   4383000   2.7100257e-10  133696.35      133112.15      329525.9       3.2956333e-06  5.1853579e-07  2.7770976e-06  1.3405198e+08
   4384000   2.710644e-10   133719.41      133134.61      329752.56      3.2956387e-06  5.1806207e-07  2.7775766e-06  1.3406094e+08
   4385000   2.7112623e-10  133722.41      133137.92      329649.19      3.2956344e-06  5.1799551e-07  2.7776389e-06  1.3406077e+08
   4386000   2.7118806e-10  133723.75      133138.64      329858.75      3.295637e-06   5.1797031e-07  2.7776667e-06  1.3405991e+08
   4387000   2.7124989e-10  133743.92      133157.73      330238.48      3.2956289e-06  5.1754326e-07  2.7780857e-06  1.3406515e+08
   4388000   2.7131173e-10  133744.98      133158.99      330173.01      3.2956189e-06  5.1751123e-07  2.7781077e-06  1.3406468e+08
   4389000   2.7137356e-10  133736.1       133151.16      329814.6       3.2956298e-06  5.1770656e-07  2.7779232e-06  1.3406329e+08
   4390000   2.7143539e-10  133739.82      133155.56      329590.48      3.2956316e-06  5.1763107e-07  2.7780005e-06  1.3406583e+08
   4391000   2.7149722e-10  133737.99      133152.29      330068.51      3.295629e-06   5.1766649e-07  2.7779625e-06  1.3406479e+08
   4392000   2.7155905e-10  133739.36      133154.01      329954         3.295644e-06   5.1765307e-07  2.777991e-06   1.3406649e+08
   4393000   2.7162088e-10  133745.24      133159.81      329985.27      3.295651e-06   5.1753796e-07  2.778113e-06   1.3407006e+08
   4394000   2.7168271e-10  133729.94      133144.18      330080.73      3.2956561e-06  5.1786087e-07  2.7777952e-06  1.3406514e+08
   4395000   2.7174454e-10  133726.68      133140.12      330343.72      3.2956618e-06  5.1793437e-07  2.7777275e-06  1.3406488e+08
   4396000   2.7180637e-10  133719.87      133134.01      330104.57      3.2956477e-06  5.1806158e-07  2.7775861e-06  1.3406137e+08
   4397000   2.718682e-10   133735.94      133152.77      329222.31      3.2956455e-06  5.1772561e-07  2.7779199e-06  1.3406611e+08
   4398000   2.7193003e-10  133734.07      133153.88      328223.52      3.2956324e-06  5.1775125e-07  2.7778812e-06  1.3406311e+08
   4399000   2.7199186e-10  133731.41      133153.14      327579.05      3.2956241e-06  5.1779827e-07  2.7778258e-06  1.3406113e+08
   4400000   2.7205369e-10  133732.46      133154.51      327471.06      3.295602e-06   5.1775444e-07  2.7778476e-06  1.3405992e+08
   4401000   2.7211552e-10  133739.76      133163.83      326803.34      3.2956222e-06  5.1762299e-07  2.7779992e-06  1.3406448e+08
   4402000   2.7217735e-10  133740.74      133166.04      326394.07      3.2956345e-06  5.1761478e-07  2.7780197e-06  1.3406528e+08
   4403000   2.7223918e-10  133736.87      133161.92      326473.64      3.2956308e-06  5.1769164e-07  2.7779392e-06  1.340633e+08 
   4404000   2.7230101e-10  133750.14      133175.77      326291.59      3.29562e-06    5.1740521e-07  2.7782148e-06  1.3406791e+08
   4405000   2.7236284e-10  133745.11      133171.14      326152.06      3.2956122e-06  5.1750184e-07  2.7781104e-06  1.3406552e+08
   4406000   2.7242467e-10  133749.18      133176.31      325791.48      3.2956166e-06  5.1742166e-07  2.778195e-06   1.3406731e+08
   4407000   2.724865e-10   133737.8       133165.45      325601.55      3.2956305e-06  5.176721e-07   2.7779584e-06  1.3406391e+08
   4408000   2.7254833e-10  133742.89      133172.48      324961.25      3.295641e-06   5.1757672e-07  2.7780643e-06  1.340671e+08 
   4409000   2.7261016e-10  133747.55      133177.84      324729.55      3.2956406e-06  5.1747958e-07  2.778161e-06   1.3406917e+08
   4410000   2.7267199e-10  133731.97      133161.5       324971.78      3.2956428e-06  5.1780529e-07  2.7778375e-06  1.3406368e+08
   4411000   2.7273382e-10  133726.12      133156.07      324823.58      3.2956342e-06  5.1791837e-07  2.7777159e-06  1.340616e+08 
   4412000   2.7279565e-10  133725.14      133154.98      324857.24      3.2956279e-06  5.1793245e-07  2.7776955e-06  1.3406198e+08
   4413000   2.7285748e-10  133723.32      133152.72      325005.32      3.2956261e-06  5.1796824e-07  2.7776578e-06  1.3406124e+08
   4414000   2.7291932e-10  133723.83      133153.1       325049.57      3.2956393e-06  5.1797093e-07  2.7776684e-06  1.3406212e+08
   4415000   2.7298115e-10  133730.65      133158.86      325409.26      3.2956414e-06  5.1783144e-07  2.7778099e-06  1.34065e+08  
   4416000   2.7304298e-10  133717.63      133146.06      325325.19      3.2956389e-06  5.1809925e-07  2.7775397e-06  1.3405985e+08
   4417000   2.7310481e-10  133723.06      133151.37      325368.45      3.2956427e-06  5.1799044e-07  2.7776523e-06  1.3406126e+08
   4418000   2.7316664e-10  133724.59      133152.61      325466.36      3.2956287e-06  5.1794463e-07  2.7776841e-06  1.3406102e+08
   4419000   2.7322847e-10  133708.07      133136.2       325414.61      3.2956351e-06  5.1829407e-07  2.777341e-06   1.340557e+08 
   4420000   2.732903e-10   133721.83      133150.17      325356.22      3.2956374e-06  5.1801072e-07  2.7776267e-06  1.3406205e+08
   4421000   2.7335213e-10  133723.53      133152.06      325295.02      3.2956476e-06  5.1798553e-07  2.777662e-06   1.3406459e+08
   4422000   2.7341396e-10  133714.38      133143.43      325111.48      3.2956481e-06  5.181761e-07   2.777472e-06   1.3406241e+08
   4423000   2.7347579e-10  133723.99      133153.44      324986.66      3.2956617e-06  5.1799003e-07  2.7776716e-06  1.3406788e+08
   4424000   2.7353762e-10  133727.94      133156.85      325172.37      3.2956742e-06  5.1792054e-07  2.7777537e-06  1.3406978e+08
   4425000   2.7359945e-10  133720         133148.71      325234.64      3.2956605e-06  5.1807159e-07  2.7775889e-06  1.3406538e+08
   4426000   2.7366128e-10  133701.85      133131.03      325057.73      3.2956617e-06  5.1844981e-07  2.7772119e-06  1.3405848e+08
   4427000   2.7372311e-10  133710.31      133140.84      324615.25      3.2956398e-06  5.1825224e-07  2.7773876e-06  1.3405971e+08
   4428000   2.7378494e-10  133724.05      133157.28      323726.54      3.295652e-06   5.1797905e-07  2.777673e-06   1.3406499e+08
   4429000   2.7384677e-10  133721.95      133154.69      323889.26      3.2956422e-06  5.1801277e-07  2.7776294e-06  1.3406309e+08
   4430000   2.739086e-10   133714.65      133146.97      324021.3       3.2956471e-06  5.1816941e-07  2.7774777e-06  1.3406004e+08
   4431000   2.7397043e-10  133735.13      133167.36      324068.9       3.2956518e-06  5.1774876e-07  2.777903e-06   1.3406798e+08
   4432000   2.7403226e-10  133728.58      133161.09      323970.75      3.2956464e-06  5.1787934e-07  2.7777671e-06  1.3406491e+08
   4433000   2.7409409e-10  133735.45      133168.06      323945.43      3.2956396e-06  5.177298e-07   2.7779098e-06  1.3406676e+08
   4434000   2.7415592e-10  133734.49      133167.41      323839.46      3.2956285e-06  5.1773872e-07  2.7778898e-06  1.3406527e+08
   4435000   2.7421775e-10  133722.17      133153.92      324216.89      3.2956347e-06  5.1800095e-07  2.7776338e-06  1.3406116e+08
   4436000   2.7427958e-10  133730.92      133163.74      323867.87      3.2956375e-06  5.1782195e-07  2.7778155e-06  1.3406467e+08
   4437000   2.7434141e-10  133735.88      133170.17      323382.06      3.2956507e-06  5.1773199e-07  2.7779187e-06  1.3406705e+08
   4438000   2.7440324e-10  133727.34      133162.09      323219.7       3.2956432e-06  5.1790186e-07  2.7777413e-06  1.3406286e+08
   4439000   2.7446507e-10  133712.33      133146.39      323435.37      3.2956484e-06  5.182189e-07   2.7774295e-06  1.340584e+08 
   4440000   2.745269e-10   133714.39      133148.17      323528.81      3.2956621e-06  5.1818988e-07  2.7774722e-06  1.340606e+08 
   4441000   2.7458874e-10  133722.76      133154.87      324097.32      3.2956577e-06  5.1801156e-07  2.7776462e-06  1.3406486e+08
   4442000   2.7465057e-10  133704.56      133136.18      324245.8       3.2956639e-06  5.1839569e-07  2.7772682e-06  1.3406027e+08
   4443000   2.747124e-10   133710.48      133139.84      325004.95      3.2956616e-06  5.1827057e-07  2.7773911e-06  1.3406349e+08
   4444000   2.7477423e-10  133700.8       133128.56      325532.08      3.2956609e-06  5.1847084e-07  2.7771901e-06  1.3405879e+08
   4445000   2.7483606e-10  133726.29      133153.35      325789.44      3.2956633e-06  5.1794387e-07  2.7777194e-06  1.3406744e+08
   4446000   2.7489789e-10  133729.64      133156.52      325854.17      3.2956561e-06  5.1786708e-07  2.777789e-06   1.3406699e+08
   4447000   2.7495972e-10  133714.14      133141.45      325694.33      3.2956556e-06  5.1818859e-07  2.777467e-06   1.3406087e+08
   4448000   2.7502155e-10  133695.8       133122.36      325925.84      3.2956524e-06  5.1856632e-07  2.7770861e-06  1.3405364e+08
   4449000   2.7508338e-10  133717.57      133144.4       325857.42      3.2956553e-06  5.1811693e-07  2.7775384e-06  1.3406211e+08
   4450000   2.7514521e-10  133718.18      133145.15      325812.25      3.2956534e-06  5.1810234e-07  2.7775511e-06  1.3406202e+08
   4451000   2.7520704e-10  133717.38      133145.53      325417.46      3.2956666e-06  5.181321e-07   2.7775345e-06  1.3406289e+08
   4452000   2.7526887e-10  133718.94      133148.48      324954.79      3.2956707e-06  5.1810394e-07  2.7775668e-06  1.3406398e+08
   4453000   2.753307e-10   133723.7       133153.3       324937.61      3.2956503e-06  5.1798464e-07  2.7776657e-06  1.340646e+08 
   4454000   2.7539253e-10  133725.54      133156.47      324498.04      3.2956448e-06  5.1794081e-07  2.777704e-06   1.3406441e+08
   4455000   2.7545436e-10  133719.7       133153.46      323542.26      3.2956443e-06  5.1806184e-07  2.7775825e-06  1.3406212e+08
   4456000   2.7551619e-10  133716.48      133148.2       324221.22      3.2956626e-06  5.1814689e-07  2.7775157e-06  1.3406221e+08
   4457000   2.7557802e-10  133710.98      133142.35      324331.74      3.2956643e-06  5.18263e-07    2.7774013e-06  1.3406035e+08
   4458000   2.7563985e-10  133714.69      133147.07      323996.45      3.2956654e-06  5.1818698e-07  2.7774784e-06  1.3406277e+08
   4459000   2.7570168e-10  133711.43      133143.34      324152.49      3.2956622e-06  5.182515e-07   2.7774107e-06  1.3406178e+08
   4460000   2.7576351e-10  133714.87      133146.49      324253.87      3.2956542e-06  5.1817197e-07  2.7774822e-06  1.3406207e+08
   4461000   2.7582534e-10  133720.77      133151.26      324637.55      3.2956615e-06  5.1805674e-07  2.7776047e-06  1.3406407e+08
   4462000   2.7588717e-10  133732.35      133160.03      325587.85      3.2956583e-06  5.1781302e-07  2.7778453e-06  1.3406652e+08
   4463000   2.75949e-10    133732.06      133160.52      325328.61      3.2956432e-06  5.1780385e-07  2.7778394e-06  1.3406394e+08
   4464000   2.7601083e-10  133736.75      133166.77      324813.26      3.2956333e-06  5.1769648e-07  2.7779368e-06  1.3406476e+08
   4465000   2.7607266e-10  133741.02      133171.17      324771.53      3.2956375e-06  5.1761211e-07  2.7780254e-06  1.3406726e+08
   4466000   2.7613449e-10  133732.71      133162.43      324906.76      3.2956257e-06  5.1777296e-07  2.7778527e-06  1.3406403e+08
   4467000   2.7619633e-10  133746.08      133176.99      324524.43      3.2956414e-06  5.1751078e-07  2.7781306e-06  1.3407045e+08
   4468000   2.7625816e-10  133745.5       133174.82      325053.94      3.2956328e-06  5.175143e-07   2.7781185e-06  1.3406873e+08
   4469000   2.7631999e-10  133725.64      133154.59      325155.06      3.2956334e-06  5.1792747e-07  2.7777059e-06  1.3406054e+08
   4470000   2.7638182e-10  133716.99      133146.29      325031.62      3.2956413e-06  5.1811503e-07  2.7775263e-06  1.3405774e+08
   4471000   2.7644365e-10  133715.2       133144.75      324944.03      3.2956589e-06  5.1816986e-07  2.777489e-06   1.3405944e+08
   4472000   2.7650548e-10  133726.13      133154.95      325203.23      3.2956585e-06  5.1794224e-07  2.7777162e-06  1.3406529e+08
   4473000   2.7656731e-10  133733.15      133163         324866.78      3.2956758e-06  5.1781376e-07  2.7778621e-06  1.3407029e+08
   4474000   2.7662914e-10  133729.56      133161.34      324215.87      3.2956613e-06  5.1787386e-07  2.7777875e-06  1.3406792e+08
   4475000   2.7669097e-10  133724.11      133155.88      324215.56      3.295658e-06   5.1798373e-07  2.7776742e-06  1.3406593e+08
   4476000   2.767528e-10   133715.21      133144.73      324956.48      3.2956578e-06  5.1816852e-07  2.7774892e-06  1.3406234e+08
   4477000   2.7681463e-10  133733.36      133161.65      325385.76      3.2956694e-06  5.1780302e-07  2.7778664e-06  1.3406956e+08
   4478000   2.7687646e-10  133727.06      133155.9       325198.57      3.2956774e-06  5.1794183e-07  2.7777355e-06  1.3406758e+08
   4479000   2.7693829e-10  133730.2       133158.98      325220.73      3.2956845e-06  5.178838e-07   2.7778007e-06  1.340693e+08 
   4480000   2.7700012e-10  133727.48      133157.55      324785.76      3.2956893e-06  5.1794498e-07  2.7777443e-06  1.3406915e+08
   4481000   2.7706195e-10  133711.71      133140.58      325171.15      3.2956809e-06  5.1826427e-07  2.7774166e-06  1.3406388e+08
   4482000   2.7712378e-10  133713.24      133140.69      325649.95      3.2956662e-06  5.1821772e-07  2.7774485e-06  1.340639e+08 
   4483000   2.7718561e-10  133727.22      133153.76      325964.19      3.2956673e-06  5.1792857e-07  2.7777388e-06  1.3406929e+08
   4484000   2.7724744e-10  133713.68      133140.99      325693.79      3.295662e-06   5.1820439e-07  2.7774576e-06  1.3406382e+08
   4485000   2.7730927e-10  133709.8       133136.02      326054.8       3.2956691e-06  5.1829216e-07  2.7773769e-06  1.34063e+08  
   4486000   2.773711e-10   133714.45      133143.79      325015.37      3.2956591e-06  5.1818555e-07  2.7774735e-06  1.340632e+08 
   4487000   2.7743293e-10  133721.91      133152.52      324600.3       3.2956615e-06  5.1803291e-07  2.7776286e-06  1.340649e+08 
   4488000   2.7749476e-10  133736.26      133166.15      324852.68      3.2956535e-06  5.1772699e-07  2.7779265e-06  1.3406883e+08
   4489000   2.7755659e-10  133734.18      133164.44      324728.21      3.2956354e-06  5.1775199e-07  2.7778834e-06  1.3406554e+08
   4490000   2.7761842e-10  133726.9       133159.62      323898.35      3.2956361e-06  5.1790401e-07  2.7777321e-06  1.3406201e+08
   4491000   2.7768025e-10  133717.2       133150.47      323705.16      3.2956518e-06  5.1812109e-07  2.7775307e-06  1.3405892e+08
   4492000   2.7774208e-10  133733.94      133167.65      323575.55      3.2956405e-06  5.1776212e-07  2.7778784e-06  1.3406398e+08
   4493000   2.7780392e-10  133741.26      133174.33      323794.59      3.2956304e-06  5.1759999e-07  2.7780304e-06  1.3406592e+08
   4494000   2.7786575e-10  133732.79      133166.28      323646.09      3.2956435e-06  5.177891e-07   2.7778544e-06  1.3406398e+08
   4495000   2.7792758e-10  133712.65      133146.9       323373.05      3.2956355e-06  5.1819927e-07  2.7774362e-06  1.3405566e+08
   4496000   2.7798941e-10  133725.17      133160.2       323124.83      3.2956378e-06  5.1794153e-07  2.7776963e-06  1.3406112e+08
   4497000   2.7805124e-10  133742.95      133178.09      323102.98      3.2956459e-06  5.1758042e-07  2.7780655e-06  1.3406856e+08
   4498000   2.7811307e-10  133726.73      133161.25      323297.67      3.2956425e-06  5.1791383e-07  2.7777286e-06  1.3406201e+08
   4499000   2.781749e-10   133721.22      133156.36      323083.26      3.2956378e-06  5.1802373e-07  2.7776141e-06  1.3406054e+08
   4500000   2.7823673e-10  133712.78      133147.7       323148.18      3.2956376e-06  5.1819881e-07  2.7774388e-06  1.3405795e+08
   4501000   2.7829856e-10  133728.59      133164.4       322865.05      3.2956438e-06  5.178765e-07   2.7777673e-06  1.340652e+08 
   4502000   2.7836039e-10  133719.61      133155.67      322773.51      3.295652e-06   5.1807124e-07  2.7775807e-06  1.3406305e+08
   4503000   2.7842222e-10  133724.16      133159.47      323029.51      3.2956549e-06  5.1797956e-07  2.7776753e-06  1.3406542e+08
   4504000   2.7848405e-10  133727.9       133165.24      322356.5       3.2956388e-06  5.1788576e-07  2.777753e-06   1.3406495e+08
   4505000   2.7854588e-10  133729.44      133167.81      322009.58      3.2956454e-06  5.1786052e-07  2.7777849e-06  1.3406563e+08
   4506000   2.7860771e-10  133717.42      133155.14      322217.85      3.295643e-06   5.1810772e-07  2.7775353e-06  1.3406136e+08
   4507000   2.7866954e-10  133718.86      133156.14      322363.9       3.2956416e-06  5.1807645e-07  2.7775651e-06  1.3406183e+08
   4508000   2.7873137e-10  133733.35      133171.67      322030.39      3.2956245e-06  5.1775838e-07  2.7778661e-06  1.3406469e+08
   4509000   2.787932e-10   133717.95      133156.94      321792.08      3.2956262e-06  5.1807988e-07  2.7775463e-06  1.3405769e+08
   4510000   2.7885503e-10  133727.64      133170         320675         3.2956208e-06  5.1787322e-07  2.7777475e-06  1.3406069e+08
   4511000   2.7891686e-10  133710.14      133154.61      319952.95      3.2956145e-06  5.1823043e-07  2.7773841e-06  1.3405217e+08
   4512000   2.7897869e-10  133732.1       133175.8       320230.54      3.2956179e-06  5.1777783e-07  2.7778401e-06  1.3406021e+08
   4513000   2.7904052e-10  133731.8       133178.39      319265.17      3.295611e-06   5.1777703e-07  2.777834e-06   1.3405859e+08
   4514000   2.7910235e-10  133748.38      133196.18      318874.15      3.2956234e-06  5.1744521e-07  2.7781782e-06  1.3406564e+08
   4515000   2.7916418e-10  133751.83      133200.45      318602.9       3.2956324e-06  5.1738257e-07  2.7782499e-06  1.3406789e+08
   4516000   2.7922601e-10  133728.9       133177.91      318452.47      3.2956343e-06  5.178607e-07   2.7777736e-06  1.3405999e+08
   4517000   2.7928784e-10  133732.21      133181.4       318394.35      3.2956385e-06  5.177961e-07   2.7778424e-06  1.3406277e+08
   4518000   2.7934967e-10  133722.28      133170.46      318721.69      3.2956437e-06  5.1800752e-07  2.7776361e-06  1.3405975e+08
   4519000   2.7941151e-10  133743.11      133191.26      318753.93      3.295637e-06   5.1756819e-07  2.7780689e-06  1.3406854e+08
   4520000   2.7947334e-10  133717.1       133166.33      318364.53      3.2956365e-06  5.1810796e-07  2.7775285e-06  1.3405935e+08
   4521000   2.7953517e-10  133733.2       133184.09      317826.05      3.295632e-06   5.1776899e-07  2.777863e-06   1.3406618e+08
   4522000   2.79597e-10    133720.04      133173.07      317098.83      3.2956279e-06  5.1803828e-07  2.7775897e-06  1.3406029e+08
   4523000   2.7965883e-10  133730.78      133184.55      316862.88      3.2956329e-06  5.1782011e-07  2.7778128e-06  1.3406384e+08
   4524000   2.7972066e-10  133733.82      133187.82      316789.65      3.295641e-06   5.1776512e-07  2.7778759e-06  1.340648e+08 
   4525000   2.7978249e-10  133743.09      133198.14      316446.4       3.295638e-06   5.1756948e-07  2.7780685e-06  1.3406827e+08
   4526000   2.7984432e-10  133728.84      133183.46      316574.99      3.2956238e-06  5.1785142e-07  2.7777724e-06  1.3406211e+08
   4527000   2.7990615e-10  133727.91      133184.18      316020.8       3.2956303e-06  5.1787726e-07  2.7777531e-06  1.3406257e+08
   4528000   2.7996798e-10  133722.92      133176.77      316825.23      3.2956322e-06  5.1798284e-07  2.7776494e-06  1.3406077e+08
   4529000   2.8002981e-10  133730.75      133184.84      316756.29      3.2956213e-06  5.1780919e-07  2.7778121e-06  1.3406264e+08
   4530000   2.8009164e-10  133734.89      133188.93      316776.4       3.295642e-06   5.1774381e-07  2.7778982e-06  1.340656e+08 
   4531000   2.8015347e-10  133735.09      133188.86      316866.62      3.2956523e-06  5.1775006e-07  2.7779022e-06  1.3406663e+08
   4532000   2.802153e-10   133726.13      133180.99      316491.97      3.2956537e-06  5.179376e-07   2.7777161e-06  1.3406351e+08
   4533000   2.8027713e-10  133734.46      133189.56      316420.7       3.2956541e-06  5.1776503e-07  2.7778891e-06  1.3406612e+08
   4534000   2.8033896e-10  133723.34      133179.9       315921.29      3.2956596e-06  5.1800138e-07  2.7776582e-06  1.3406206e+08
   4535000   2.8040079e-10  133735.97      133194.75      315190.18      3.295669e-06   5.1774855e-07  2.7779205e-06  1.3406729e+08
   4536000   2.8046262e-10  133743.26      133203.09      314845.91      3.2956551e-06  5.1758327e-07  2.7780719e-06  1.3406958e+08
   4537000   2.8052445e-10  133718.38      133177.71      314989.88      3.2956579e-06  5.1810278e-07  2.7775551e-06  1.3406157e+08
   4538000   2.8058628e-10  133735.78      133196.1       314677.57      3.2956675e-06  5.1775093e-07  2.7779166e-06  1.3406975e+08
   4539000   2.8064811e-10  133731.28      133193.5       314036.01      3.2956518e-06  5.1782861e-07  2.7778232e-06  1.3406664e+08
   4540000   2.8070994e-10  133728.27      133191.66      313641.36      3.2956445e-06  5.1788398e-07  2.7777606e-06  1.3406483e+08
   4541000   2.8077177e-10  133720.08      133184.96      313135.85      3.2956437e-06  5.1805315e-07  2.7775905e-06  1.3406165e+08
   4542000   2.808336e-10   133727.23      133193.7       312610.79      3.2956352e-06  5.1789629e-07  2.777739e-06   1.3406389e+08
   4543000   2.8089543e-10  133724.59      133193.47      311802.22      3.2956329e-06  5.1794874e-07  2.7776841e-06  1.3406256e+08
   4544000   2.8095726e-10  133723.28      133192.03      311842.99      3.295632e-06   5.1797507e-07  2.7776569e-06  1.3406343e+08
   4545000   2.810191e-10   133716.73      133186.01      311659.3       3.295631e-06   5.1811013e-07  2.7775208e-06  1.3406176e+08
   4546000   2.8108093e-10  133720.03      133190.37      311307.68      3.2956399e-06  5.1805057e-07  2.7775893e-06  1.3406324e+08
   4547000   2.8114276e-10  133715.02      133185.89      311123.85      3.2956399e-06  5.1815467e-07  2.7774853e-06  1.3406011e+08
   4548000   2.8120459e-10  133715.52      133186.97      310933.9       3.2956445e-06  5.181487e-07   2.7774958e-06  1.340598e+08 
   4549000   2.8126642e-10  133727.56      133200.27      310521.53      3.2956322e-06  5.1788642e-07  2.7777458e-06  1.3406342e+08
   4550000   2.8132825e-10  133709.97      133184.83      309786.79      3.2956272e-06  5.1824677e-07  2.7773805e-06  1.3405668e+08
   4551000   2.8139008e-10  133716.02      133191.18      309694.9       3.2956307e-06  5.1812446e-07  2.7775062e-06  1.3405914e+08
   4552000   2.8145191e-10  133718.29      133191.51      310344.63      3.2956353e-06  5.1808204e-07  2.7775532e-06  1.3405974e+08
   4553000   2.8151374e-10  133734.35      133206.09      310855.7       3.2956355e-06  5.1774857e-07  2.7778869e-06  1.3406465e+08
   4554000   2.8157557e-10  133735.55      133206.33      311180.3       3.2956343e-06  5.1772244e-07  2.7779119e-06  1.3406376e+08
   4555000   2.816374e-10   133736.08      133207.04      311118.21      3.2956355e-06  5.177127e-07   2.7779228e-06  1.3406347e+08
   4556000   2.8169923e-10  133749.23      133219.62      311321.22      3.2956429e-06  5.1744701e-07  2.7781959e-06  1.3406932e+08
   4557000   2.8176106e-10  133747.71      133218.13      311309.91      3.295649e-06   5.1748471e-07  2.7781643e-06  1.3407072e+08
   4558000   2.8182289e-10  133722.98      133194.69      310857.1       3.2956563e-06  5.1800548e-07  2.7776508e-06  1.3406301e+08
   4559000   2.8188472e-10  133735.28      133207.26      310778.65      3.2956566e-06  5.1775037e-07  2.7779063e-06  1.3406833e+08
   4560000   2.8194655e-10  133732.81      133206.6       310167.62      3.2956567e-06  5.1780192e-07  2.7778548e-06  1.3406802e+08
   4561000   2.8200838e-10  133713.94      133190.93      309079.58      3.2956479e-06  5.1818494e-07  2.7774629e-06  1.3405976e+08
   4562000   2.8207021e-10  133731.63      133209.82      308693.87      3.2956441e-06  5.1781383e-07  2.7778303e-06  1.3406544e+08
   4563000   2.8213204e-10  133739.14      133214.57      309628.37      3.295644e-06   5.1765754e-07  2.7779864e-06  1.3406747e+08
   4564000   2.8219387e-10  133735.51      133209.85      309985.95      3.295636e-06   5.1772505e-07  2.7779109e-06  1.3406503e+08
   4565000   2.822557e-10   133726.74      133201.77      309749.32      3.2956514e-06  5.1792255e-07  2.7777289e-06  1.3406191e+08
   4566000   2.8231753e-10  133729.72      133206.6       309132.9       3.2956421e-06  5.178513e-07   2.7777908e-06  1.3406272e+08
   4567000   2.8237936e-10  133721.05      133196.98      309439.81      3.2956387e-06  5.180282e-07   2.7776105e-06  1.3405949e+08
   4568000   2.8244119e-10  133721.77      133198.13      309297.08      3.295635e-06   5.1800944e-07  2.7776256e-06  1.3405926e+08
   4569000   2.8250302e-10  133724.94      133200.04      309725.03      3.2956286e-06  5.1793708e-07  2.7776915e-06  1.3406014e+08
   4570000   2.8256485e-10  133721.49      133196.95      309599.02      3.2956144e-06  5.179947e-07   2.7776197e-06  1.3405739e+08
   4571000   2.8262669e-10  133730.68      133207.23      309244.08      3.2956184e-06  5.1780775e-07  2.7778107e-06  1.3406121e+08
   4572000   2.8268852e-10  133740.91      133219.43      308593.39      3.2956285e-06  5.1760538e-07  2.7780231e-06  1.3406613e+08
   4573000   2.8275035e-10  133742.74      133224.67      307455.37      3.2956264e-06  5.1756528e-07  2.7780611e-06  1.3406681e+08
   4574000   2.8281218e-10  133731.4       133216.99      306221.92      3.295621e-06   5.1779532e-07  2.7778257e-06  1.3406248e+08
   4575000   2.8287401e-10  133716.68      133205.19      305227.4       3.2956129e-06  5.1809313e-07  2.7775198e-06  1.3405665e+08
   4576000   2.8293584e-10  133732.87      133222.96      304715.7       3.2956173e-06  5.1776126e-07  2.7778561e-06  1.3406336e+08
   4577000   2.8299767e-10  133716         133207.36      304276.69      3.2956276e-06  5.1812182e-07  2.7775058e-06  1.3405753e+08
   4578000   2.830595e-10   133740.03      133232.09      304065.55      3.2956427e-06  5.1763776e-07  2.7780049e-06  1.3406765e+08
   4579000   2.8312133e-10  133724.9       133215.81      304434.54      3.295654e-06   5.179633e-07   2.7776907e-06  1.3406242e+08
   4580000   2.8318316e-10  133725.33      133215.76      304594.63      3.2956725e-06  5.1797298e-07  2.7776995e-06  1.3406428e+08
   4581000   2.8324499e-10  133740.57      133232.03      304268.57      3.2956536e-06  5.1763745e-07  2.7780162e-06  1.3406922e+08
   4582000   2.8330682e-10  133730.2       133223.2       303742.4       3.295653e-06   5.1785222e-07  2.7778008e-06  1.3406535e+08
   4583000   2.8336865e-10  133738.15      133229.96      304148.19      3.2956566e-06  5.1769075e-07  2.7779658e-06  1.340684e+08 
   4584000   2.8343048e-10  133719.28      133211.94      303843.14      3.2956401e-06  5.180663e-07   2.7775738e-06  1.3405933e+08
   4585000   2.8349231e-10  133718.22      133212.03      303458.06      3.2956535e-06  5.1810176e-07  2.7775518e-06  1.3405992e+08
   4586000   2.8355414e-10  133722.8       133215.82      303725.99      3.2956598e-06  5.1801292e-07  2.7776469e-06  1.3406203e+08
   4587000   2.8361597e-10  133730.85      133224.99      303361.49      3.2956545e-06  5.1784027e-07  2.7778142e-06  1.340654e+08 
   4588000   2.836778e-10   133722.62      133216.97      303281.26      3.2956581e-06  5.1801482e-07  2.7776433e-06  1.3406381e+08
   4589000   2.8373963e-10  133716.15      133209.76      303522.27      3.295666e-06   5.1815721e-07  2.7775088e-06  1.3406288e+08
   4590000   2.8380146e-10  133725.53      133218.95      303596.09      3.29566e-06    5.1795637e-07  2.7777036e-06  1.3406604e+08
   4591000   2.8386329e-10  133743.57      133235.03      304267.97      3.2956509e-06  5.1757252e-07  2.7780784e-06  1.3407095e+08
   4592000   2.8392512e-10  133733.32      133224.82      304244.98      3.2956407e-06  5.1777527e-07  2.7778655e-06  1.3406497e+08
   4593000   2.8398695e-10  133729.76      133220.51      304492.48      3.2956422e-06  5.1785076e-07  2.7777915e-06  1.3406326e+08
   4594000   2.8404878e-10  133742.22      133230.56      305311.47      3.2956484e-06  5.1759814e-07  2.7780503e-06  1.3406817e+08
   4595000   2.8411061e-10  133747.74      133234.95      305697.16      3.2956482e-06  5.1748317e-07  2.7781651e-06  1.3407095e+08
   4596000   2.8417244e-10  133731.9       133218.96      305730.58      3.2956657e-06  5.1782965e-07  2.777836e-06   1.3406821e+08
   4597000   2.8423428e-10  133721.93      133208.84      305769.76      3.2956651e-06  5.1803623e-07  2.7776289e-06  1.3406622e+08
   4598000   2.8429611e-10  133713.46      133200.28      305792.36      3.2956671e-06  5.1821404e-07  2.7774531e-06  1.3406392e+08
   4599000   2.8435794e-10  133706.92      133194.62      305493.2       3.2956446e-06  5.1832735e-07  2.7773172e-06  1.3405969e+08
   4600000   2.8441977e-10  133715.52      133202.35      305789.6       3.2956525e-06  5.1815674e-07  2.7774958e-06  1.3406238e+08
   4601000   2.844816e-10   133725.74      133211.63      306112.41      3.2956455e-06  5.1793753e-07  2.777708e-06   1.3406366e+08
   4602000   2.8454343e-10  133735.6       133221.64      306073.91      3.2956527e-06  5.1773989e-07  2.7779129e-06  1.3406684e+08
   4603000   2.8460526e-10  133736.83      133223.98      305702.41      3.2956422e-06  5.177038e-07   2.7779384e-06  1.340664e+08 
   4604000   2.8466709e-10  133722.16      133211.64      304909.44      3.2956456e-06  5.1801194e-07  2.7776337e-06  1.3406164e+08
   4605000   2.8472892e-10  133728.57      133218.67      304711.79      3.2956433e-06  5.1787641e-07  2.7777669e-06  1.3406511e+08
   4606000   2.8479075e-10  133715         133206.37      304269.48      3.2956505e-06  5.1816561e-07  2.7774849e-06  1.3406208e+08
   4607000   2.8485258e-10  133702.5       133194.46      304057.91      3.2956515e-06  5.1842627e-07  2.7772252e-06  1.3405882e+08
   4608000   2.8491441e-10  133702.07      133195         303736.44      3.2956596e-06  5.1844317e-07  2.7772165e-06  1.3405962e+08
   4609000   2.8497624e-10  133701.91      133195.27      303593.61      3.2956629e-06  5.1844982e-07  2.777213e-06   1.3405842e+08
   4610000   2.8503807e-10  133728.31      133221.23      303768.3       3.2956482e-06  5.1788669e-07  2.7777615e-06  1.3406645e+08
   4611000   2.850999e-10   133729         133223.24      303326.16      3.2956571e-06  5.1788141e-07  2.7777757e-06  1.340672e+08 
   4612000   2.8516173e-10  133724.01      133217.16      303685.43      3.295658e-06   5.1798582e-07  2.7776722e-06  1.3406569e+08
   4613000   2.8522356e-10  133713.49      133207.13      303511.24      3.2956525e-06  5.1819897e-07  2.7774536e-06  1.3406183e+08
   4614000   2.8528539e-10  133724.24      133217.67      303592.19      3.2956603e-06  5.1798343e-07  2.7776768e-06  1.3406668e+08
   4615000   2.8534722e-10  133730.88      133225.79      303100.66      3.2956539e-06  5.1783918e-07  2.7778147e-06  1.3406831e+08
   4616000   2.8540905e-10  133716.94      133212.13      302995.39      3.2956359e-06  5.1811072e-07  2.7775252e-06  1.3406051e+08
   4617000   2.8547088e-10  133721.08      133216.87      302798.84      3.2956402e-06  5.1802884e-07  2.7776113e-06  1.3406183e+08
   4618000   2.8553271e-10  133726.7       133223.62      302426.27      3.2956374e-06  5.1790953e-07  2.7777279e-06  1.3406329e+08
   4619000   2.8559454e-10  133728.47      133226.91      301919.25      3.2956366e-06  5.1787199e-07  2.7777647e-06  1.3406333e+08
   4620000   2.8565637e-10  133729.27      133227.83      301881.15      3.2956373e-06  5.1785589e-07  2.7777814e-06  1.3406339e+08
   4621000   2.857182e-10   133721.14      133220.24      301693.96      3.2956374e-06  5.1802481e-07  2.7776126e-06  1.3405994e+08
   4622000   2.8578003e-10  133718.56      133218.06      301554.55      3.2956288e-06  5.1806983e-07  2.7775589e-06  1.3405751e+08
   4623000   2.8584187e-10  133736         133235.54      301557.99      3.2956362e-06  5.1771509e-07  2.7779211e-06  1.3406377e+08
   4624000   2.859037e-10   133728.62      133226.83      301997.43      3.2956381e-06  5.1787034e-07  2.7777678e-06  1.3406047e+08
   4625000   2.8596553e-10  133731.82      133230.03      302000.38      3.2956319e-06  5.1779758e-07  2.7778344e-06  1.3406136e+08
   4626000   2.8602736e-10  133740.93      133240.26      301636.37      3.2956324e-06  5.1760875e-07  2.7780236e-06  1.3406452e+08
   4627000   2.8608919e-10  133743.94      133244.04      301377.85      3.2956212e-06  5.1753519e-07  2.778086e-06   1.3406476e+08
   4628000   2.8615102e-10  133735.78      133236.71      301094.42      3.2956229e-06  5.1770625e-07  2.7779166e-06  1.3406195e+08
   4629000   2.8621285e-10  133738.77      133241.11      300626.32      3.2956234e-06  5.1764476e-07  2.7779787e-06  1.3406414e+08
   4630000   2.8627468e-10  133748.37      133250.78      300611.12      3.2956248e-06  5.1744677e-07  2.778178e-06   1.3406906e+08
   4631000   2.8633651e-10  133732.44      133235.14      300501.55      3.2956341e-06  5.1778687e-07  2.7778473e-06  1.3406422e+08
   4632000   2.8639834e-10  133716.9       133220.06      300327.75      3.2956306e-06  5.1810629e-07  2.7775243e-06  1.3405811e+08
   4633000   2.8646017e-10  133721.78      133225.17      300258.3       3.2956415e-06  5.1801573e-07  2.7776258e-06  1.3406037e+08
   4634000   2.86522e-10    133739.94      133244.65      299836.62      3.2956396e-06  5.1763653e-07  2.7780031e-06  1.3406619e+08
   4635000   2.8658383e-10  133732.79      133238.35      299543.05      3.2956398e-06  5.1778531e-07  2.7778544e-06  1.3406361e+08
   4636000   2.8664566e-10  133728.99      133234.07      299698.26      3.2956422e-06  5.1786673e-07  2.7777755e-06  1.3406367e+08
   4637000   2.8670749e-10  133718.62      133225.31      299149.3       3.295631e-06   5.1807094e-07  2.7775601e-06  1.3405959e+08
   4638000   2.8676932e-10  133728.58      133235.83      298972.56      3.2956338e-06  5.178669e-07   2.7777669e-06  1.3406354e+08
   4639000   2.8683115e-10  133715.03      133221.97      299065.6       3.2956267e-06  5.1814101e-07  2.7774857e-06  1.340575e+08 
   4640000   2.8689298e-10  133710.9       133217.44      299193.98      3.2956363e-06  5.1823645e-07  2.7773998e-06  1.3405598e+08
   4641000   2.8695481e-10  133728.95      133236.5       298874.16      3.2956252e-06  5.1785052e-07  2.7777747e-06  1.34062e+08  
   4642000   2.8701664e-10  133721.79      133230.35      298528.23      3.295627e-06   5.1800098e-07  2.777626e-06   1.3405989e+08
   4643000   2.8707847e-10  133719.83      133229.39      298191.97      3.2956248e-06  5.180396e-07   2.7775852e-06  1.3405909e+08
   4644000   2.871403e-10   133721.39      133231.21      298109.23      3.2956271e-06  5.1800937e-07  2.7776177e-06  1.3405987e+08
   4645000   2.8720213e-10  133719.22      133228.97      298128.65      3.2956523e-06  5.1807971e-07  2.7775726e-06  1.3406196e+08
   4646000   2.8726396e-10  133724.06      133234.56      297883.93      3.2956594e-06  5.1798619e-07  2.7776732e-06  1.340661e+08 
   4647000   2.8732579e-10  133720.08      133231.01      297735.91      3.295671e-06   5.1808053e-07  2.7775905e-06  1.340675e+08 
   4648000   2.8738762e-10  133706.47      133218.3       297417.86      3.2956787e-06  5.1837096e-07  2.7773077e-06  1.3406451e+08
   4649000   2.8744946e-10  133700.84      133212.59      297439.66      3.295689e-06   5.1849821e-07  2.7771908e-06  1.3406322e+08
   4650000   2.8751129e-10  133709.27      133221.01      297449.43      3.2956867e-06  5.1832082e-07  2.7773658e-06  1.3406546e+08
   4651000   2.8757312e-10  133721.24      133234.12      297084.04      3.2956741e-06  5.1805961e-07  2.7776145e-06  1.3406801e+08
   4652000   2.8763495e-10  133713.14      133226.23      297002.74      3.2956564e-06  5.182101e-07   2.7774463e-06  1.3406217e+08
   4653000   2.8769678e-10  133721.93      133234.66      297134.87      3.2956573e-06  5.1802839e-07  2.7776289e-06  1.3406464e+08
   4654000   2.8775861e-10  133705.66      133219.23      296836.73      3.2956474e-06  5.1835653e-07  2.7772909e-06  1.3405749e+08
   4655000   2.8782044e-10  133718.9       133234.15      296285.72      3.2956519e-06  5.1808608e-07  2.7775659e-06  1.3406262e+08
   4656000   2.8788227e-10  133717.35      133233.21      296083.58      3.2956512e-06  5.1811743e-07  2.7775338e-06  1.340614e+08 
   4657000   2.879441e-10   133719.52      133233.86      296593.65      3.2956492e-06  5.180703e-07   2.7775789e-06  1.3406124e+08
   4658000   2.8800593e-10  133728.73      133242.79      296695.05      3.2956348e-06  5.1786467e-07  2.7777701e-06  1.3406258e+08
   4659000   2.8806776e-10  133738.18      133253.73      296205.73      3.2956363e-06  5.1766993e-07  2.7779663e-06  1.3406532e+08
   4660000   2.8812959e-10  133734.41      133248.9       296558.55      3.2956389e-06  5.1775081e-07  2.7778881e-06  1.340643e+08 
   4661000   2.8819142e-10  133745.3       133260.9       296197.67      3.2956255e-06  5.1751117e-07  2.7781144e-06  1.3406849e+08
   4662000   2.8825325e-10  133723.11      133237.53      296570.13      3.295625e-06   5.1797164e-07  2.7776533e-06  1.3406115e+08
   4663000   2.8831508e-10  133710.98      133224.26      296939.03      3.2956258e-06  5.1822434e-07  2.7774015e-06  1.3405753e+08
   4664000   2.8837691e-10  133713.65      133225.1       297553.88      3.2956137e-06  5.1815676e-07  2.7774569e-06  1.3405776e+08
   4665000   2.8843874e-10  133710.11      133221.82      297463.1       3.295626e-06   5.1824255e-07  2.7773834e-06  1.3405627e+08
   4666000   2.8850057e-10  133718.97      133230.82      297423.94      3.2956362e-06  5.1806882e-07  2.7775673e-06  1.3405918e+08
   4667000   2.885624e-10   133724.33      133236.69      297261.5       3.2956455e-06  5.179667e-07   2.7776788e-06  1.3406085e+08
   4668000   2.8862423e-10  133736.25      133248.63      297263.88      3.295638e-06   5.1771168e-07  2.7779263e-06  1.3406439e+08
   4669000   2.8868606e-10  133750.83      133263.54      297169.01      3.2956268e-06  5.1739756e-07  2.7782292e-06  1.3406999e+08
   4670000   2.8874789e-10  133733.74      133244.94      297659.28      3.295644e-06   5.1776974e-07  2.7778743e-06  1.3406519e+08
   4671000   2.8880972e-10  133720.46      133230.85      297914.77      3.2956316e-06  5.1803318e-07  2.7775984e-06  1.3405945e+08
   4672000   2.8887155e-10  133732.23      133244.51      297294.4       3.2956401e-06  5.1779733e-07  2.7778428e-06  1.3406502e+08
   4673000   2.8893338e-10  133721.06      133234.37      296939.33      3.2956303e-06  5.1801936e-07  2.7776109e-06  1.3406067e+08
   4674000   2.8899521e-10  133732.4       133244.07      297498.11      3.2956334e-06  5.1778704e-07  2.7778463e-06  1.3406618e+08
   4675000   2.8905705e-10  133716.96      133229.44      297214.02      3.2956436e-06  5.1811797e-07  2.7775256e-06  1.3406107e+08
   4676000   2.8911888e-10  133725.31      133237.41      297350.51      3.2956521e-06  5.1795296e-07  2.7776992e-06  1.3406454e+08
   4677000   2.8918071e-10  133727.14      133240.55      296912.35      3.295656e-06   5.1791889e-07  2.7777371e-06  1.3406463e+08
   4678000   2.8924254e-10  133723.29      133237.9       296506.61      3.2956556e-06  5.1799844e-07  2.7776572e-06  1.3406273e+08
   4679000   2.8930437e-10  133730.6       133246.8       295981.69      3.2956594e-06  5.1785033e-07  2.777809e-06   1.3406578e+08
   4680000   2.893662e-10   133735.68      133251.49      296118.79      3.2956519e-06  5.1773736e-07  2.7779145e-06  1.3406738e+08
   4681000   2.8942803e-10  133727.93      133243.47      296197.1       3.2956475e-06  5.1789408e-07  2.7777534e-06  1.3406457e+08
   4682000   2.8948986e-10  133721.57      133237.25      296146.3       3.2956485e-06  5.1802716e-07  2.7776214e-06  1.3406292e+08
   4683000   2.8955169e-10  133699.77      133214.9       296308.53      3.2956354e-06  5.1846673e-07  2.7771686e-06  1.34053e+08  
   4684000   2.8961352e-10  133728.31      133243.1       296452.12      3.2956324e-06  5.1787093e-07  2.7777615e-06  1.3406254e+08
   4685000   2.8967535e-10  133745.02      133258.87      296785.63      3.2956312e-06  5.1752264e-07  2.7781086e-06  1.3406755e+08
   4686000   2.8973718e-10  133725.63      133239.67      296700.56      3.2956106e-06  5.1790484e-07  2.7777057e-06  1.3405744e+08
   4687000   2.8979901e-10  133725.64      133240.46      296441.44      3.2956079e-06  5.1790183e-07  2.7777061e-06  1.3405606e+08
   4688000   2.8986084e-10  133737.93      133252.6       296501.39      3.2956148e-06  5.1765357e-07  2.7779612e-06  1.340607e+08 
   4689000   2.8992267e-10  133731.21      133246.23      296378.43      3.295622e-06   5.1780029e-07  2.7778217e-06  1.3405881e+08
   4690000   2.899845e-10   133723.23      133239.67      295892.24      3.2956211e-06  5.1796531e-07  2.7776558e-06  1.3405715e+08
   4691000   2.9004633e-10  133748.78      133265.3       295892.71      3.2956135e-06  5.1742688e-07  2.7781866e-06  1.3406726e+08
   4692000   2.9010816e-10  133738.9       133255.07      296000.12      3.2956113e-06  5.1762992e-07  2.7779813e-06  1.3406294e+08
   4693000   2.9016999e-10  133731.18      133247.22      296037.47      3.2956249e-06  5.1780384e-07  2.7778211e-06  1.3406002e+08
   4694000   2.9023182e-10  133740.51      133255.97      296239.04      3.2956307e-06  5.1761595e-07  2.7780148e-06  1.3406357e+08
   4695000   2.9029365e-10  133721.8       133236.1       296609.9       3.2956291e-06  5.1800293e-07  2.7776262e-06  1.3405688e+08
   4696000   2.9035548e-10  133721.74      133235         296957.63      3.2956264e-06  5.1800144e-07  2.7776249e-06  1.340579e+08 
   4697000   2.9041731e-10  133734.03      133247.67      296841.61      3.2956268e-06  5.177466e-07   2.7778802e-06  1.3406416e+08
   4698000   2.9047914e-10  133721.58      133234.56      297050         3.2956335e-06  5.1801201e-07  2.7776215e-06  1.3406015e+08
   4699000   2.9054097e-10  133730.31      133244.19      296759.41      3.2956484e-06  5.1784541e-07  2.777803e-06   1.3406472e+08
   4700000   2.906028e-10   133729.2       133243.08      296754.35      3.2956417e-06  5.1786186e-07  2.7777798e-06  1.3406385e+08
   4701000   2.9066464e-10  133734.26      133249.34      296361.57      3.2956454e-06  5.1776047e-07  2.777885e-06   1.3406619e+08
   4702000   2.9072647e-10  133730.89      133248.88      295386.7       3.2956253e-06  5.1781026e-07  2.7778151e-06  1.3406337e+08
   4703000   2.907883e-10   133726.12      133243.91      295447.61      3.2956313e-06  5.1791533e-07  2.777716e-06   1.3406243e+08
   4704000   2.9085013e-10  133710.42      133228.54      295318.52      3.2956487e-06  5.1825894e-07  2.7773898e-06  1.3405877e+08
   4705000   2.9091196e-10  133710.93      133231.41      294530.39      3.2956453e-06  5.1824489e-07  2.7774004e-06  1.3405952e+08
   4706000   2.9097379e-10  133728.31      133249.49      294316.25      3.2956431e-06  5.1788166e-07  2.7777614e-06  1.3406677e+08
   4707000   2.9103562e-10  133711.87      133233.59      294117.37      3.2956482e-06  5.1822835e-07  2.7774199e-06  1.3406059e+08
   4708000   2.9109745e-10  133715.98      133237.73      294109.83      3.2956632e-06  5.1815789e-07  2.7775053e-06  1.3406269e+08
   4709000   2.9115928e-10  133715.22      133237.35      293984.46      3.2956458e-06  5.1815627e-07  2.7774895e-06  1.3406096e+08
   4710000   2.9122111e-10  133721.14      133242.64      294199.67      3.295632e-06   5.1801948e-07  2.7776125e-06  1.3406207e+08
   4711000   2.9128294e-10  133722.01      133244.17      293981.29      3.2956302e-06  5.1799962e-07  2.7776306e-06  1.3406199e+08
   4712000   2.9134477e-10  133705.93      133228.26      293907.28      3.2956396e-06  5.1834295e-07  2.7772966e-06  1.340559e+08 
   4713000   2.914066e-10   133728.84      133249.78      294393.43      3.2956442e-06  5.1787184e-07  2.7777724e-06  1.3406525e+08
   4714000   2.9146843e-10  133715.26      133236.3       294348.95      3.2956355e-06  5.1814518e-07  2.7774903e-06  1.340596e+08 
   4715000   2.9153026e-10  133717.05      133238.83      294100.47      3.2956377e-06  5.181102e-07   2.7775275e-06  1.3406035e+08
   4716000   2.9159209e-10  133728.7       133250.89      293978.17      3.2956309e-06  5.1786135e-07  2.7777696e-06  1.340633e+08 
   4717000   2.9165392e-10  133714.31      133237.43      293654.51      3.2956371e-06  5.1816636e-07  2.7774707e-06  1.3405842e+08
   4718000   2.9171575e-10  133719.25      133243.25      293361.72      3.2956415e-06  5.1806823e-07  2.7775733e-06  1.3406203e+08
   4719000   2.9177758e-10  133715.98      133241.92      292712.38      3.2956409e-06  5.181356e-07   2.7775054e-06  1.3406173e+08
   4720000   2.9183941e-10  133714.43      133243.5       291663.89      3.2956342e-06  5.18161e-07    2.7774732e-06  1.3406134e+08
   4721000   2.9190124e-10  133717.78      133247.8       291346.23      3.2956369e-06  5.1809421e-07  2.7775427e-06  1.340622e+08 
   4722000   2.9196307e-10  133713.78      133244.26      291190.43      3.295644e-06   5.1818435e-07  2.7774596e-06  1.3406021e+08
   4723000   2.920249e-10   133732.57      133263.05      291206.17      3.2956588e-06  5.1780896e-07  2.7778498e-06  1.3406837e+08
   4724000   2.9208673e-10  133728.34      133259.81      290872.5       3.2956487e-06  5.1788675e-07  2.777762e-06   1.3406659e+08
   4725000   2.9214856e-10  133708.49      133240.42      290701.7       3.2956487e-06  5.1829886e-07  2.7773498e-06  1.3406001e+08
   4726000   2.9221039e-10  133693.61      133224.59      291001.71      3.2956428e-06  5.1860219e-07  2.7770406e-06  1.3405441e+08
   4727000   2.9227223e-10  133703.2       133233.34      291293.46      3.2956567e-06  5.184168e-07   2.7772399e-06  1.3405826e+08
   4728000   2.9233406e-10  133717.18      133245.51      291912.02      3.2956518e-06  5.1812163e-07  2.7775302e-06  1.3406321e+08
   4729000   2.9239589e-10  133705.53      133232.39      292391.09      3.2956449e-06  5.1835664e-07  2.7772883e-06  1.3405828e+08
   4730000   2.9245772e-10  133710.65      133236.89      292605.93      3.2956491e-06  5.1825446e-07  2.7773947e-06  1.3405976e+08
   4731000   2.9251955e-10  133720.63      133245.41      293101.08      3.2956275e-06  5.1802565e-07  2.7776018e-06  1.3406054e+08
   4732000   2.9258138e-10  133721.7       133245.54      293417.77      3.2956065e-06  5.1798241e-07  2.7776241e-06  1.3405822e+08
   4733000   2.9264321e-10  133717.17      133241.95      293099.5       3.2956052e-06  5.1807505e-07  2.7775301e-06  1.3405603e+08
   4734000   2.9270504e-10  133720.02      133243.64      293488.51      3.2956116e-06  5.1802238e-07  2.7775892e-06  1.3405708e+08
   4735000   2.9276687e-10  133736.44      133262.7       292624.77      3.2956104e-06  5.1768009e-07  2.7779303e-06  1.3406232e+08
   4736000   2.928287e-10   133726.84      133254.07      292290.4       3.2956107e-06  5.1787978e-07  2.7777309e-06  1.3405788e+08
   4737000   2.9289053e-10  133733.36      133259.52      292653.73      3.2956032e-06  5.1773692e-07  2.7778663e-06  1.3405942e+08
   4738000   2.9295236e-10  133730.84      133257.68      292424.29      3.2956121e-06  5.1779818e-07  2.777814e-06   1.3405891e+08
   4739000   2.9301419e-10  133734.21      133260.31      292674.7       3.2956248e-06  5.1774088e-07  2.7778839e-06  1.3406115e+08
   4740000   2.9307602e-10  133737.91      133263.82      292740.2       3.2956237e-06  5.17663e-07    2.7779607e-06  1.3406302e+08
   4741000   2.9313785e-10  133734.26      133261.45      292310.9       3.2956428e-06  5.1775778e-07  2.777885e-06   1.3406493e+08
   4742000   2.9319968e-10  133736.51      133264.64      291997.23      3.2956438e-06  5.177121e-07   2.7779317e-06  1.3406794e+08
   4743000   2.9326151e-10  133728.44      133255.38      292388.21      3.295651e-06   5.1788702e-07  2.777764e-06   1.3406582e+08
   4744000   2.9332334e-10  133735.95      133262.04      292678.25      3.2956493e-06  5.1772924e-07  2.7779201e-06  1.3406795e+08
   4745000   2.9338517e-10  133734.33      133259.38      293027.71      3.2956563e-06  5.1776982e-07  2.7778865e-06  1.3406692e+08
   4746000   2.93447e-10    133740.42      133265.96      292866.93      3.2956502e-06  5.1763723e-07  2.7780129e-06  1.3406914e+08
   4747000   2.9350883e-10  133723.53      133250.09      292509.91      3.2956364e-06  5.1797427e-07  2.7776621e-06  1.3406279e+08
   4748000   2.9357066e-10  133726.59      133253.4       292428.57      3.2956517e-06  5.1792615e-07  2.7777256e-06  1.340657e+08 
   4749000   2.9363249e-10  133724.2       133251.44      292281.41      3.2956528e-06  5.1797677e-07  2.777676e-06   1.3406411e+08
   4750000   2.9369432e-10  133725.86      133250.82      293049.79      3.2956461e-06  5.1793554e-07  2.7777106e-06  1.3406365e+08
   4751000   2.9375615e-10  133723.74      133248.17      293222.98      3.2956488e-06  5.1798231e-07  2.7776665e-06  1.3406268e+08
   4752000   2.9381798e-10  133720.62      133244.27      293481.32      3.2956552e-06  5.1805354e-07  2.7776017e-06  1.3406124e+08
   4753000   2.9387982e-10  133728.35      133251.96      293501.32      3.2956515e-06  5.1788937e-07  2.7777622e-06  1.3406363e+08
   4754000   2.9394165e-10  133738.15      133261.99      293432.91      3.2956425e-06  5.1767675e-07  2.7779658e-06  1.3406707e+08
   4755000   2.9400348e-10  133717.51      133240.95      293547.75      3.2956362e-06  5.1809917e-07  2.7775371e-06  1.3405933e+08
   4756000   2.9406531e-10  133720.58      133245.08      293199.14      3.2956347e-06  5.1803378e-07  2.777601e-06   1.3406074e+08
   4757000   2.9412714e-10  133714.1       133239.32      292951.12      3.2956436e-06  5.1817729e-07  2.7774663e-06  1.3405931e+08
   4758000   2.9418897e-10  133701.06      133229.89      291727.68      3.2956372e-06  5.1844188e-07  2.7771953e-06  1.340537e+08 
   4759000   2.942508e-10   133721.81      133253.03      290948.27      3.295636e-06   5.180097e-07   2.7776263e-06  1.3406096e+08
   4760000   2.9431263e-10  133737.48      133269.94      290551.76      3.295626e-06   5.1767406e-07  2.7779519e-06  1.3406578e+08
   4761000   2.9437446e-10  133727.2       133259.78      290500.74      3.2956048e-06  5.1786637e-07  2.7777384e-06  1.3405953e+08
   4762000   2.9443629e-10  133733.51      133265.83      290594.17      3.2956069e-06  5.1773751e-07  2.7778694e-06  1.34061e+08  
   4763000   2.9449812e-10  133750.82      133283.75      290406.82      3.2956169e-06  5.1738799e-07  2.7782289e-06  1.3406719e+08
   4764000   2.9455995e-10  133730.52      133263.72      290298.25      3.2956248e-06  5.1781743e-07  2.7778074e-06  1.3405957e+08
   4765000   2.9462178e-10  133719.94      133254.81      289727.84      3.2956394e-06  5.1805182e-07  2.7775876e-06  1.3405671e+08
   4766000   2.9468361e-10  133719.24      133253.91      289794.89      3.2956417e-06  5.180687e-07   2.777573e-06   1.3405771e+08
   4767000   2.9474544e-10  133720.07      133255.35      289591.97      3.2956255e-06  5.1803512e-07  2.7775904e-06  1.3405815e+08
   4768000   2.9480727e-10  133725.15      133261.75      289152.46      3.2956335e-06  5.1793782e-07  2.7776957e-06  1.3406226e+08
   4769000   2.948691e-10   133720.8       133258.19      288884.58      3.2956537e-06  5.1804827e-07  2.7776055e-06  1.340628e+08 
   4770000   2.9493093e-10  133730.18      133267.83      288809.74      3.2956664e-06  5.178661e-07   2.7778003e-06  1.3406771e+08
   4771000   2.9499276e-10  133729.03      133266.4       288899.18      3.2956545e-06  5.1787815e-07  2.7777764e-06  1.3406642e+08
   4772000   2.9505459e-10  133728.94      133267.09      288639.82      3.2956589e-06  5.1788443e-07  2.7777745e-06  1.3406691e+08
   4773000   2.9511642e-10  133716.36      133255.29      288364.17      3.2956557e-06  5.181426e-07   2.7775131e-06  1.3406195e+08
   4774000   2.9517825e-10  133710.54      133249.35      288399.66      3.2956679e-06  5.182756e-07   2.7773923e-06  1.3406083e+08
   4775000   2.9524008e-10  133708.3       133247.89      288137.81      3.2956701e-06  5.1832431e-07  2.7773458e-06  1.3406094e+08
   4776000   2.9530191e-10  133714.53      133255.61      287644.23      3.2956678e-06  5.1819255e-07  2.7774752e-06  1.3406351e+08
   4777000   2.9536374e-10  133721.41      133262.03      287808.55      3.2956658e-06  5.1804766e-07  2.7776182e-06  1.3406629e+08
   4778000   2.9542557e-10  133721.11      133261.7       287817.81      3.2956668e-06  5.1805491e-07  2.7776119e-06  1.3406628e+08
   4779000   2.9548741e-10  133720.02      133262.6       287146.3       3.2956671e-06  5.1807795e-07  2.7775891e-06  1.340661e+08 
   4780000   2.9554924e-10  133722.14      133265.69      286827.56      3.2956688e-06  5.1803559e-07  2.7776333e-06  1.3406784e+08
   4781000   2.9561107e-10  133718.58      133261.48      287042.22      3.2956668e-06  5.1810744e-07  2.7775593e-06  1.3406605e+08
   4782000   2.956729e-10   133708.4       133250.89      287167.34      3.2956706e-06  5.1832265e-07  2.7773479e-06  1.3406188e+08
   4783000   2.9573473e-10  133705.83      133250.09      286571.39      3.2956586e-06  5.1836421e-07  2.7772944e-06  1.3405879e+08
   4784000   2.9579656e-10  133724.41      133269.96      286161.49      3.2956584e-06  5.1797798e-07  2.7776804e-06  1.3406349e+08
   4785000   2.9585839e-10  133745.19      133292.52      285585.85      3.2956451e-06  5.1753297e-07  2.7781121e-06  1.3406834e+08
   4786000   2.9592022e-10  133736.1       133282.52      285881.32      3.2956436e-06  5.1772026e-07  2.7779233e-06  1.3406369e+08
   4787000   2.9598205e-10  133745.76      133293.81      285347.79      3.2956571e-06  5.1753317e-07  2.778124e-06   1.3406805e+08
   4788000   2.9604388e-10  133747.04      133295.99      285044.92      3.2956529e-06  5.1750251e-07  2.7781504e-06  1.3406826e+08
   4789000   2.9610571e-10  133736.94      133285.85      285048.95      3.2956543e-06  5.1771366e-07  2.7779406e-06  1.3406507e+08
   4790000   2.9616754e-10  133738.3       133287.33      285009.73      3.2956429e-06  5.176741e-07   2.7779688e-06  1.3406411e+08
   4791000   2.9622937e-10  133756.12      133305.92      284772.69      3.2956247e-06  5.1728558e-07  2.7783392e-06  1.3406794e+08
   4792000   2.962912e-10   133753.6       133303.35      284784.8       3.2956132e-06  5.1732648e-07  2.7782867e-06  1.3406528e+08
   4793000   2.9635303e-10  133742.58      133293.32      284443.15      3.2956236e-06  5.175657e-07   2.7780579e-06  1.3406311e+08
   4794000   2.9641486e-10  133733.14      133282.5       284893.66      3.2956284e-06  5.1776665e-07  2.7778617e-06  1.3406152e+08
   4795000   2.9647669e-10  133729.48      133280.84      284220.26      3.2956302e-06  5.1784455e-07  2.7777857e-06  1.3406142e+08
   4796000   2.9653852e-10  133708.22      133260.98      283731.7       3.2956443e-06  5.1830024e-07  2.7773441e-06  1.3405549e+08
   4797000   2.9660035e-10  133724.38      133278.84      283181.69      3.2956492e-06  5.1796932e-07  2.7776798e-06  1.3406393e+08
   4798000   2.9666218e-10  133734.52      133289.33      283071.28      3.2956615e-06  5.1777114e-07  2.7778904e-06  1.3406976e+08
   4799000   2.9672401e-10  133721.48      133277.24      282741.82      3.2956576e-06  5.1803811e-07  2.7776195e-06  1.3406501e+08
   4800000   2.9678584e-10  133719.7       133277.64      282010.25      3.2956645e-06  5.1808198e-07  2.7775826e-06  1.3406519e+08
   4801000   2.9684767e-10  133713.49      133271.86      281861.71      3.2956515e-06  5.1819789e-07  2.7774536e-06  1.3406161e+08
   4802000   2.969095e-10   133726.3       133285.53      281586.06      3.2956509e-06  5.1793126e-07  2.7777196e-06  1.3406681e+08
   4803000   2.9697133e-10  133717.06      133276.15      281621.91      3.2956513e-06  5.1812367e-07  2.7775277e-06  1.3406396e+08
   4804000   2.9703316e-10  133705.17      133265.36      281243.72      3.2956514e-06  5.1837066e-07  2.7772808e-06  1.3405934e+08
   4805000   2.97095e-10    133720.84      133281.05      281255.52      3.2956447e-06  5.1803841e-07  2.7776063e-06  1.3406396e+08
   4806000   2.9715683e-10  133733.92      133293.78      281382.71      3.2956602e-06  5.1778227e-07  2.7778779e-06  1.3406892e+08
   4807000   2.9721866e-10  133732         133292.3       281231.98      3.2956543e-06  5.1781631e-07  2.777838e-06   1.3406662e+08
   4808000   2.9728049e-10  133738.41      133300.89      280513.23      3.2956467e-06  5.1767542e-07  2.7779712e-06  1.3406809e+08
   4809000   2.9734232e-10  133724.89      133289.21      279883.09      3.2956411e-06  5.1795068e-07  2.7776904e-06  1.3406332e+08
   4810000   2.9740415e-10  133725.24      133289.57      279879.24      3.2956438e-06  5.1794613e-07  2.7776976e-06  1.3406318e+08
   4811000   2.9746598e-10  133727.52      133292.12      279791.56      3.2956405e-06  5.1789539e-07  2.7777451e-06  1.3406237e+08
   4812000   2.9752781e-10  133743.66      133306.27      280472.16      3.2956235e-06  5.1754334e-07  2.7780802e-06  1.3406622e+08
   4813000   2.9758964e-10  133724.75      133286.99      280577.36      3.2956389e-06  5.1795153e-07  2.7776874e-06  1.3406018e+08
   4814000   2.9765147e-10  133725.42      133286.77      280879.09      3.2956424e-06  5.1794098e-07  2.7777014e-06  1.3406229e+08
   4815000   2.977133e-10   133732.91      133293.59      281108.26      3.2956474e-06  5.1779037e-07  2.777857e-06   1.3406695e+08
   4816000   2.9777513e-10  133729.28      133289.18      281364.29      3.2956473e-06  5.1786573e-07  2.7777816e-06  1.340657e+08 
   4817000   2.9783696e-10  133732.75      133294.34      280805.23      3.295653e-06   5.1779934e-07  2.7778536e-06  1.3406686e+08
   4818000   2.9789879e-10  133725.76      133288.66      280361.09      3.2956277e-06  5.1791916e-07  2.7777085e-06  1.3406241e+08
   4819000   2.9796062e-10  133717.8       133283.36      279462.39      3.2956354e-06  5.1809228e-07  2.7775432e-06  1.340602e+08 
   4820000   2.9802245e-10  133722.64      133289.02      279192.83      3.2956381e-06  5.1799441e-07  2.7776437e-06  1.3406233e+08
   4821000   2.9808428e-10  133734.28      133300.22      279353.4       3.2956538e-06  5.1776824e-07  2.7778855e-06  1.3406739e+08
   4822000   2.9814611e-10  133743.69      133307.76      279985.02      3.2956695e-06  5.1758863e-07  2.7780809e-06  1.340713e+08 
   4823000   2.9820794e-10  133738.02      133302.65      279793.44      3.2956606e-06  5.1769754e-07  2.7779631e-06  1.340685e+08 
   4824000   2.9826977e-10  133732.6       133299.29      279100.12      3.2956612e-06  5.1781054e-07  2.7778506e-06  1.3406765e+08
   4825000   2.983316e-10   133723.98      133290.24      279234.2       3.295664e-06   5.1799252e-07  2.7776715e-06  1.3406536e+08
   4826000   2.9839343e-10  133712.55      133278.23      279414.38      3.2956674e-06  5.182334e-07   2.777434e-06   1.34061e+08  
   4827000   2.9845526e-10  133710.08      133274.93      279692.99      3.2956578e-06  5.1827499e-07  2.7773828e-06  1.3405918e+08
   4828000   2.9851709e-10  133728.3       133293         279760.83      3.2956501e-06  5.1788877e-07  2.7777613e-06  1.3406441e+08
   4829000   2.9857892e-10  133740.21      133306.02      279398.7       3.2956375e-06  5.1762899e-07  2.7780085e-06  1.3406735e+08
   4830000   2.9864075e-10  133740.75      133309         278583.95      3.2956563e-06  5.1763643e-07  2.7780199e-06  1.3406926e+08
   4831000   2.9870259e-10  133734.48      133302.62      278616.72      3.2956802e-06  5.1779055e-07  2.7778897e-06  1.3406918e+08
   4832000   2.9876442e-10  133728.24      133295.28      278977.68      3.295681e-06   5.17921e-07    2.77776e-06    1.3406701e+08
   4833000   2.9882625e-10  133719.14      133288.51      278188.71      3.2956788e-06  5.1810785e-07  2.7775709e-06  1.3406406e+08
   4834000   2.9888808e-10  133727.47      133298.33      277700.24      3.295669e-06   5.1792493e-07  2.7777441e-06  1.3406757e+08
   4835000   2.9894991e-10  133720.61      133291.72      277608.39      3.2956647e-06  5.1806322e-07  2.7776014e-06  1.3406606e+08
   4836000   2.9901174e-10  133709.88      133280.13      277883.37      3.2956561e-06  5.1827753e-07  2.7773786e-06  1.3406215e+08
   4837000   2.9907357e-10  133717.48      133287.8       277869.49      3.2956543e-06  5.1811783e-07  2.7775364e-06  1.3406486e+08
   4838000   2.991354e-10   133709.77      133280.56      277703.53      3.2956578e-06  5.1828146e-07  2.7773763e-06  1.3406193e+08
   4839000   2.9919723e-10  133718.73      133290.06      277533.47      3.2956486e-06  5.1808619e-07  2.7775624e-06  1.3406414e+08
   4840000   2.9925906e-10  133739.47      133311.43      277342.92      3.2956485e-06  5.1765524e-07  2.7779933e-06  1.3407154e+08
   4841000   2.9932089e-10  133718.73      133290.02      277546.08      3.2956472e-06  5.1808467e-07  2.7775625e-06  1.3406259e+08
   4842000   2.9938272e-10  133716.86      133288.68      277364.12      3.2956485e-06  5.1812499e-07  2.7775235e-06  1.3406107e+08
   4843000   2.9944455e-10  133712.8       133285.3       277134.92      3.2956406e-06  5.1820134e-07  2.7774392e-06  1.3405799e+08
   4844000   2.9950638e-10  133711.26      133282.98      277395.41      3.2956544e-06  5.1824706e-07  2.7774073e-06  1.3405837e+08
   4845000   2.9956821e-10  133715.89      133285.51      278102.97      3.295663e-06   5.181595e-07   2.7775035e-06  1.3406153e+08
   4846000   2.9963004e-10  133714.98      133285.71      277728.86      3.2956575e-06  5.181731e-07   2.7774844e-06  1.3406202e+08
   4847000   2.9969187e-10  133727.45      133296.91      278167.72      3.2956436e-06  5.1790008e-07  2.7777435e-06  1.3406572e+08
   4848000   2.997537e-10   133722.82      133290.76      278670.61      3.2956448e-06  5.1799743e-07  2.7776474e-06  1.340621e+08 
   4849000   2.9981553e-10  133736.18      133302.82      279118.54      3.2956472e-06  5.177224e-07   2.7779248e-06  1.3406609e+08
   4850000   2.9987736e-10  133728.54      133294.55      279323.71      3.2956366e-06  5.1787038e-07  2.7777663e-06  1.3406304e+08
   4851000   2.9993919e-10  133725.2       133291.93      279076.55      3.2956481e-06  5.1795129e-07  2.7776968e-06  1.340635e+08 
   4852000   3.0000102e-10  133719.27      133287.86      278448.58      3.2956597e-06  5.1808615e-07  2.7775736e-06  1.3406234e+08
   4853000   3.0006285e-10  133722.01      133291.8       278050.72      3.2956554e-06  5.1802478e-07  2.7776306e-06  1.3406295e+08
   4854000   3.0012468e-10  133726.65      133295.77      278277.92      3.2956456e-06  5.1791871e-07  2.7777269e-06  1.3406438e+08
   4855000   3.0018651e-10  133707.87      133275.61      278724.5       3.2956424e-06  5.1830546e-07  2.7773369e-06  1.3405745e+08
   4856000   3.0024834e-10  133713.07      133279.86      279042.88      3.2956524e-06  5.1820763e-07  2.7774448e-06  1.3406064e+08
   4857000   3.0031018e-10  133734.71      133302.97      278577.32      3.2956577e-06  5.1776329e-07  2.7778944e-06  1.3406831e+08
   4858000   3.0037201e-10  133730.98      133299.02      278643.52      3.2956416e-06  5.178247e-07   2.7778169e-06  1.3406472e+08
   4859000   3.0043384e-10  133730.35      133298.99      278443.08      3.2956412e-06  5.1783746e-07  2.7778037e-06  1.3406419e+08
   4860000   3.0049567e-10  133711.36      133279.81      278487.67      3.2956458e-06  5.1823654e-07  2.7774092e-06  1.3405767e+08
   4861000   3.005575e-10   133707.9       133276.02      278594.55      3.2956416e-06  5.1830418e-07  2.7773374e-06  1.3405657e+08
   4862000   3.0061933e-10  133720.93      133289.53      278446.07      3.295631e-06   5.1802292e-07  2.777608e-06   1.3405997e+08
   4863000   3.0068116e-10  133730.68      133299.14      278504.13      3.2956215e-06  5.1781089e-07  2.7778106e-06  1.3406165e+08
   4864000   3.0074299e-10  133729.86      133299.29      278178.27      3.2956248e-06  5.1783128e-07  2.7777935e-06  1.3406016e+08
   4865000   3.0080482e-10  133733.3       133301.62      278553.11      3.2956422e-06  5.1777714e-07  2.7778651e-06  1.3406206e+08
   4866000   3.0086665e-10  133735.52      133303.59      278639.87      3.2956388e-06  5.1772751e-07  2.7779113e-06  1.3406291e+08
   4867000   3.0092848e-10  133739.66      133308.31      278446.77      3.2956419e-06  5.1764479e-07  2.7779971e-06  1.3406497e+08
   4868000   3.0099031e-10  133738.05      133307.51      278175.68      3.2956318e-06  5.1766806e-07  2.7779637e-06  1.3406425e+08
   4869000   3.0105214e-10  133748.31      133317.2       278378.46      3.2956173e-06  5.1744052e-07  2.7781768e-06  1.3406813e+08
   4870000   3.0111397e-10  133735.41      133304.51      278293.71      3.2956391e-06  5.1773032e-07  2.7779088e-06  1.3406666e+08
   4871000   3.011758e-10   133724.37      133293.35      278323.63      3.2956414e-06  5.1796192e-07  2.7776795e-06  1.3406428e+08
   4872000   3.0123763e-10  133713.09      133283.36      277878.77      3.2956301e-06  5.1818489e-07  2.7774452e-06  1.340596e+08 
   4873000   3.0129946e-10  133721.59      133293.57      277317.88      3.2956385e-06  5.1801661e-07  2.7776219e-06  1.3406309e+08
   4874000   3.0136129e-10  133722.18      133294.71      277137.23      3.29565e-06    5.1801584e-07  2.7776342e-06  1.3406339e+08
   4875000   3.0142312e-10  133727.42      133300.93      276813.25      3.2956522e-06  5.1790925e-07  2.777743e-06   1.340646e+08 
   4876000   3.0148495e-10  133739.32      133316.05      275749.26      3.2956382e-06  5.1764803e-07  2.7779902e-06  1.340675e+08 
   4877000   3.0154678e-10  133736.83      133316.37      274804.56      3.2956429e-06  5.1770457e-07  2.7779384e-06  1.3406597e+08
   4878000   3.0160861e-10  133733.31      133314.46      274264.35      3.2956453e-06  5.1777997e-07  2.7778654e-06  1.3406359e+08
   4879000   3.0167044e-10  133750.83      133332.05      274254.14      3.2956457e-06  5.1741657e-07  2.7782291e-06  1.3406949e+08
   4880000   3.0173227e-10  133740.88      133322.03      274271.68      3.2956363e-06  5.1761375e-07  2.7780225e-06  1.3406446e+08
   4881000   3.017941e-10   133736.67      133317.82      274264.88      3.2956354e-06  5.1770036e-07  2.777935e-06   1.3406413e+08
   4882000   3.0185593e-10  133731.01      133313.47      273821.76      3.2956401e-06  5.1782259e-07  2.7778175e-06  1.3406376e+08
   4883000   3.0191777e-10  133734.36      133317.61      273558.68      3.2956454e-06  5.1775836e-07  2.777887e-06   1.3406655e+08
   4884000   3.019796e-10   133717.38      133301.64      273205.79      3.2956225e-06  5.1808812e-07  2.7775343e-06  1.340592e+08 
   4885000   3.0204143e-10  133719.96      133304.65      273064.3       3.2956278e-06  5.1803989e-07  2.7775879e-06  1.3406163e+08
   4886000   3.0210326e-10  133709.02      133295.94      272307.78      3.2956342e-06  5.1827341e-07  2.7773608e-06  1.3405772e+08
   4887000   3.0216509e-10  133722.02      133309.82      272027.83      3.2956265e-06  5.1799571e-07  2.7776308e-06  1.3406106e+08
   4888000   3.0222692e-10  133728.71      133316.39      272072.54      3.2956242e-06  5.1785449e-07  2.7777697e-06  1.3406221e+08
   4889000   3.0228875e-10  133732.91      133321.07      271919.81      3.295627e-06   5.177699e-07   2.7778571e-06  1.3406389e+08
   4890000   3.0235058e-10  133720.43      133309.65      271550.71      3.2956373e-06  5.1803951e-07  2.7775978e-06  1.3406011e+08
   4891000   3.0241241e-10  133723.15      133313.12      271303.23      3.2956358e-06  5.1798145e-07  2.7776543e-06  1.3406128e+08
   4892000   3.0247424e-10  133732.46      133322.44      271308.51      3.2956559e-06  5.1780823e-07  2.7778476e-06  1.3406634e+08
   4893000   3.0253607e-10  133740.46      133329.4       271665.96      3.2956409e-06  5.1762702e-07  2.7780139e-06  1.340681e+08 
   4894000   3.025979e-10   133738.13      133326.27      271930.43      3.2956175e-06  5.1765206e-07  2.7779654e-06  1.3406416e+08
   4895000   3.0265973e-10  133739.43      133329.07      271427.28      3.2956232e-06  5.1763089e-07  2.7779923e-06  1.3406352e+08
   4896000   3.0272156e-10  133732.32      133322.67      271186.44      3.2956358e-06  5.1779104e-07  2.7778448e-06  1.3406104e+08
   4897000   3.0278339e-10  133729.58      133319.94      271179.97      3.2956193e-06  5.1783148e-07  2.7777878e-06  1.3405824e+08
   4898000   3.0284522e-10  133732.2       133321.92      271393.72      3.2956287e-06  5.1778659e-07  2.7778422e-06  1.340597e+08 
   4899000   3.0290705e-10  133739         133328.56      271454.02      3.2956246e-06  5.1764116e-07  2.7779835e-06  1.3406233e+08
   4900000   3.0296888e-10  133738.54      133329.23      271078.55      3.2956277e-06  5.1765378e-07  2.7779739e-06  1.3406417e+08
   4901000   3.0303071e-10  133731.59      133322.79      270898.39      3.2956188e-06  5.1778935e-07  2.7778295e-06  1.3406293e+08
   4902000   3.0309254e-10  133731.36      133322.75      270834.43      3.2956286e-06  5.1780388e-07  2.7778247e-06  1.3406447e+08
   4903000   3.0315437e-10  133730.93      133321.03      271269.34      3.2956356e-06  5.1781969e-07  2.7778159e-06  1.3406474e+08
   4904000   3.032162e-10   133731.68      133320.33      271753.12      3.2956319e-06  5.178006e-07   2.7778313e-06  1.3406434e+08
   4905000   3.0327803e-10  133730.28      133318.94      271747.19      3.2956383e-06  5.178359e-07   2.7778024e-06  1.3406378e+08
   4906000   3.0333986e-10  133722.76      133312.01      271543.24      3.2956367e-06  5.1799056e-07  2.7776461e-06  1.3406113e+08
   4907000   3.0340169e-10  133730.76      133318.27      272135.51      3.2956505e-06  5.1783812e-07  2.7778124e-06  1.3406567e+08
   4908000   3.0346352e-10  133743.47      133329.99      272476.45      3.2956591e-06  5.1758275e-07  2.7780764e-06  1.340716e+08 
   4909000   3.0352536e-10  133716.56      133303.15      272428.3       3.2956638e-06  5.1814638e-07  2.7775174e-06  1.3406199e+08
   4910000   3.0358719e-10  133711.04      133298.38      272170.53      3.2956656e-06  5.1826293e-07  2.7774026e-06  1.3406014e+08
   4911000   3.0364902e-10  133707.87      133295.53      272062.02      3.2956603e-06  5.1832343e-07  2.7773369e-06  1.3405909e+08
   4912000   3.0371085e-10  133716.79      133302.78      272628.83      3.2956547e-06  5.1813259e-07  2.7775221e-06  1.3406235e+08
   4913000   3.0377268e-10  133725.14      133313.15      271962.51      3.2956496e-06  5.1795389e-07  2.7776957e-06  1.3406496e+08
   4914000   3.0383451e-10  133719.04      133307.19      271904.99      3.2956379e-06  5.1806912e-07  2.7775688e-06  1.3406096e+08
   4915000   3.0389634e-10  133731.92      133320.28      271847.31      3.2956381e-06  5.1780174e-07  2.7778363e-06  1.3406465e+08
   4916000   3.0395817e-10  133737.36      133326.67      271538.61      3.2956558e-06  5.1770643e-07  2.7779494e-06  1.3406632e+08
   4917000   3.0402e-10     133740.28      133330.39      271272.03      3.2956452e-06  5.1763512e-07  2.7780101e-06  1.3406581e+08
   4918000   3.0408183e-10  133734.21      133324.05      271359.39      3.2956248e-06  5.1774075e-07  2.777884e-06   1.3406241e+08
   4919000   3.0414366e-10  133728.06      133319.78      270721.95      3.2956092e-06  5.1785302e-07  2.7777562e-06  1.3405988e+08
   4920000   3.0420549e-10  133729.23      133321.36      270584.5       3.2956186e-06  5.1783808e-07  2.7777805e-06  1.340619e+08 
   4921000   3.0426732e-10  133721.9       133315.99      269924.7       3.2956205e-06  5.1799221e-07  2.7776283e-06  1.340603e+08 
   4922000   3.0432915e-10  133722.74      133316.58      270007         3.2956294e-06  5.1798372e-07  2.7776456e-06  1.3406133e+08
   4923000   3.0439098e-10  133728         133322.17      269905.54      3.2956313e-06  5.1787623e-07  2.777755e-06   1.3406291e+08
   4924000   3.0445281e-10  133725.32      133320.5       269563.88      3.2956328e-06  5.1793342e-07  2.7776994e-06  1.3406162e+08
   4925000   3.0451464e-10  133717.65      133312.91      269526.32      3.2956314e-06  5.1809144e-07  2.7775399e-06  1.3405831e+08
   4926000   3.0457647e-10  133736.77      133331.75      269643.61      3.2956343e-06  5.1769713e-07  2.7779372e-06  1.3406557e+08
   4927000   3.046383e-10   133721.91      133317.31      269486.3       3.2956396e-06  5.1801105e-07  2.7776286e-06  1.3406069e+08
   4928000   3.0470013e-10  133720.49      133315.96      269459.26      3.2956445e-06  5.1804552e-07  2.777599e-06   1.3406183e+08
   4929000   3.0476196e-10  133723.12      133317.3       269896.07      3.2956478e-06  5.1799413e-07  2.7776537e-06  1.3406424e+08
   4930000   3.0482379e-10  133714.4       133309.52      269572.71      3.2956416e-06  5.1816902e-07  2.7774726e-06  1.3406094e+08
   4931000   3.0488562e-10  133716.99      133311.1       269911.15      3.2956413e-06  5.1811506e-07  2.7775263e-06  1.3406163e+08
   4932000   3.0494745e-10  133724.93      133319.91      269628.58      3.2956534e-06  5.1796231e-07  2.7776911e-06  1.3406469e+08
   4933000   3.0500928e-10  133717.09      133312.43      269501.61      3.2956514e-06  5.1812299e-07  2.7775284e-06  1.3406012e+08
   4934000   3.0507111e-10  133729.65      133323.37      270053.94      3.2956463e-06  5.1785718e-07  2.7777892e-06  1.3406334e+08
   4935000   3.0513295e-10  133734.98      133326.63      270752.72      3.2956328e-06  5.1773277e-07  2.7779e-06     1.3406324e+08
   4936000   3.0519478e-10  133748.21      133337.96      271402.59      3.2956293e-06  5.1745448e-07  2.7781748e-06  1.3406847e+08
   4937000   3.0525661e-10  133747.08      133335.92      271705.18      3.2956209e-06  5.1746958e-07  2.7781513e-06  1.3406798e+08
   4938000   3.0531844e-10  133724.73      133313.24      271791.36      3.2956252e-06  5.1793808e-07  2.7776871e-06  1.3405948e+08
   4939000   3.0538027e-10  133736.42      133323.92      272144.31      3.295621e-06   5.1769103e-07  2.7779299e-06  1.3406332e+08
   4940000   3.054421e-10   133729.21      133317.43      271892.18      3.2956308e-06  5.1785075e-07  2.77778e-06    1.3406144e+08
   4941000   3.0550393e-10  133726.38      133314.04      272077.43      3.2956415e-06  5.1792016e-07  2.7777213e-06  1.3406213e+08
   4942000   3.0556576e-10  133731.14      133319.14      271971.2       3.2956468e-06  5.1782659e-07  2.7778202e-06  1.3406525e+08
   4943000   3.0562759e-10  133731.42      133321.03      271429.85      3.295645e-06   5.1781898e-07  2.777826e-06   1.3406554e+08
   4944000   3.0568942e-10  133733.52      133322.94      271494.97      3.2956381e-06  5.1776853e-07  2.7778696e-06  1.3406607e+08
   4945000   3.0575125e-10  133731.63      133319.25      272097.99      3.2956517e-06  5.1782124e-07  2.7778305e-06  1.3406647e+08
   4946000   3.0581308e-10  133718.18      133305.47      272194.47      3.2956503e-06  5.1809921e-07  2.7775511e-06  1.3406096e+08
   4947000   3.0587491e-10  133736.09      133321.79      272744.8       3.295657e-06   5.1773399e-07  2.7779231e-06  1.3406907e+08
   4948000   3.0593674e-10  133726.99      133312.17      272909.95      3.2956555e-06  5.1792155e-07  2.777734e-06   1.3406561e+08
   4949000   3.0599857e-10  133721.06      133305.1       273283.94      3.2956647e-06  5.1805399e-07  2.7776108e-06  1.3406365e+08
   4950000   3.060604e-10   133725.42      133309.2       273373.63      3.2956644e-06  5.1796306e-07  2.7777013e-06  1.3406512e+08
   4951000   3.0612223e-10  133709.53      133294.07      273103.47      3.2956672e-06  5.1829601e-07  2.7773712e-06  1.3406027e+08
   4952000   3.0618406e-10  133710.9       133297.21      272516.1       3.2956491e-06  5.182493e-07   2.7773998e-06  1.3405884e+08
   4953000   3.0624589e-10  133741.42      133327.63      272578.62      3.2956443e-06  5.1761057e-07  2.7780337e-06  1.3406786e+08
   4954000   3.0630772e-10  133751.91      133336.86      273013.49      3.2956382e-06  5.1738643e-07  2.7782517e-06  1.3406877e+08
   4955000   3.0636955e-10  133735.59      133320         273173.53      3.2956416e-06  5.1772911e-07  2.7779125e-06  1.3406229e+08
   4956000   3.0643138e-10  133738.63      133323.26      273104.66      3.2956386e-06  5.1766273e-07  2.7779759e-06  1.3406558e+08
   4957000   3.0649321e-10  133721.06      133306.64      272769.39      3.2956504e-06  5.1803954e-07  2.7776108e-06  1.3406216e+08
   4958000   3.0655504e-10  133721.36      133307.64      272534.8       3.2956367e-06  5.1801963e-07  2.7776171e-06  1.340628e+08 
   4959000   3.0661687e-10  133714.59      133301.97      272163.44      3.295653e-06   5.181765e-07   2.7774765e-06  1.3406167e+08
   4960000   3.066787e-10   133712.56      133302.48      271308.26      3.2956391e-06  5.1820475e-07  2.7774343e-06  1.3405928e+08
   4961000   3.0674054e-10  133722.63      133311.99      271507.55      3.2956474e-06  5.1800385e-07  2.7776435e-06  1.3406329e+08
   4962000   3.0680237e-10  133717.61      133306.18      271766.63      3.2956471e-06  5.1810794e-07  2.7775392e-06  1.3406147e+08
   4963000   3.068642e-10   133709.73      133298.03      271850.34      3.2956402e-06  5.1826463e-07  2.7773756e-06  1.3405759e+08
   4964000   3.0692603e-10  133730.73      133318.5       272047.39      3.2956222e-06  5.1781057e-07  2.7778117e-06  1.3406444e+08
   4965000   3.0698786e-10  133711         133300.26      271529.29      3.2956227e-06  5.1822074e-07  2.7774019e-06  1.3405796e+08
   4966000   3.0704969e-10  133705.81      133296.34      271099.88      3.2956411e-06  5.1834697e-07  2.7772941e-06  1.3405922e+08
   4967000   3.0711152e-10  133695.96      133287.11      270880.48      3.2956485e-06  5.1855901e-07  2.7770895e-06  1.3405644e+08
   4968000   3.0717335e-10  133707.17      133299.64      270449.34      3.2956486e-06  5.183263e-07   2.7773223e-06  1.3406011e+08
   4969000   3.0723518e-10  133702.24      133296.63      269802.86      3.2956467e-06  5.1842676e-07  2.7772199e-06  1.3405685e+08
   4970000   3.0729701e-10  133745.38      133340.74      269522.78      3.2956394e-06  5.1752347e-07  2.778116e-06   1.3407074e+08
   4971000   3.0735884e-10  133747.7       133343.35      269425.53      3.2956343e-06  5.1747019e-07  2.7781641e-06  1.3406937e+08
   4972000   3.0742067e-10  133738.95      133333.4       269819.93      3.2956241e-06  5.1764166e-07  2.7779824e-06  1.3406386e+08
   4973000   3.074825e-10   133737.84      133332.08      269888.02      3.2956257e-06  5.1766636e-07  2.7779593e-06  1.3406306e+08
   4974000   3.0754433e-10  133729.98      133323.82      270014.6       3.2956302e-06  5.1783412e-07  2.7777961e-06  1.3406081e+08
   4975000   3.0760616e-10  133731.73      133324.89      270243.37      3.2956344e-06  5.1780195e-07  2.7778325e-06  1.3406272e+08
   4976000   3.0766799e-10  133716.49      133309.43      270303.12      3.2956255e-06  5.1810958e-07  2.777516e-06   1.3405718e+08
   4977000   3.0772982e-10  133727.97      133319.57      270763.34      3.2956325e-06  5.1787813e-07  2.7777544e-06  1.3406386e+08
   4978000   3.0779165e-10  133709.71      133301.45      270696.13      3.2956315e-06  5.1825641e-07  2.7773751e-06  1.3405831e+08
   4979000   3.0785348e-10  133714.02      133305.4       270822.83      3.2956317e-06  5.1816717e-07  2.7774646e-06  1.3406104e+08
   4980000   3.0791531e-10  133713.5       133304.96      270793.44      3.2956309e-06  5.1817714e-07  2.7774538e-06  1.3406045e+08
   4981000   3.0797714e-10  133710.72      133301.53      271008.92      3.2956472e-06  5.1825126e-07  2.777396e-06   1.3406064e+08
   4982000   3.0803897e-10  133719.74      133311.16      270814.68      3.295665e-06   5.1808168e-07  2.7775834e-06  1.3406621e+08
   4983000   3.081008e-10   133707.42      133298.55      270897.2       3.2956548e-06  5.1832735e-07  2.7773274e-06  1.3406022e+08
   4984000   3.0816263e-10  133712.01      133303.09      270920.74      3.2956474e-06  5.1822459e-07  2.7774228e-06  1.3406161e+08
   4985000   3.0822446e-10  133696.24      133285.23      271601.62      3.295651e-06   5.1855578e-07  2.7770952e-06  1.3405612e+08
   4986000   3.0828629e-10  133711.43      133300.72      271518.34      3.295655e-06   5.1824423e-07  2.7774108e-06  1.3406215e+08
   4987000   3.0834813e-10  133721.67      133311.96      271194.06      3.2956613e-06  5.1803773e-07  2.7776235e-06  1.3406542e+08
   4988000   3.0840996e-10  133718.84      133310.23      270821.59      3.295653e-06   5.1808831e-07  2.7775647e-06  1.3406304e+08
   4989000   3.0847179e-10  133718.2       133308.23      271277.4       3.2956481e-06  5.1809675e-07  2.7775514e-06  1.3406223e+08
   4990000   3.0853362e-10  133727.38      133315.69      271863.83      3.2956414e-06  5.1789924e-07  2.7777421e-06  1.3406447e+08
   4991000   3.0859545e-10  133722.35      133309.21      272342.62      3.2956404e-06  5.1800283e-07  2.7776376e-06  1.3406311e+08
   4992000   3.0865728e-10  133710.5       133298.04      272103.11      3.2956365e-06  5.1824497e-07  2.7773915e-06  1.3405987e+08
   4993000   3.0871911e-10  133709.24      133297.49      271864.67      3.2956491e-06  5.1828375e-07  2.7773654e-06  1.3406161e+08
   4994000   3.0878094e-10  133704.27      133293.19      271635.21      3.2956424e-06  5.1838023e-07  2.7772621e-06  1.3406e+08   
   4995000   3.0884277e-10  133700.06      133288.68      271730.59      3.2956614e-06  5.1848687e-07  2.7771745e-06  1.3406019e+08
   4996000   3.089046e-10   133705.79      133294.84      271592.8       3.2956594e-06  5.1836571e-07  2.7772937e-06  1.3406101e+08
   4997000   3.0896643e-10  133720.62      133309.09      271801.54      3.2956513e-06  5.1804966e-07  2.7776016e-06  1.3406413e+08
   4998000   3.0902826e-10  133729.85      133317.36      272132.36      3.2956447e-06  5.1785129e-07  2.7777934e-06  1.340655e+08 
   4999000   3.0909009e-10  133726.92      133313.69      272376.74      3.2956397e-06  5.1790706e-07  2.7777326e-06  1.3406354e+08
   5000000   3.0915192e-10  133717.54      133303.27      272714.3       3.2956416e-06  5.1810389e-07  2.7775377e-06  1.3406056e+08
   5001000   3.0921375e-10  133733.91      133320.24      272529.47      3.2956533e-06  5.1777565e-07  2.7778777e-06  1.3406836e+08
   5002000   3.0927558e-10  133730.74      133317.27      272463.04      3.2956609e-06  5.1784889e-07  2.777812e-06   1.3406788e+08
   5003000   3.0933741e-10  133717.67      133304.21      272443.48      3.2956575e-06  5.1811714e-07  2.7775404e-06  1.3406331e+08
   5004000   3.0939924e-10  133719.6       133306.13      272450.37      3.2956493e-06  5.1806877e-07  2.7775805e-06  1.3406405e+08
   5005000   3.0946107e-10  133712.09      133297.05      272969.54      3.2956463e-06  5.1822173e-07  2.7774246e-06  1.3406102e+08
   5006000   3.095229e-10   133714.14      133299.17      272945.74      3.2956497e-06  5.1818256e-07  2.7774671e-06  1.3406167e+08
   5007000   3.0958473e-10  133716.33      133301.13      273022.67      3.2956442e-06  5.1813165e-07  2.7775125e-06  1.3406146e+08
   5008000   3.0964656e-10  133716.32      133303.79      272130.7       3.2956391e-06  5.1812674e-07  2.7775124e-06  1.3406041e+08
   5009000   3.0970839e-10  133735.68      133325.71      271297.04      3.295645e-06   5.1773051e-07  2.7779145e-06  1.3406813e+08
   5010000   3.0977022e-10  133711.39      133301.8       271144.43      3.2956458e-06  5.1823572e-07  2.7774101e-06  1.3405813e+08
   5011000   3.0983205e-10  133707.36      133298.39      270932.25      3.2956477e-06  5.1832149e-07  2.7773262e-06  1.3405625e+08
   5012000   3.0989388e-10  133715.35      133305.89      271102.81      3.2956486e-06  5.181565e-07   2.7774921e-06  1.3405857e+08
   5013000   3.0995572e-10  133736.99      133329.12      270594.38      3.295645e-06   5.1770331e-07  2.7779417e-06  1.3406569e+08
   5014000   3.1001755e-10  133732.33      133325.6       270209.04      3.2956459e-06  5.1780096e-07  2.7778449e-06  1.3406307e+08
   5015000   3.1007938e-10  133734.68      133328.56      270004.37      3.2956637e-06  5.1777004e-07  2.7778937e-06  1.3406656e+08
   5016000   3.1014121e-10  133713.33      133305.89      270426.55      3.295671e-06   5.1822071e-07  2.7774503e-06  1.3406025e+08
   5017000   3.1020304e-10  133715.52      133305.92      271150.5       3.2956542e-06  5.1815852e-07  2.7774957e-06  1.3406101e+08
   5018000   3.1026487e-10  133716.42      133304.48      271935.22      3.2956467e-06  5.1813221e-07  2.7775145e-06  1.340612e+08 
   5019000   3.103267e-10   133727.97      133313.55      272775.84      3.2956424e-06  5.1788802e-07  2.7777544e-06  1.3406565e+08
   5020000   3.1038853e-10  133722.66      133308.28      272755.76      3.2956458e-06  5.1800183e-07  2.777644e-06   1.3406426e+08
   5021000   3.1045036e-10  133713.1       133299.12      272613.25      3.2956428e-06  5.1819732e-07  2.7774455e-06  1.3406069e+08
   5022000   3.1051219e-10  133712.59      133298.62      272612.73      3.2956552e-06  5.1822028e-07  2.777435e-06   1.3406127e+08
   5023000   3.1057402e-10  133727.92      133314.69      272380.36      3.2956651e-06  5.1791173e-07  2.7777534e-06  1.3406695e+08
   5024000   3.1063585e-10  133728.63      133314.01      272843.95      3.2956709e-06  5.1790276e-07  2.7777681e-06  1.3406614e+08
   5025000   3.1069768e-10  133729.52      133311.96      273826.41      3.2956749e-06  5.1788836e-07  2.7777865e-06  1.340658e+08 
   5026000   3.1075951e-10  133752.13      133333.69      274145.57      3.2956628e-06  5.1740659e-07  2.7782562e-06  1.3407282e+08
   5027000   3.1082134e-10  133754.67      133334.74      274643.04      3.2956618e-06  5.1735294e-07  2.7783089e-06  1.3407347e+08
   5028000   3.1088317e-10  133734.71      133314.5       274721.63      3.2956531e-06  5.1775865e-07  2.7778944e-06  1.3406583e+08
   5029000   3.10945e-10    133728.91      133307.95      274964.14      3.2956458e-06  5.1787191e-07  2.7777739e-06  1.340644e+08 
   5030000   3.1100683e-10  133714.38      133293.26      275003.58      3.2956542e-06  5.1818211e-07  2.7774721e-06  1.3405994e+08
   5031000   3.1106866e-10  133718.94      133297.85      274997.85      3.2956428e-06  5.1807608e-07  2.7775667e-06  1.3406083e+08
   5032000   3.1113049e-10  133722.37      133304.12      274049.31      3.2956432e-06  5.1800523e-07  2.777638e-06   1.3406276e+08
   5033000   3.1119232e-10  133730.78      133312.56      274051.03      3.2956462e-06  5.1783334e-07  2.7778128e-06  1.3406648e+08
   5034000   3.1125415e-10  133724.32      133307.08      273712.99      3.29565e-06    5.1797155e-07  2.7776785e-06  1.3406518e+08
   5035000   3.1131598e-10  133713.94      133295.99      273939.92      3.2956484e-06  5.181855e-07   2.7774629e-06  1.3406165e+08
   5036000   3.1137781e-10  133717.72      133300.89      273572.28      3.2956398e-06  5.1809836e-07  2.7775414e-06  1.3406166e+08
   5037000   3.1143964e-10  133719.23      133304         273036.17      3.295647e-06   5.1807429e-07  2.7775727e-06  1.3406148e+08
   5038000   3.1150147e-10  133718.78      133303.14      273174.22      3.295641e-06   5.1807745e-07  2.7775635e-06  1.3406096e+08
   5039000   3.1156331e-10  133715.12      133300.24      272917.27      3.2956374e-06  5.1814986e-07  2.7774875e-06  1.3406022e+08
   5040000   3.1162514e-10  133720.18      133305.91      272717.43      3.2956407e-06  5.180482e-07   2.7775925e-06  1.3406302e+08
   5041000   3.1168697e-10  133712.68      133298.18      272787.92      3.2956456e-06  5.1820886e-07  2.7774367e-06  1.3406024e+08
   5042000   3.117488e-10   133715.73      133300.3       273101.08      3.2956464e-06  5.181463e-07   2.7775001e-06  1.3406112e+08
   5043000   3.1181063e-10  133710.73      133294.64      273318.55      3.2956445e-06  5.1824822e-07  2.7773963e-06  1.3405996e+08
   5044000   3.1187246e-10  133705.56      133290.25      273052.64      3.2956532e-06  5.1836423e-07  2.7772889e-06  1.340592e+08 
   5045000   3.1193429e-10  133713.98      133297.54      273437.8       3.2956442e-06  5.1818038e-07  2.7774638e-06  1.3406184e+08
   5046000   3.1199612e-10  133713.34      133295.97      273748.06      3.2956549e-06  5.1820437e-07  2.7774505e-06  1.3406181e+08
   5047000   3.1205795e-10  133723.06      133303.63      274443.61      3.2956712e-06  5.1801892e-07  2.7776523e-06  1.34066e+08  
   5048000   3.1211978e-10  133727.96      133309.97      273967.97      3.2956659e-06  5.1791178e-07  2.7777541e-06  1.3406736e+08
   5049000   3.1218161e-10  133722.5       133305.96      273479.27      3.2956643e-06  5.1802345e-07  2.7776408e-06  1.3406559e+08
   5050000   3.1224344e-10  133736.47      133319.24      273721.77      3.2956613e-06  5.1773046e-07  2.7779309e-06  1.3407069e+08
   5051000   3.1230527e-10  133720.63      133303.74      273594.47      3.2956486e-06  5.1804663e-07  2.777602e-06   1.3406289e+08
   5052000   3.123671e-10   133727.27      133310.55      273545.49      3.2956477e-06  5.1790794e-07  2.7777398e-06  1.3406458e+08
   5053000   3.1242893e-10  133733.85      133319.01      272922.15      3.2956527e-06  5.1777624e-07  2.7778764e-06  1.3406686e+08
   5054000   3.1249076e-10  133742.71      133328.51      272719.34      3.2956582e-06  5.1759761e-07  2.7780606e-06  1.3407058e+08
   5055000   3.1255259e-10  133716.72      133304.55      272012.13      3.2956452e-06  5.181246e-07   2.7775206e-06  1.3406005e+08
   5056000   3.1261442e-10  133701.85      133290.74      271641.01      3.2956438e-06  5.1843213e-07  2.7772117e-06  1.340552e+08 
   5057000   3.1267625e-10  133700.45      133290.36      271299.98      3.2956497e-06  5.18467e-07    2.7771827e-06  1.3405644e+08
   5058000   3.1273808e-10  133712.2       133301.48      271522.32      3.2956426e-06  5.1821584e-07  2.7774268e-06  1.3406021e+08
   5059000   3.1279991e-10  133714.09      133302.89      271683.24      3.2956368e-06  5.1817083e-07  2.777466e-06   1.3405851e+08
   5060000   3.1286174e-10  133721.86      133309         272249.06      3.2956479e-06  5.1802046e-07  2.7776275e-06  1.3406022e+08
   5061000   3.1292357e-10  133747.32      133334.09      272397.86      3.2956443e-06  5.1748806e-07  2.7781563e-06  1.3406924e+08
   5062000   3.129854e-10   133733.06      133319.6       272457.67      3.2956459e-06  5.1778592e-07  2.77786e-06    1.3406472e+08
   5063000   3.1304723e-10  133723.44      133312.19      271712.09      3.2956579e-06  5.1799768e-07  2.7776602e-06  1.3406411e+08
   5064000   3.1310906e-10  133708.49      133298.42      271299.25      3.2956562e-06  5.1830649e-07  2.7773497e-06  1.3405949e+08
   5065000   3.131709e-10   133706.83      133297.69      270986.08      3.2956527e-06  5.1833751e-07  2.7773152e-06  1.3405888e+08
   5066000   3.1323273e-10  133718.74      133309.69      270972.63      3.2956616e-06  5.1809895e-07  2.7775627e-06  1.3406418e+08
   5067000   3.1329456e-10  133714.71      133306.58      270658.22      3.2956559e-06  5.1817706e-07  2.7774789e-06  1.3406177e+08
   5068000   3.1335639e-10  133706.47      133297.46      270942.93      3.2956499e-06  5.1834219e-07  2.7773077e-06  1.3405749e+08
   5069000   3.1341822e-10  133730.13      133319.18      271617.05      3.2956394e-06  5.1784018e-07  2.7777992e-06  1.3406464e+08
   5070000   3.1348005e-10  133742.28      133330.86      271786.63      3.2956368e-06  5.1758516e-07  2.7780516e-06  1.3406799e+08
   5071000   3.1354188e-10  133727.39      133315.09      272068.23      3.2956388e-06  5.1789643e-07  2.7777424e-06  1.3406278e+08
   5072000   3.1360371e-10  133714.51      133300.92      272485.19      3.2956379e-06  5.1816302e-07  2.7774748e-06  1.3405875e+08
   5073000   3.1366554e-10  133722.45      133307.87      272822.71      3.2956414e-06  5.1800167e-07  2.7776397e-06  1.340633e+08 
   5074000   3.1372737e-10  133731.42      133317.5       272610.14      3.2956551e-06  5.1782911e-07  2.777826e-06   1.3406872e+08
   5075000   3.137892e-10   133728.86      133313.54      273077.35      3.2956594e-06  5.1788664e-07  2.7777728e-06  1.3406796e+08
   5076000   3.1385103e-10  133730.79      133314.91      273267.06      3.2956539e-06  5.1784099e-07  2.777813e-06   1.3406782e+08
   5077000   3.1391286e-10  133720.39      133304.14      273380.37      3.2956417e-06  5.1804482e-07  2.7775969e-06  1.3406251e+08
   5078000   3.1397469e-10  133721.75      133306.56      273026.47      3.2956557e-06  5.1803058e-07  2.7776251e-06  1.3406448e+08
   5079000   3.1403652e-10  133731.97      133317.29      272864.68      3.2956636e-06  5.178262e-07   2.7778374e-06  1.3406865e+08
   5080000   3.1409835e-10  133709.72      133294.54      273011.2       3.2956512e-06  5.1827596e-07  2.7773752e-06  1.3405893e+08
   5081000   3.1416018e-10  133712.8       133299.37      272430.31      3.2956579e-06  5.1821857e-07  2.7774393e-06  1.3406102e+08
   5082000   3.1422201e-10  133713.76      133301.79      271940.7       3.2956558e-06  5.1819663e-07  2.7774591e-06  1.3406159e+08
   5083000   3.1428384e-10  133714.07      133305.06      270950.13      3.2956493e-06  5.1818379e-07  2.7774655e-06  1.3406131e+08
   5084000   3.1434567e-10  133721.91      133316.15      269872.84      3.2956497e-06  5.1802127e-07  2.7776285e-06  1.3406364e+08
   5085000   3.144075e-10   133736.9       133331.51      269764.16      3.2956538e-06  5.1771404e-07  2.7779398e-06  1.3406838e+08
   5086000   3.1446933e-10  133732.92      133329.64      269053.28      3.2956541e-06  5.17797e-07    2.7778571e-06  1.3406554e+08
   5087000   3.1453116e-10  133733.69      133332.35      268404.59      3.2956607e-06  5.1778759e-07  2.7778731e-06  1.3406563e+08
   5088000   3.1459299e-10  133725.89      133325.89      267949.7       3.2956575e-06  5.1794641e-07  2.7777111e-06  1.3406268e+08
   5089000   3.1465482e-10  133727.13      133326.96      268009.86      3.2956605e-06  5.1792359e-07  2.7777369e-06  1.3406547e+08
   5090000   3.1471665e-10  133714.08      133313.57      268111.5       3.2956502e-06  5.1818426e-07  2.7774659e-06  1.3406179e+08
   5091000   3.1477848e-10  133713.71      133313.44      268029.13      3.2956472e-06  5.18189e-07    2.7774582e-06  1.3406213e+08
   5092000   3.1484032e-10  133723.35      133323.25      267980.17      3.2956398e-06  5.1798155e-07  2.7776583e-06  1.3406463e+08
   5093000   3.1490215e-10  133722.83      133323.31      267789.14      3.2956423e-06  5.1799463e-07  2.7776476e-06  1.3406344e+08
   5094000   3.1496398e-10  133716.67      133317.25      267748.08      3.2956423e-06  5.1812276e-07  2.7775196e-06  1.3406063e+08
   5095000   3.1502581e-10  133725.47      133326.09      267743.9       3.2956431e-06  5.1794069e-07  2.7777024e-06  1.3406514e+08
   5096000   3.1508764e-10  133719.12      133318.51      268146.25      3.2956597e-06  5.180892e-07   2.7775705e-06  1.340652e+08 
   5097000   3.1514947e-10  133719.06      133318.46      268145.09      3.2956584e-06  5.180892e-07   2.7775692e-06  1.3406513e+08
   5098000   3.152113e-10   133727.89      133326.57      268395.82      3.2956734e-06  5.179206e-07   2.7777528e-06  1.3406867e+08
   5099000   3.1527313e-10  133724.71      133322.06      268838.03      3.295668e-06   5.179813e-07   2.7776867e-06  1.3406586e+08
   5100000   3.1533496e-10  133732.12      133330.61      268463.81      3.2956723e-06  5.178317e-07   2.7778406e-06  1.340693e+08 
   5101000   3.1539679e-10  133719.79      133319.07      268185.43      3.2956758e-06  5.1809132e-07  2.7775845e-06  1.3406621e+08
   5102000   3.1545862e-10  133721.27      133322.55      267519.24      3.295678e-06   5.1806282e-07  2.7776152e-06  1.3406773e+08
   5103000   3.1552045e-10  133709.58      133313.2       266723.88      3.2956694e-06  5.1829694e-07  2.7773725e-06  1.3406293e+08
   5104000   3.1558228e-10  133720.1       133324.69      266412.74      3.2956632e-06  5.1807218e-07  2.777591e-06   1.3406681e+08
   5105000   3.1564411e-10  133720.7       133325.84      266226.09      3.2956743e-06  5.1807095e-07  2.7776034e-06  1.3406821e+08
   5106000   3.1570594e-10  133723.28      133328.5       266201.53      3.295692e-06   5.1803507e-07  2.7776569e-06  1.3407123e+08
   5107000   3.1576777e-10  133715.29      133320.82      266092.13      3.2956861e-06  5.1819507e-07  2.777491e-06   1.3406804e+08
   5108000   3.158296e-10   133697.21      133302.44      266174.89      3.2956622e-06  5.1854677e-07  2.7771154e-06  1.3405871e+08
   5109000   3.1589143e-10  133710.1       133315.88      266004.5       3.2956667e-06  5.1828344e-07  2.7773832e-06  1.3406445e+08
   5110000   3.1595326e-10  133706.39      133313.53      265543.58      3.2956739e-06  5.1836776e-07  2.7773061e-06  1.3406411e+08
   5111000   3.1601509e-10  133701.56      133310.2       265035.97      3.2956667e-06  5.184609e-07   2.7772058e-06  1.3406191e+08
   5112000   3.1607692e-10  133702.89      133313.74      264299.49      3.2956618e-06  5.1842852e-07  2.7772333e-06  1.3406161e+08
   5113000   3.1613875e-10  133703.9       133314.42      264410.93      3.2956553e-06  5.1840102e-07  2.7772543e-06  1.3406072e+08
   5114000   3.1620058e-10  133715.64      133325.25      264726.24      3.2956595e-06  5.181612e-07   2.7774983e-06  1.340644e+08 
   5115000   3.1626241e-10  133721.19      133331.36      264546.02      3.2956608e-06  5.1804727e-07  2.7776135e-06  1.3406576e+08
   5116000   3.1632424e-10  133717.78      133328.08      264499.23      3.2956529e-06  5.1811018e-07  2.7775427e-06  1.3406424e+08
   5117000   3.1638607e-10  133713.1       133322.33      264850.98      3.2956421e-06  5.1819658e-07  2.7774455e-06  1.3406189e+08
   5118000   3.1644791e-10  133709.49      133316.49      265594.2       3.2956438e-06  5.1827325e-07  2.7773705e-06  1.3405999e+08
   5119000   3.1650974e-10  133710.43      133317.15      265687.38      3.2956625e-06  5.1827245e-07  2.7773901e-06  1.3405963e+08
   5120000   3.1657157e-10  133735.44      133342.03      265758.13      3.2956725e-06  5.1776302e-07  2.7779095e-06  1.3406769e+08
   5121000   3.166334e-10   133749.23      133354.5       266214.19      3.2956572e-06  5.1746113e-07  2.7781961e-06  1.3407188e+08
   5122000   3.1669523e-10  133730.67      133336.18      266115.8       3.2956515e-06  5.1784095e-07  2.7778105e-06  1.3406516e+08
   5123000   3.1675706e-10  133744.38      133349.13      266382.94      3.2956435e-06  5.175482e-07   2.7780953e-06  1.3407073e+08
   5124000   3.1681889e-10  133733.06      133337.79      266378.75      3.2956524e-06  5.1779226e-07  2.7778602e-06  1.3406751e+08
   5125000   3.1688072e-10  133737.14      133342.73      266092.15      3.2956728e-06  5.1772797e-07  2.7779448e-06  1.340709e+08 
   5126000   3.1694255e-10  133725.23      133331.94      265706.36      3.2956679e-06  5.1797038e-07  2.7776975e-06  1.3406665e+08
   5127000   3.1700438e-10  133719.7       133327.1       265471.93      3.2956583e-06  5.1807563e-07  2.7775826e-06  1.3406399e+08
   5128000   3.1706621e-10  133724.15      133332.34      265211.39      3.295656e-06   5.1798089e-07  2.7776751e-06  1.3406423e+08
   5129000   3.1712804e-10  133725.79      133332.91      265569.89      3.2956432e-06  5.1793408e-07  2.7777091e-06  1.3406264e+08
   5130000   3.1718987e-10  133722         133328.48      265779.43      3.295651e-06   5.1802072e-07  2.7776303e-06  1.3406179e+08
   5131000   3.172517e-10   133732.48      133338.84      265830.12      3.2956543e-06  5.1780623e-07  2.777848e-06   1.3406721e+08
   5132000   3.1731353e-10  133721.62      133328.62      265605.16      3.295666e-06   5.1804364e-07  2.7776224e-06  1.3406524e+08
   5133000   3.1737536e-10  133717.58      133324.23      265715.79      3.2956551e-06  5.1811662e-07  2.7775384e-06  1.3406338e+08
   5134000   3.1743719e-10  133736.25      133343.71      265466.74      3.2956511e-06  5.1772464e-07  2.7779264e-06  1.3407011e+08
   5135000   3.1749902e-10  133731.4       133339.3       265313.57      3.295648e-06   5.1782245e-07  2.7778256e-06  1.3406733e+08
   5136000   3.1756085e-10  133717.35      133325.88      265091.14      3.2956392e-06  5.1810537e-07  2.7775338e-06  1.3406082e+08
   5137000   3.1762268e-10  133720.24      133330.99      264352.32      3.2956519e-06  5.1805807e-07  2.7775938e-06  1.3406184e+08
   5138000   3.1768451e-10  133722.82      133333.77      264285.6       3.2956522e-06  5.1800477e-07  2.7776474e-06  1.3406217e+08
   5139000   3.1774634e-10  133725.31      133336.09      264345.44      3.2956543e-06  5.1795517e-07  2.7776991e-06  1.3406355e+08
   5140000   3.1780817e-10  133731.1       133341.54      264463.11      3.2956372e-06  5.1781788e-07  2.7778194e-06  1.3406543e+08
   5141000   3.1787e-10     133715.78      133326.76      264267         3.2956445e-06  5.1814339e-07  2.7775011e-06  1.3406022e+08
   5142000   3.1793183e-10  133737.4       133349         264080.9       3.2956412e-06  5.1769098e-07  2.7779502e-06  1.3406772e+08
   5143000   3.1799366e-10  133732.8       133345.26      263793.09      3.2956463e-06  5.1779155e-07  2.7778547e-06  1.3406562e+08
   5144000   3.180555e-10   133755.91      133369.08      263577.85      3.2956417e-06  5.1730698e-07  2.7783347e-06  1.3407412e+08
   5145000   3.1811733e-10  133741.42      133356.09      263061.08      3.2956411e-06  5.1760739e-07  2.7780337e-06  1.3406892e+08
   5146000   3.1817916e-10  133731.14      133345.91      263018.24      3.2956499e-06  5.1782967e-07  2.7778203e-06  1.3406615e+08
   5147000   3.1824099e-10  133723.46      133337.46      263266.77      3.2956358e-06  5.1797513e-07  2.7776607e-06  1.3406224e+08
   5148000   3.1830282e-10  133731.38      133344.87      263443.65      3.2956431e-06  5.1781797e-07  2.7778251e-06  1.3406579e+08
   5149000   3.1836465e-10  133723.13      133336.45      263495.41      3.2956438e-06  5.1798994e-07  2.7776539e-06  1.3406307e+08
   5150000   3.1842648e-10  133711.4       133325.35      263272.52      3.2956517e-06  5.1824151e-07  2.7774102e-06  1.3406015e+08
   5151000   3.1848831e-10  133725.96      133341.07      262896         3.2956366e-06  5.1792406e-07  2.7777125e-06  1.3406418e+08
   5152000   3.1855014e-10  133718.23      133334.12      262630.11      3.295648e-06   5.1809598e-07  2.777552e-06   1.3406122e+08
   5153000   3.1861197e-10  133732.49      133349.76      262181.21      3.2956338e-06  5.177856e-07   2.7778482e-06  1.3406493e+08
   5154000   3.186738e-10   133720.92      133339.72      261661.06      3.2956253e-06  5.1801725e-07  2.777608e-06   1.3405876e+08
   5155000   3.1873563e-10  133727.74      133346.91      261541.8       3.2956202e-06  5.1787062e-07  2.7777496e-06  1.3405985e+08
   5156000   3.1879746e-10  133737.36      133356.44      261582.33      3.2956267e-06  5.1767724e-07  2.7779494e-06  1.3406367e+08
   5157000   3.1885929e-10  133712.04      133329.01      262263.33      3.2956355e-06  5.1821193e-07  2.7774236e-06  1.3405457e+08
   5158000   3.1892112e-10  133724.32      133341.38      262243.86      3.2956385e-06  5.1795999e-07  2.7776786e-06  1.3406048e+08
   5159000   3.1898295e-10  133744.99      133362.68      262055.46      3.2956488e-06  5.1754084e-07  2.7781079e-06  1.3407e+08   
   5160000   3.1904478e-10  133727.86      133345.18      262159.49      3.2956361e-06  5.178841e-07   2.777752e-06   1.3406295e+08
   5161000   3.1910661e-10  133717.05      133333.58      262415.48      3.2956397e-06  5.1811211e-07  2.7775276e-06  1.3405951e+08
   5162000   3.1916844e-10  133726.13      133342.56      262456.81      3.2956404e-06  5.1792424e-07  2.7777161e-06  1.340635e+08 
   5163000   3.1923027e-10  133721.52      133338.14      262389.47      3.2956413e-06  5.1802091e-07  2.7776204e-06  1.3406081e+08
   5164000   3.192921e-10   133730.28      133348.12      261989.33      3.2956453e-06  5.1784286e-07  2.7778024e-06  1.3406377e+08
   5165000   3.1935393e-10  133716.39      133334         262048.62      3.2956472e-06  5.1813347e-07  2.7775137e-06  1.3405771e+08
   5166000   3.1941576e-10  133738.89      133357.15      261856.72      3.295637e-06   5.1765585e-07  2.7779812e-06  1.3406503e+08
   5167000   3.1947759e-10  133747.21      133364.93      262045.53      3.2956459e-06  5.1749186e-07  2.778154e-06   1.3406811e+08
   5168000   3.1953942e-10  133743.36      133359.76      262485.56      3.2956366e-06  5.1756248e-07  2.7780741e-06  1.3406654e+08
   5169000   3.1960125e-10  133729.84      133343.48      263394.19      3.2956186e-06  5.1782533e-07  2.7777933e-06  1.3406108e+08
   5170000   3.1966309e-10  133724.94      133339.43      263104.87      3.2956267e-06  5.1793534e-07  2.7776914e-06  1.3406026e+08
   5171000   3.1972492e-10  133738.3       133351.29      263621.48      3.295628e-06   5.1765901e-07  2.777969e-06   1.340656e+08 
   5172000   3.1978675e-10  133736.3       133348.98      263720.74      3.2956305e-06  5.1770305e-07  2.7779275e-06  1.3406503e+08
   5173000   3.1984858e-10  133725.83      133338.57      263691.68      3.2956345e-06  5.1792458e-07  2.77771e-06    1.3406226e+08
   5174000   3.1991041e-10  133720.5       133332.99      263768.74      3.2956382e-06  5.1803903e-07  2.7775991e-06  1.340599e+08 
   5175000   3.1997224e-10  133731.31      133345.05      263360.04      3.2956495e-06  5.1782582e-07  2.7778236e-06  1.3406493e+08
   5176000   3.2003407e-10  133718.3       133333.52      262850.2       3.295634e-06   5.1808065e-07  2.7775534e-06  1.3405999e+08
   5177000   3.200959e-10   133719.31      133334.46      262876.9       3.2956405e-06  5.1806603e-07  2.7775744e-06  1.340619e+08 
   5178000   3.2015773e-10  133733.68      133348.1       263134.65      3.2956457e-06  5.1777275e-07  2.7778729e-06  1.340677e+08 
   5179000   3.2021956e-10  133717.91      133331.54      263384.56      3.2956354e-06  5.1808997e-07  2.7775454e-06  1.3406042e+08
   5180000   3.2028139e-10  133714.98      133329.1       263216.11      3.295638e-06   5.1815356e-07  2.7774844e-06  1.3405894e+08
   5181000   3.2034322e-10  133727.76      133342.8       262923.36      3.2956364e-06  5.1788634e-07  2.77775e-06    1.3406335e+08
   5182000   3.2040505e-10  133736.07      133350.74      263055.2       3.295637e-06   5.1771445e-07  2.7779225e-06  1.3406619e+08
   5183000   3.2046688e-10  133734.26      133348.32      263256.99      3.2956145e-06  5.177295e-07   2.777885e-06   1.3406321e+08
   5184000   3.2052871e-10  133731.1       133345.78      263048.14      3.2956403e-06  5.1782086e-07  2.7778194e-06  1.3406351e+08
   5185000   3.2059054e-10  133729.73      133345.2       262782.2       3.2956313e-06  5.1784037e-07  2.777791e-06   1.3406227e+08
   5186000   3.2065237e-10  133731.64      133348.32      262380.27      3.2956368e-06  5.1780616e-07  2.7778306e-06  1.3406338e+08
   5187000   3.207142e-10   133737.98      133354.67      262380.63      3.295644e-06   5.1768173e-07  2.7779623e-06  1.3406575e+08
   5188000   3.2077603e-10  133741.52      133360         261787.87      3.2956526e-06  5.1761678e-07  2.7780359e-06  1.3406757e+08
   5189000   3.2083786e-10  133732.99      133353.2       261196.76      3.2956463e-06  5.1778778e-07  2.7778585e-06  1.3406441e+08
   5190000   3.2089969e-10  133727.06      133345.91      261648.45      3.2956314e-06  5.1789596e-07  2.7777355e-06  1.3406122e+08
   5191000   3.2096152e-10  133740.59      133358.15      262093.63      3.2956366e-06  5.1762002e-07  2.7780166e-06  1.3406705e+08
   5192000   3.2102335e-10  133719.23      133336.25      262252.54      3.2956254e-06  5.1805254e-07  2.7775728e-06  1.3405968e+08
   5193000   3.2108518e-10  133709.94      133328.84      261613.23      3.2956374e-06  5.182576e-07   2.7773798e-06  1.3405841e+08
   5194000   3.2114701e-10  133697.84      133316.81      261578.93      3.295644e-06   5.185155e-07   2.7771285e-06  1.3405435e+08
   5195000   3.2120884e-10  133709.47      133327.76      261819.86      3.2956679e-06  5.1829777e-07  2.7773702e-06  1.3406013e+08
   5196000   3.2127068e-10  133724.36      133343.94      261401.8       3.2956595e-06  5.1798012e-07  2.7776793e-06  1.3406486e+08
   5197000   3.2133251e-10  133710.53      133328.73      261848.78      3.2956606e-06  5.1826848e-07  2.7773921e-06  1.3405957e+08
   5198000   3.2139434e-10  133726.91      133343.71      262335.4       3.2956518e-06  5.1791945e-07  2.7777324e-06  1.3406513e+08
   5199000   3.2145617e-10  133719.4       133332.52      263557.71      3.2956377e-06  5.1806135e-07  2.7775764e-06  1.3406087e+08
   5200000   3.21518e-10    133710.67      133320.81      264546.51      3.2956242e-06  5.1822908e-07  2.7773951e-06  1.3405671e+08
   5201000   3.2157983e-10  133719.85      133328.91      264914.64      3.2956332e-06  5.1804753e-07  2.7775857e-06  1.3406091e+08
   5202000   3.2164166e-10  133706.03      133314         265265.6       3.2956282e-06  5.1832952e-07  2.7772987e-06  1.3405521e+08
   5203000   3.2170349e-10  133728.27      133336.8       265098.89      3.2956297e-06  5.1786911e-07  2.7777606e-06  1.3406395e+08
   5204000   3.2176532e-10  133722.33      133331.67      264823.69      3.29564e-06    5.1800279e-07  2.7776372e-06  1.3406226e+08
   5205000   3.2182715e-10  133727.94      133336.32      265149.26      3.2956236e-06  5.1786983e-07  2.7777537e-06  1.3406383e+08
   5206000   3.2188898e-10  133708.23      133315.32      265560.27      3.2956034e-06  5.1825917e-07  2.7773442e-06  1.3405463e+08
   5207000   3.2195081e-10  133724.36      133330.64      265848.08      3.2956064e-06  5.1792708e-07  2.7776793e-06  1.3406107e+08
   5208000   3.2201264e-10  133738.29      133345.97      265397.8       3.2956262e-06  5.1765735e-07  2.7779688e-06  1.340679e+08 
   5209000   3.2207447e-10  133710.14      133319.05      264954.46      3.2956424e-06  5.1825851e-07  2.7773839e-06  1.3405855e+08
   5210000   3.221363e-10   133706.12      133315         264962.4       3.295623e-06   5.1832247e-07  2.7773005e-06  1.3405513e+08
   5211000   3.2219813e-10  133731.44      133341.72      264517.26      3.295622e-06   5.1779556e-07  2.7778264e-06  1.3406342e+08
   5212000   3.2225996e-10  133717.61      133327.8       264534.53      3.2956355e-06  5.1809634e-07  2.7775391e-06  1.3405765e+08
   5213000   3.2232179e-10  133725.41      133335.63      264532.17      3.2956401e-06  5.1793894e-07  2.7777011e-06  1.3406117e+08
   5214000   3.2238362e-10  133727.33      133335.8       265122.3       3.2956274e-06  5.1788626e-07  2.7777411e-06  1.3406161e+08
   5215000   3.2244545e-10  133723.16      133330.34      265545.4       3.2956304e-06  5.1797602e-07  2.7776544e-06  1.3406085e+08
   5216000   3.2250728e-10  133726.85      133334.28      265468.77      3.2956322e-06  5.1790104e-07  2.7777312e-06  1.3406292e+08
   5217000   3.2256911e-10  133718.58      133325.92      265488.76      3.2956463e-06  5.1808696e-07  2.7775593e-06  1.3406091e+08
   5218000   3.2263094e-10  133710.96      133318.47      265426.26      3.2956402e-06  5.1823908e-07  2.7774011e-06  1.3405697e+08
   5219000   3.2269277e-10  133719.18      133327.28      265235.42      3.2956429e-06  5.1807117e-07  2.7775717e-06  1.340601e+08 
   5220000   3.227546e-10   133725.98      133333.71      265365.66      3.2956486e-06  5.1793559e-07  2.777713e-06   1.340627e+08 
   5221000   3.2281643e-10  133738.4       133346.59      265224.39      3.2956426e-06  5.1767169e-07  2.7779709e-06  1.3406713e+08
   5222000   3.2287827e-10  133733.82      133342.48      265064.44      3.295633e-06   5.1775709e-07  2.7778759e-06  1.3406533e+08
   5223000   3.229401e-10   133715.16      133323.59      265122.62      3.2956332e-06  5.1814489e-07  2.7774884e-06  1.3405879e+08
   5224000   3.2300193e-10  133719.07      133328.68      264729.11      3.295647e-06   5.1807756e-07  2.7775694e-06  1.3406201e+08
   5225000   3.2306376e-10  133706.15      133315.6       264772.06      3.2956543e-06  5.1835306e-07  2.7773012e-06  1.3405774e+08
   5226000   3.2312559e-10  133724.98      133334.03      264922.77      3.2956527e-06  5.1796051e-07  2.7776922e-06  1.3406546e+08
   5227000   3.2318742e-10  133708.8       133318         264860.07      3.2956543e-06  5.182981e-07   2.7773563e-06  1.3405942e+08
   5228000   3.2324925e-10  133712.59      133322.96      264469.69      3.2956556e-06  5.182207e-07   2.7774349e-06  1.3406072e+08
   5229000   3.2331108e-10  133715.76      133327.23      264106.19      3.2956533e-06  5.1815257e-07  2.7775008e-06  1.3406106e+08
   5230000   3.2337291e-10  133715.4       133329.02      263382.83      3.2956509e-06  5.1815773e-07  2.7774932e-06  1.3406063e+08
   5231000   3.2343474e-10  133723.07      133336.08      263594.97      3.2956618e-06  5.1800932e-07  2.7776525e-06  1.340648e+08 
   5232000   3.2349657e-10  133724.47      133337.74      263509.04      3.2956507e-06  5.1796911e-07  2.7776816e-06  1.3406402e+08
   5233000   3.235584e-10   133718.96      133332.92      263274.29      3.2956503e-06  5.1808315e-07  2.7775671e-06  1.3406132e+08
   5234000   3.2362023e-10  133722.62      133338.99      262473.08      3.2956468e-06  5.1800359e-07  2.7776432e-06  1.3406266e+08
   5235000   3.2368206e-10  133722.23      133338.89      262375.18      3.2956528e-06  5.1801763e-07  2.7776352e-06  1.3406321e+08
   5236000   3.2374389e-10  133717.43      133334.73      262158.9       3.2956479e-06  5.1811244e-07  2.7775355e-06  1.340609e+08 
   5237000   3.2380572e-10  133726.69      133343.37      262374.4       3.2956403e-06  5.1791256e-07  2.7777278e-06  1.3406326e+08
   5238000   3.2386755e-10  133721.2       133338.51      262154.26      3.2956331e-06  5.1801949e-07  2.7776137e-06  1.3406e+08   
   5239000   3.2392938e-10  133734.44      133350.09      262722.87      3.2956322e-06  5.1774355e-07  2.7778886e-06  1.3406394e+08
   5240000   3.2399121e-10  133730.45      133344.79      263157.22      3.2956404e-06  5.1783458e-07  2.7778058e-06  1.3406182e+08
   5241000   3.2405304e-10  133730.5       133342.93      263798.45      3.2956258e-06  5.1781897e-07  2.7778068e-06  1.340604e+08 
   5242000   3.2411487e-10  133725.31      133337.26      263951.61      3.2956368e-06  5.1793779e-07  2.777699e-06   1.3405958e+08
   5243000   3.241767e-10   133723.39      133335.46      263912.69      3.2956468e-06  5.1798756e-07  2.7776592e-06  1.3405949e+08
   5244000   3.2423853e-10  133725.2       133337.55      263819.36      3.2956553e-06  5.1795844e-07  2.7776969e-06  1.340618e+08 
   5245000   3.2430036e-10  133724.29      133337.57      263508.18      3.2956411e-06  5.1796318e-07  2.7776779e-06  1.3406175e+08
   5246000   3.2436219e-10  133717.85      133329.93      263903.63      3.2956455e-06  5.1810129e-07  2.7775442e-06  1.3406008e+08
   5247000   3.2442402e-10  133722.7       133334.75      263919.05      3.2956467e-06  5.1800185e-07  2.7776449e-06  1.3406246e+08
   5248000   3.2448586e-10  133711.68      133321.87      264527.53      3.2956509e-06  5.1823498e-07  2.777416e-06   1.3405945e+08
   5249000   3.2454769e-10  133722.51      133331.92      264802.06      3.2956308e-06  5.1798985e-07  2.777641e-06   1.3406391e+08
   5250000   3.2460952e-10  133694.94      133305.76      264302.54      3.2956174e-06  5.1854904e-07  2.7770683e-06  1.3405363e+08
   5251000   3.2467135e-10  133687.98      133298.15      264509.26      3.2956313e-06  5.1870769e-07  2.7769236e-06  1.3405125e+08
   5252000   3.2473318e-10  133707.35      133317.01      264700.58      3.2956377e-06  5.1831171e-07  2.777326e-06   1.3405743e+08
   5253000   3.2479501e-10  133721.62      133330.53      264967.35      3.2956405e-06  5.1801812e-07  2.7776224e-06  1.3406197e+08
   5254000   3.2485684e-10  133726.06      133334.62      265087.03      3.2956509e-06  5.1793628e-07  2.7777146e-06  1.3406458e+08
   5255000   3.2491867e-10  133715.49      133322.96      265442.1       3.2956466e-06  5.1815158e-07  2.777495e-06   1.3406036e+08
   5256000   3.249805e-10   133716.36      133323.42      265580.97      3.2956443e-06  5.1813115e-07  2.7775132e-06  1.3406088e+08
   5257000   3.2504233e-10  133710.48      133317.91      265448.25      3.295638e-06   5.1824708e-07  2.777391e-06   1.3405763e+08
   5258000   3.2510416e-10  133742.9       133350.02      265587.73      3.2956347e-06  5.1757014e-07  2.7780645e-06  1.3406864e+08
   5259000   3.2516599e-10  133739.87      133347.36      265459.59      3.2956407e-06  5.1763923e-07  2.7780015e-06  1.3406761e+08
   5260000   3.2522782e-10  133729.87      133337.59      265371.59      3.2956387e-06  5.1784499e-07  2.7777937e-06  1.3406458e+08
   5261000   3.2528965e-10  133723.83      133332.37      265094.76      3.295648e-06   5.1797949e-07  2.7776685e-06  1.3406275e+08
   5262000   3.2535148e-10  133741.06      133348.87      265353.68      3.2956375e-06  5.1761126e-07  2.7780262e-06  1.3406795e+08
   5263000   3.2541331e-10  133739.7       133346.83      265580.11      3.2956435e-06  5.1764553e-07  2.777998e-06   1.3406739e+08
   5264000   3.2547514e-10  133733.93      133340.84      265651.03      3.2956389e-06  5.1776061e-07  2.7778783e-06  1.3406438e+08
   5265000   3.2553697e-10  133741.86      133350.08      265217.12      3.2956397e-06  5.1759687e-07  2.7780428e-06  1.340669e+08 
   5266000   3.255988e-10   133737.59      133346.46      264997.32      3.2956298e-06  5.1767564e-07  2.7779542e-06  1.34064e+08  
   5267000   3.2566063e-10  133729.25      133337.22      265290.37      3.2956392e-06  5.1785816e-07  2.777781e-06   1.3406097e+08
   5268000   3.2572246e-10  133738.92      133346.49      265433.54      3.2956298e-06  5.1764799e-07  2.7779818e-06  1.3406407e+08
   5269000   3.2578429e-10  133719.04      133326.65      265398.56      3.295621e-06   5.1805208e-07  2.7775689e-06  1.3405684e+08
   5270000   3.2584612e-10  133705.66      133314.17      265084.35      3.2956292e-06  5.1833833e-07  2.7772908e-06  1.340543e+08 
   5271000   3.2590795e-10  133702.51      133310.31      265317.94      3.2956361e-06  5.1841059e-07  2.7772255e-06  1.3405455e+08
   5272000   3.2596978e-10  133700.54      133306.36      265981.31      3.2956228e-06  5.1843818e-07  2.7771846e-06  1.340528e+08 
   5273000   3.2603161e-10  133714.48      133319.44      266279.62      3.2956263e-06  5.1815216e-07  2.7774741e-06  1.3405748e+08
   5274000   3.2609345e-10  133725         133330.45      266129.47      3.2956372e-06  5.1794449e-07  2.7776927e-06  1.34062e+08  
   5275000   3.2615528e-10  133731.01      133335.8       266356.84      3.2956296e-06  5.1781196e-07  2.7778176e-06  1.3406363e+08
   5276000   3.2621711e-10  133727.05      133331.73      266385.16      3.2956396e-06  5.1790434e-07  2.7777352e-06  1.3406276e+08
   5277000   3.2627894e-10  133738.98      133343.35      266502.03      3.2956566e-06  5.1767363e-07  2.777983e-06   1.3406899e+08
   5278000   3.2634077e-10  133735.25      133339.89      266405.85      3.2956574e-06  5.1775191e-07  2.7779055e-06  1.3406739e+08
   5279000   3.264026e-10   133721.54      133326.23      266379.93      3.2956474e-06  5.1802657e-07  2.7776209e-06  1.34061e+08  
   5280000   3.2646443e-10  133738.74      133342.21      266803.81      3.2956272e-06  5.1764915e-07  2.7779781e-06  1.3406523e+08
   5281000   3.2652626e-10  133727.59      133330.31      267043.84      3.2956206e-06  5.178742e-07   2.7777464e-06  1.3405998e+08
   5282000   3.2658809e-10  133725.99      133327.79      267346.76      3.2956268e-06  5.1791361e-07  2.7777131e-06  1.3406005e+08
   5283000   3.2664992e-10  133723.99      133326.96      266956.83      3.2956125e-06  5.1794081e-07  2.7776716e-06  1.3405805e+08
   5284000   3.2671175e-10  133729.59      133332.14      267100.6       3.2956046e-06  5.178166e-07   2.777788e-06   1.340596e+08 
   5285000   3.2677358e-10  133743.24      133345.74      267134.18      3.2955991e-06  5.1752749e-07  2.7780716e-06  1.3406499e+08
   5286000   3.2683541e-10  133722.49      133325.1       267074.62      3.2955995e-06  5.179589e-07   2.7776406e-06  1.3405686e+08
   5287000   3.2689724e-10  133739.5       133341.5       267296.52      3.2956088e-06  5.1761498e-07  2.7779938e-06  1.3406401e+08
   5288000   3.2695907e-10  133718.83      133321.37      267093.64      3.2956147e-06  5.1805025e-07  2.7775645e-06  1.3405596e+08
   5289000   3.270209e-10   133728.5       133331.55      266936.4       3.2956314e-06  5.1786595e-07  2.7777654e-06  1.3406058e+08
   5290000   3.2708273e-10  133743.6       133346.98      266837.64      3.2956274e-06  5.1754832e-07  2.778079e-06   1.3406576e+08
   5291000   3.2714456e-10  133721.27      133325.32      266592.87      3.2956371e-06  5.1802196e-07  2.7776152e-06  1.3405892e+08
   5292000   3.2720639e-10  133717.88      133322.9       266264.28      3.2956523e-06  5.1810754e-07  2.7775448e-06  1.3406004e+08
   5293000   3.2726822e-10  133719.48      133323.78      266504.39      3.2956473e-06  5.1806931e-07  2.7775779e-06  1.3406132e+08
   5294000   3.2733005e-10  133712.21      133318.89      265704.26      3.2956511e-06  5.1822409e-07  2.777427e-06   1.3405975e+08
   5295000   3.2739188e-10  133705.93      133313.38      265439.92      3.2956338e-06  5.1833728e-07  2.7772965e-06  1.340566e+08 
   5296000   3.2745371e-10  133710.22      133316.79      265738.99      3.2956356e-06  5.1825002e-07  2.7773856e-06  1.3405847e+08
   5297000   3.2751554e-10  133718.74      133325.08      265824.82      3.2956455e-06  5.180828e-07   2.7775627e-06  1.340623e+08 
   5298000   3.2757737e-10  133722.84      133329.91      265583.47      3.2956455e-06  5.1799774e-07  2.7776477e-06  1.3406374e+08
   5299000   3.276392e-10   133725.01      133331.41      265810.72      3.2956379e-06  5.1794501e-07  2.7776929e-06  1.3406469e+08
   5300000   3.2770104e-10  133717.12      133323.42      265834.55      3.2956473e-06  5.1811831e-07  2.777529e-06   1.3406304e+08
   5301000   3.2776287e-10  133715.79      133321.71      265959.24      3.29565e-06    5.181487e-07   2.7775013e-06  1.3406303e+08
   5302000   3.278247e-10   133717.82      133322.69      266314.86      3.2956541e-06  5.1811057e-07  2.7775435e-06  1.3406343e+08
   5303000   3.2788653e-10  133714.49      133319.66      266210.57      3.29565e-06    5.1817553e-07  2.7774745e-06  1.3406035e+08
   5304000   3.2794836e-10  133739.32      133345.18      266003.34      3.2956379e-06  5.1764782e-07  2.7779901e-06  1.3406744e+08
   5305000   3.2801019e-10  133731.49      133337.12      266072.41      3.2956227e-06  5.177953e-07   2.7778274e-06  1.3406204e+08
   5306000   3.2807202e-10  133748.55      133354.73      265907.33      3.2956154e-06  5.1743346e-07  2.7781819e-06  1.3406747e+08
   5307000   3.2813385e-10  133740.38      133346.65      265870.43      3.2956177e-06  5.1760553e-07  2.7780122e-06  1.340633e+08 
   5308000   3.2819568e-10  133742         133351.57      264768.04      3.2956162e-06  5.1757043e-07  2.7780458e-06  1.3406308e+08
   5309000   3.2825751e-10  133730.87      133341.51      264397.94      3.2956259e-06  5.1781126e-07  2.7778146e-06  1.3405998e+08
   5310000   3.2831934e-10  133721.63      133332.47      264321.65      3.2956406e-06  5.1801802e-07  2.7776226e-06  1.340593e+08 
   5311000   3.2838117e-10  133722.17      133333.86      264038.39      3.295635e-06   5.1800108e-07  2.7776339e-06  1.3406083e+08
   5312000   3.28443e-10    133721.99      133333.82      263992.13      3.2956508e-06  5.1802065e-07  2.7776302e-06  1.3406297e+08
   5313000   3.2850483e-10  133724.02      133334.24      264531.33      3.2956534e-06  5.1798106e-07  2.7776723e-06  1.3406325e+08
   5314000   3.2856666e-10  133717.86      133326.95      264900.51      3.295646e-06   5.181017e-07   2.7775443e-06  1.3406013e+08
   5315000   3.2862849e-10  133719.59      133327.47      265306.69      3.2956442e-06  5.1806399e-07  2.7775802e-06  1.3406038e+08
   5316000   3.2869032e-10  133729.83      133337.37      265433.97      3.2956389e-06  5.1784597e-07  2.777793e-06   1.3406372e+08
   5317000   3.2875215e-10  133733.18      133341.96      265022.13      3.2956369e-06  5.1777433e-07  2.7778625e-06  1.3406559e+08
   5318000   3.2881398e-10  133708.99      133318.37      264794.06      3.2956292e-06  5.182692e-07   2.77736e-06    1.340564e+08 
   5319000   3.2887581e-10  133714.26      133323.68      264787.78      3.2956432e-06  5.1817372e-07  2.7774695e-06  1.3405995e+08
   5320000   3.2893764e-10  133709.8       133318.44      265045.26      3.2956412e-06  5.1826424e-07  2.7773769e-06  1.340578e+08 
   5321000   3.2899947e-10  133719         133328.07      264912.83      3.2956573e-06  5.1808918e-07  2.7775681e-06  1.3406255e+08
   5322000   3.290613e-10   133732.82      133341.81      264949.48      3.2956424e-06  5.1778739e-07  2.777855e-06   1.3406689e+08
   5323000   3.2912313e-10  133732.05      133341.97      264639.8       3.2956431e-06  5.1780404e-07  2.777839e-06   1.3406682e+08
   5324000   3.2918496e-10  133718.52      133328.99      264442.94      3.2956365e-06  5.1807838e-07  2.7775581e-06  1.3406061e+08
   5325000   3.2924679e-10  133727.25      133338.58      264163.5       3.2956335e-06  5.17894e-07    2.7777395e-06  1.3406358e+08
   5326000   3.2930863e-10  133715.61      133328.08      263771.6       3.2956405e-06  5.1814289e-07  2.7774976e-06  1.3405975e+08
   5327000   3.2937046e-10  133720.23      133334.9       263037.51      3.2956459e-06  5.1805231e-07  2.7775936e-06  1.3406286e+08
   5328000   3.2943229e-10  133723.12      133338.72      262731.27      3.2956453e-06  5.1799166e-07  2.7776536e-06  1.3406413e+08
   5329000   3.2949412e-10  133739.66      133355.9       262534.93      3.2956517e-06  5.1765448e-07  2.7779972e-06  1.3407e+08   
   5330000   3.2955595e-10  133727.72      133345.35      262059.8       3.2956426e-06  5.178933e-07   2.7777493e-06  1.340631e+08 
   5331000   3.2961778e-10  133718.29      133336.04      262008.43      3.2956453e-06  5.1809198e-07  2.7775533e-06  1.3405871e+08
   5332000   3.2967961e-10  133728.42      133348.73      261159.51      3.2956367e-06  5.1787303e-07  2.7777636e-06  1.3406125e+08
   5333000   3.2974144e-10  133737.23      133357.89      261054.11      3.2956518e-06  5.1770501e-07  2.7779468e-06  1.3406648e+08
   5334000   3.2980327e-10  133727.99      133348.78      260996.85      3.2956463e-06  5.1789163e-07  2.7777547e-06  1.340641e+08 
   5335000   3.298651e-10   133714.97      133334.67      261351.73      3.2956438e-06  5.1815956e-07  2.7774842e-06  1.3405907e+08
   5336000   3.2992693e-10  133731.52      133349.61      261906.23      3.2956355e-06  5.1780753e-07  2.777828e-06   1.3406236e+08
   5337000   3.2998876e-10  133754.33      133372.3       261966.41      3.2956298e-06  5.1732799e-07  2.7783018e-06  1.3406859e+08
   5338000   3.3005059e-10  133745.8       133363.34      262102.71      3.2956211e-06  5.1749648e-07  2.7781246e-06  1.3406444e+08
   5339000   3.3011242e-10  133738.16      133355.68      262103.69      3.2956394e-06  5.1767333e-07  2.7779661e-06  1.3406424e+08
   5340000   3.3017425e-10  133735.75      133352.82      262249.9       3.2956444e-06  5.1772853e-07  2.7779159e-06  1.3406545e+08
   5341000   3.3023608e-10  133729.24      133344.84      262739.64      3.2956547e-06  5.1787394e-07  2.7777808e-06  1.3406481e+08
   5342000   3.3029791e-10  133734.46      133349.48      262935.91      3.2956671e-06  5.177779e-07   2.7778892e-06  1.3406836e+08
   5343000   3.3035974e-10  133733.46      133349.7       262526.79      3.2956607e-06  5.1779231e-07  2.7778684e-06  1.3406687e+08
   5344000   3.3042157e-10  133747.65      133366.2       261770.94      3.2956398e-06  5.1747659e-07  2.7781632e-06  1.3407126e+08
   5345000   3.304834e-10   133727.35      133345.07      262027.98      3.2956541e-06  5.1791254e-07  2.7777415e-06  1.3406451e+08
   5346000   3.3054523e-10  133737.49      133353.76      262523.89      3.2956528e-06  5.1770062e-07  2.7779522e-06  1.3406698e+08
   5347000   3.3060706e-10  133747.7       133363.81      262584.48      3.2956506e-06  5.1748647e-07  2.7781641e-06  1.3407017e+08
   5348000   3.3066889e-10  133721.96      133337.44      262770.65      3.2956419e-06  5.1801238e-07  2.7776295e-06  1.3406023e+08
   5349000   3.3073072e-10  133702.06      133315.25      263515.71      3.2956411e-06  5.1842504e-07  2.7772161e-06  1.3405356e+08
   5350000   3.3079255e-10  133713.42      133325.86      263778.55      3.29564e-06    5.1818787e-07  2.7774521e-06  1.340573e+08 
   5351000   3.3085438e-10  133720.33      133333.57      263515.06      3.2956311e-06  5.1803551e-07  2.7775956e-06  1.3405756e+08
   5352000   3.3091622e-10  133734.33      133347.44      263573.29      3.2956227e-06  5.1773627e-07  2.7778864e-06  1.3406134e+08
   5353000   3.3097805e-10  133741.26      133355.29      263276.92      3.2956155e-06  5.1758496e-07  2.7780305e-06  1.3406361e+08
   5354000   3.3103988e-10  133730.32      133343.47      263556.22      3.295617e-06   5.1781385e-07  2.7778031e-06  1.3405956e+08
   5355000   3.3110171e-10  133728.71      133341.66      263624.26      3.2956312e-06  5.1786142e-07  2.7777698e-06  1.3406069e+08
   5356000   3.3116354e-10  133723.92      133335.38      264116.81      3.2956398e-06  5.1796955e-07  2.7776703e-06  1.3406074e+08
   5357000   3.3122537e-10  133722.65      133334.62      263944.28      3.2956394e-06  5.1799548e-07  2.7776439e-06  1.3406134e+08
   5358000   3.312872e-10   133712.35      133324.03      264032.14      3.2956475e-06  5.1821747e-07  2.77743e-06    1.3405885e+08
   5359000   3.3134903e-10  133718.99      133331.53      263750.87      3.2956391e-06  5.1807128e-07  2.7775678e-06  1.3406086e+08
   5360000   3.3141086e-10  133738.67      133350.29      264079.49      3.2956416e-06  5.1766487e-07  2.7779767e-06  1.340686e+08 
   5361000   3.3147269e-10  133735.68      133346.12      264468.56      3.2956313e-06  5.1771685e-07  2.7779145e-06  1.3406666e+08
   5362000   3.3153452e-10  133717.04      133326.59      264747.54      3.2956143e-06  5.1808712e-07  2.7775272e-06  1.3405771e+08
   5363000   3.3159635e-10  133715.97      133324.65      265037.61      3.2956244e-06  5.1811926e-07  2.7775051e-06  1.3405766e+08
   5364000   3.3165818e-10  133725.59      133334.35      265022.12      3.2956186e-06  5.1791366e-07  2.777705e-06   1.3405992e+08
   5365000   3.3172001e-10  133741.95      133348.83      265666.98      3.2956313e-06  5.1758648e-07  2.7780448e-06  1.3406605e+08
   5366000   3.3178184e-10  133728.34      133335.97      265404.31      3.2956473e-06  5.1788515e-07  2.7777621e-06  1.3406273e+08
   5367000   3.3184367e-10  133719.76      133326.58      265663.87      3.2956498e-06  5.1806599e-07  2.7775838e-06  1.3406056e+08
   5368000   3.319055e-10   133721.18      133326.76      266080.55      3.2956616e-06  5.1804825e-07  2.7776133e-06  1.3406341e+08
   5369000   3.3196733e-10  133715.91      133320.4       266438.5       3.295658e-06   5.1815417e-07  2.7775039e-06  1.3406282e+08
   5370000   3.3202916e-10  133714.53      133318.79      266514.86      3.2956634e-06  5.1818816e-07  2.7774752e-06  1.3406357e+08
   5371000   3.3209099e-10  133725.3       133330.01      266376.02      3.2956593e-06  5.1796044e-07  2.7776989e-06  1.3406799e+08
   5372000   3.3215282e-10  133722.38      133327.34      266289.83      3.2956606e-06  5.1802231e-07  2.7776383e-06  1.3406657e+08
   5373000   3.3221465e-10  133721.46      133325.83      266485.99      3.2956671e-06  5.1804795e-07  2.7776191e-06  1.340656e+08 
   5374000   3.3227648e-10  133726.99      133332.27      266188.08      3.2956545e-06  5.1792049e-07  2.777734e-06   1.3406501e+08
   5375000   3.3233831e-10  133727.68      133334.36      265717.56      3.2956533e-06  5.1790498e-07  2.7777483e-06  1.3406324e+08
   5376000   3.3240014e-10  133721.6       133329.28      265377.12      3.2956424e-06  5.1802037e-07  2.777622e-06   1.3406013e+08
   5377000   3.3246197e-10  133720.91      133328.68      265346.19      3.2956333e-06  5.1802553e-07  2.7776077e-06  1.3405967e+08
   5378000   3.3252381e-10  133728.71      133337.64      264968.04      3.2956324e-06  5.1786266e-07  2.7777697e-06  1.3406276e+08
   5379000   3.3258564e-10  133739.24      133347.08      265343.67      3.2956411e-06  5.1765261e-07  2.7779885e-06  1.3406761e+08
   5380000   3.3264747e-10  133731.31      133339.4       265249.63      3.2956449e-06  5.1782125e-07  2.7778237e-06  1.3406512e+08
   5381000   3.327093e-10   133725.07      133332.69      265401.91      3.2956554e-06  5.1796133e-07  2.7776941e-06  1.3406379e+08
   5382000   3.3277113e-10  133718.84      133327.27      265122.98      3.2956507e-06  5.1808604e-07  2.7775646e-06  1.3406091e+08
   5383000   3.3283296e-10  133712.08      133320.26      265201.95      3.2956444e-06  5.1822001e-07  2.7774244e-06  1.3405794e+08
   5384000   3.3289479e-10  133722.77      133330.13      265487.21      3.295656e-06   5.1800955e-07  2.7776464e-06  1.3406267e+08
   5385000   3.3295662e-10  133725.58      133331.57      265947.27      3.2956452e-06  5.1794053e-07  2.7777046e-06  1.3406205e+08
   5386000   3.3301845e-10  133729.19      133335.73      265765.57      3.2956416e-06  5.17862e-07    2.7777796e-06  1.3406309e+08
   5387000   3.3308028e-10  133727.6       133335.09      265447.6       3.2956476e-06  5.1790093e-07  2.7777466e-06  1.3406369e+08
   5388000   3.3314211e-10  133729.22      133337.23      265274.69      3.2956313e-06  5.1785098e-07  2.7777803e-06  1.3406352e+08
   5389000   3.3320394e-10  133749.35      133357.08      265388.11      3.2956397e-06  5.1744119e-07  2.7781985e-06  1.3407202e+08
   5390000   3.3326577e-10  133734.61      133342.9       265187.1       3.2956378e-06  5.1774546e-07  2.7778924e-06  1.3406682e+08
   5391000   3.333276e-10   133722.49      133331.84      264823.13      3.2956478e-06  5.1800723e-07  2.7776406e-06  1.3406401e+08
   5392000   3.3338943e-10  133711         133321.44      264446.96      3.2956359e-06  5.1823397e-07  2.777402e-06   1.3405789e+08
   5393000   3.3345126e-10  133730.39      133340.07      264716.12      3.2956429e-06  5.1783832e-07  2.7778046e-06  1.3406458e+08
   5394000   3.3351309e-10  133723.14      133331.32      265212.99      3.2956479e-06  5.179939e-07   2.777654e-06   1.3406267e+08
   5395000   3.3357492e-10  133711.88      133320.62      265015.59      3.2956413e-06  5.1822112e-07  2.7774202e-06  1.3405893e+08
   5396000   3.3363675e-10  133725.49      133334.04      265091.11      3.2956414e-06  5.1793862e-07  2.7777027e-06  1.3406372e+08
   5397000   3.3369858e-10  133721.88      133330.41      265093.93      3.2956445e-06  5.1801657e-07  2.7776279e-06  1.3406088e+08
   5398000   3.3376041e-10  133738         133345         265621.93      3.2956373e-06  5.1767462e-07  2.7779627e-06  1.3406582e+08
   5399000   3.3382224e-10  133741.27      133347.71      265810.82      3.2956329e-06  5.1760229e-07  2.7780306e-06  1.3406681e+08
   5400000   3.3388407e-10  133727.46      133332.52      266260.2       3.2956269e-06  5.1788311e-07  2.7777438e-06  1.3406178e+08
   5401000   3.339459e-10   133725.76      133330.19      266468.54      3.2956398e-06  5.1793128e-07  2.7777085e-06  1.3406268e+08
   5402000   3.3400773e-10  133725.07      133329.53      266461.23      3.2956514e-06  5.179572e-07   2.7776942e-06  1.3406335e+08
   5403000   3.3406956e-10  133728.56      133333.28      266376.31      3.2956573e-06  5.1789062e-07  2.7777667e-06  1.3406574e+08
   5404000   3.341314e-10   133726.43      133331.42      266282.65      3.295668e-06   5.1794559e-07  2.7777225e-06  1.3406737e+08
   5405000   3.3419323e-10  133721.77      133326.97      266206.79      3.295664e-06   5.1803839e-07  2.7776256e-06  1.3406641e+08
   5406000   3.3425506e-10  133721.86      133326.67      266337.14      3.2956557e-06  5.1802837e-07  2.7776273e-06  1.3406546e+08
   5407000   3.3431689e-10  133713.56      133319.3       266018.29      3.2956426e-06  5.1818758e-07  2.777455e-06   1.340604e+08 
   5408000   3.3437872e-10  133719.23      133323.4       266552.59      3.2956588e-06  5.1808592e-07  2.7775729e-06  1.3406335e+08
   5409000   3.3444055e-10  133715.25      133319.78      266424.41      3.2956567e-06  5.1816666e-07  2.77749e-06    1.3406154e+08
   5410000   3.3450238e-10  133719.78      133325.79      265934.17      3.2956463e-06  5.1806218e-07  2.7775841e-06  1.340629e+08 
   5411000   3.3456421e-10  133710.82      133316.6       266001.95      3.2956488e-06  5.1825075e-07  2.777398e-06   1.340599e+08 
   5412000   3.3462604e-10  133732.26      133337.32      266267.45      3.2956509e-06  5.1780736e-07  2.7778435e-06  1.3406757e+08
   5413000   3.3468787e-10  133736.95      133341.71      266372.8       3.2956585e-06  5.1771755e-07  2.777941e-06   1.3406891e+08
   5414000   3.347497e-10   133732.01      133336.84      266342.72      3.2956683e-06  5.1783004e-07  2.7778383e-06  1.3406737e+08
   5415000   3.3481153e-10  133726.67      133330.8       266569.79      3.2956529e-06  5.1792562e-07  2.7777273e-06  1.3406324e+08
   5416000   3.3487336e-10  133732.85      133336.91      266599.37      3.2956506e-06  5.1779488e-07  2.7778557e-06  1.3406547e+08
   5417000   3.3493519e-10  133734.03      133338.73      266389.27      3.2956574e-06  5.1777707e-07  2.7778803e-06  1.3406733e+08
   5418000   3.3499702e-10  133726.88      133332.22      266163.4       3.2956473e-06  5.179157e-07   2.7777316e-06  1.3406461e+08
   5419000   3.3505885e-10  133733.84      133339.24      266154.34      3.2956473e-06  5.1777102e-07  2.7778763e-06  1.3406767e+08
   5420000   3.3512068e-10  133723.81      133328.19      266484.1       3.295652e-06   5.1798402e-07  2.777668e-06   1.3406357e+08
   5421000   3.3518251e-10  133711.54      133316.14      266398.06      3.2956443e-06  5.182313e-07   2.777413e-06   1.3405775e+08
   5422000   3.3524434e-10  133719.65      133324.44      266343.17      3.2956442e-06  5.1806258e-07  2.7775816e-06  1.3406025e+08
   5423000   3.3530617e-10  133722.64      133327.14      266441.86      3.2956398e-06  5.1799625e-07  2.7776436e-06  1.3406075e+08
   5424000   3.35368e-10    133739.69      133344.66      266304.69      3.2956335e-06  5.1763566e-07  2.7779979e-06  1.3406687e+08
   5425000   3.3542983e-10  133719.86      133323.8       266624.09      3.2956434e-06  5.1805757e-07  2.7775858e-06  1.3406042e+08
   5426000   3.3549166e-10  133709.17      133312.23      266910.62      3.2956451e-06  5.1828117e-07  2.7773639e-06  1.34058e+08  
   5427000   3.3555349e-10  133708.81      133311.85      266917.27      3.2956457e-06  5.1828929e-07  2.7773564e-06  1.3405914e+08
   5428000   3.3561532e-10  133715.77      133319.21      266788.42      3.2956558e-06  5.1815491e-07  2.7775009e-06  1.3406277e+08
   5429000   3.3567715e-10  133725.3       133329.39      266580.65      3.295641e-06   5.1794211e-07  2.7776989e-06  1.3406515e+08
   5430000   3.3573899e-10  133720.78      133326.24      266121.26      3.2956557e-06  5.1805062e-07  2.777605e-06   1.3406373e+08
   5431000   3.3580082e-10  133732.7       133338.13      266142.4       3.2956439e-06  5.1779131e-07  2.7778526e-06  1.3406703e+08
   5432000   3.3586265e-10  133721.17      133325.6       266464.63      3.295636e-06   5.1802287e-07  2.7776131e-06  1.3406172e+08
   5433000   3.3592448e-10  133718.54      133321.24      267041.6       3.29564e-06    5.1808153e-07  2.7775585e-06  1.340617e+08 
   5434000   3.3598631e-10  133709.01      133311.91      266964.41      3.2956327e-06  5.1827221e-07  2.7773605e-06  1.3405821e+08
   5435000   3.3604814e-10  133714.7       133315.99      267511.31      3.295639e-06   5.1816019e-07  2.7774788e-06  1.3406113e+08
   5436000   3.3610997e-10  133721.22      133320.5       268185.17      3.2956346e-06  5.1802055e-07  2.7776141e-06  1.3406237e+08
   5437000   3.361718e-10   133732.11      133329.19      268931.67      3.2956427e-06  5.1780239e-07  2.7778403e-06  1.3406618e+08
   5438000   3.3623363e-10  133719.99      133316.73      269034.09      3.2956508e-06  5.1806232e-07  2.7775885e-06  1.3406129e+08
   5439000   3.3629546e-10  133721.32      133318.41      268919.7       3.2956581e-06  5.1804191e-07  2.7776162e-06  1.3406119e+08
   5440000   3.3635729e-10  133743.78      133341.78      268636.47      3.2956598e-06  5.17577e-07    2.7780828e-06  1.3406971e+08
   5441000   3.3641912e-10  133731.01      133330.62      268088.24      3.2956479e-06  5.1783031e-07  2.7778176e-06  1.3406346e+08
   5442000   3.3648095e-10  133728.54      133328.37      268009.26      3.2956493e-06  5.1788306e-07  2.7777662e-06  1.3406201e+08
   5443000   3.3654278e-10  133737.41      133336.23      268355.48      3.2956531e-06  5.1770277e-07  2.7779504e-06  1.3406462e+08
   5444000   3.3660461e-10  133729.02      133327.62      268420.68      3.2956297e-06  5.1785357e-07  2.7777761e-06  1.3405983e+08
   5445000   3.3666644e-10  133741.48      133339.87      268505.26      3.2956295e-06  5.1759459e-07  2.7780349e-06  1.3406521e+08
   5446000   3.3672827e-10  133735.82      133335.17      268179.26      3.2956346e-06  5.1771718e-07  2.7779174e-06  1.3406475e+08
   5447000   3.367901e-10   133715.2       133316.26      267588.06      3.2956485e-06  5.1815933e-07  2.7774891e-06  1.3405987e+08
   5448000   3.3685193e-10  133722.26      133323.65      267483.99      3.2956558e-06  5.180201e-07   2.7776357e-06  1.3406514e+08
   5449000   3.3691376e-10  133695.51      133297.39      267289.7       3.295672e-06   5.1859196e-07  2.7770801e-06  1.3405811e+08
   5450000   3.3697559e-10  133692.66      133296.11      266761.31      3.2956586e-06  5.1863781e-07  2.7770208e-06  1.3405726e+08
   5451000   3.3703742e-10  133704.88      133310.84      265939.25      3.2956508e-06  5.1837599e-07  2.7772748e-06  1.3406114e+08
   5452000   3.3709925e-10  133713.18      133320.24      265577.41      3.2956631e-06  5.1821583e-07  2.7774472e-06  1.3406432e+08
   5453000   3.3716108e-10  133708.71      133315.67      265607.87      3.2956641e-06  5.1830974e-07  2.7773543e-06  1.3406116e+08
   5454000   3.3722291e-10  133718.2       133325.91      265363.14      3.2956588e-06  5.1810744e-07  2.7775514e-06  1.3406253e+08
   5455000   3.3728474e-10  133722.05      133332.8       264351.86      3.2956678e-06  5.1803636e-07  2.7776314e-06  1.3406359e+08
   5456000   3.3734658e-10  133729.27      133339.01      264697.17      3.2956512e-06  5.1786988e-07  2.7777813e-06  1.3406413e+08
   5457000   3.3740841e-10  133730.44      133341.14      264378.76      3.2956437e-06  5.1783807e-07  2.7778057e-06  1.3406356e+08
   5458000   3.3747024e-10  133733.57      133345.2       264069.22      3.2956615e-06  5.1779072e-07  2.7778708e-06  1.3406644e+08
   5459000   3.3753207e-10  133727.7       133339.5       264004.74      3.2956481e-06  5.1789941e-07  2.7777487e-06  1.3406301e+08
   5460000   3.375939e-10   133729.5       133340.84      264162.61      3.2956498e-06  5.1786361e-07  2.7777862e-06  1.3406363e+08
   5461000   3.3765573e-10  133739.94      133350.23      264522.83      3.2956679e-06  5.1766496e-07  2.7780029e-06  1.3406916e+08
   5462000   3.3771756e-10  133736.97      133348.3       264172.23      3.2956635e-06  5.1772225e-07  2.7779412e-06  1.3406689e+08
   5463000   3.3777939e-10  133738.01      133349.72      264049.61      3.2956522e-06  5.1768922e-07  2.777963e-06   1.3406665e+08
   5464000   3.3784122e-10  133732.95      133344.94      263949.76      3.2956628e-06  5.1780497e-07  2.7778578e-06  1.3406715e+08
   5465000   3.3790305e-10  133738.36      133352.05      263385.86      3.2956627e-06  5.1769259e-07  2.7779702e-06  1.3407062e+08
   5466000   3.3796488e-10  133724.41      133339.34      262958.03      3.2956639e-06  5.1798336e-07  2.7776805e-06  1.3406483e+08
   5467000   3.3802671e-10  133729.46      133345.11      262720.79      3.2956462e-06  5.1786085e-07  2.7777854e-06  1.3406486e+08
   5468000   3.3808854e-10  133718.61      133334.06      262777.16      3.2956265e-06  5.1806652e-07  2.77756e-06    1.3405874e+08
   5469000   3.3815037e-10  133720.59      133336.38      262666.59      3.2956185e-06  5.1801744e-07  2.7776011e-06  1.3405832e+08
   5470000   3.382122e-10   133753.18      133369.09      262656.6       3.2956187e-06  5.1734073e-07  2.778278e-06   1.3406956e+08
   5471000   3.3827403e-10  133746.56      133363.69      262241.74      3.2956048e-06  5.1746433e-07  2.7781405e-06  1.3406527e+08
   5472000   3.3833586e-10  133736.53      133355.45      261634.4       3.2956201e-06  5.1768792e-07  2.7779322e-06  1.3406313e+08
   5473000   3.3839769e-10  133733.7       133353.47      261348.83      3.2956495e-06  5.177761e-07   2.7778734e-06  1.3406544e+08
   5474000   3.3845952e-10  133726.35      133347         261044.7       3.2956523e-06  5.1793151e-07  2.7777208e-06  1.3406439e+08
   5475000   3.3852135e-10  133721.57      133341.92      261140.49      3.2956743e-06  5.1805286e-07  2.7776214e-06  1.3406536e+08
   5476000   3.3858318e-10  133710.51      133330.53      261241.44      3.2956845e-06  5.1829271e-07  2.7773918e-06  1.3406265e+08
   5477000   3.3864501e-10  133728.45      133349.93      260770.93      3.2956875e-06  5.179231e-07   2.7777644e-06  1.3407051e+08
   5478000   3.3870684e-10  133706.88      133329.47      260375.9       3.2956911e-06  5.1837488e-07  2.7773162e-06  1.3406303e+08
   5479000   3.3876867e-10  133717.99      133340.06      260563.12      3.2956774e-06  5.1813021e-07  2.7775472e-06  1.340669e+08 
   5480000   3.388305e-10   133716.73      133339         260491.24      3.2956638e-06  5.1814302e-07  2.7775208e-06  1.3406558e+08
   5481000   3.3889233e-10  133713.93      133336.67      260333.62      3.29566e-06    5.1819722e-07  2.7774628e-06  1.3406307e+08
   5482000   3.3895417e-10  133728         133349.64      260716.22      3.2956621e-06  5.1790711e-07  2.777755e-06   1.3406807e+08
   5483000   3.39016e-10    133722.77      133344.15      260796.28      3.2956618e-06  5.1801551e-07  2.7776463e-06  1.3406587e+08
   5484000   3.3907783e-10  133718.96      133340.86      260621.22      3.2956562e-06  5.1808902e-07  2.7775672e-06  1.340642e+08 
   5485000   3.3913966e-10  133719.45      133341.33      260626.93      3.2956652e-06  5.1808777e-07  2.7775774e-06  1.3406447e+08
   5486000   3.3920149e-10  133721.23      133342.55      260814.39      3.2956735e-06  5.1805924e-07  2.7776143e-06  1.3406509e+08
   5487000   3.3926332e-10  133735.71      133357.72      260600.01      3.2956725e-06  5.1775727e-07  2.7779152e-06  1.3406995e+08
   5488000   3.3932515e-10  133735.74      133359.83      259904.11      3.2956637e-06  5.177479e-07   2.7779158e-06  1.3406835e+08
   5489000   3.3938698e-10  133734.86      133359.47      259727.37      3.2956562e-06  5.1775874e-07  2.7778974e-06  1.3406626e+08
   5490000   3.3944881e-10  133733.99      133358.52      259756.56      3.2956512e-06  5.1777178e-07  2.7778794e-06  1.3406478e+08
   5491000   3.3951064e-10  133740.67      133366.22      259420.14      3.295643e-06   5.1762486e-07  2.7780181e-06  1.3406669e+08
   5492000   3.3957247e-10  133752.2       133378.23      259270.76      3.2956489e-06  5.1739128e-07  2.7782576e-06  1.3407252e+08
   5493000   3.396343e-10   133731.96      133358.75      258996.68      3.2956492e-06  5.1781195e-07  2.7778372e-06  1.3406631e+08
   5494000   3.3969613e-10  133731.37      133359.11      258677.03      3.2956463e-06  5.1782134e-07  2.7778249e-06  1.34067e+08  
   5495000   3.3975796e-10  133733.61      133362.85      258180.32      3.295645e-06   5.177734e-07   2.7778716e-06  1.3406789e+08
   5496000   3.3981979e-10  133729.99      133362.05      257232.2       3.2956519e-06  5.178557e-07   2.7777962e-06  1.3406746e+08
   5497000   3.3988162e-10  133711.53      133344.45      256927.95      3.2956311e-06  5.1821822e-07  2.7774129e-06  1.3405939e+08
   5498000   3.3994345e-10  133709.93      133343.26      256787.06      3.2956287e-06  5.1824905e-07  2.7773797e-06  1.3405952e+08
   5499000   3.4000528e-10  133711.14      133344.21      256874         3.2956356e-06  5.1823087e-07  2.7774047e-06  1.3405985e+08
   5500000   3.4006711e-10  133714.82      133347.34      257063.26      3.29564e-06    5.1815877e-07  2.7774813e-06  1.3405979e+08
   5501000   3.4012894e-10  133736.03      133369.6       256734.91      3.2956395e-06  5.1771774e-07  2.7779217e-06  1.3406594e+08
   5502000   3.4019077e-10  133741.63      133375.46      256650.45      3.29565e-06    5.1761203e-07  2.778038e-06   1.3406818e+08
   5503000   3.402526e-10   133751.77      133386.47      256369.28      3.2956406e-06  5.1739201e-07  2.7782486e-06  1.3407104e+08
   5504000   3.4031443e-10  133744.52      133378.99      256443.49      3.2956493e-06  5.1755108e-07  2.7780982e-06  1.3406897e+08
   5505000   3.4037626e-10  133730.02      133365.16      256205.54      3.2956519e-06  5.1785483e-07  2.777797e-06   1.3406413e+08
   5506000   3.4043809e-10  133734.72      133368.71      256588.95      3.2956561e-06  5.1776165e-07  2.7778945e-06  1.3406668e+08
   5507000   3.4049992e-10  133727.42      133361.43      256575.79      3.2956437e-06  5.1790084e-07  2.7777429e-06  1.3406198e+08
   5508000   3.4056176e-10  133734.46      133368.43      256597.5       3.2956406e-06  5.1775139e-07  2.7778892e-06  1.3406368e+08
   5509000   3.4062359e-10  133738.79      133373.6       256321.91      3.2956287e-06  5.1764972e-07  2.777979e-06   1.3406431e+08
   5510000   3.4068542e-10  133729.59      133363.78      256520         3.2956211e-06  5.1783303e-07  2.7777881e-06  1.340607e+08 
   5511000   3.4074725e-10  133718.09      133351.23      256858.95      3.2956092e-06  5.1806004e-07  2.7775492e-06  1.3405545e+08
   5512000   3.4080908e-10  133719.67      133352.58      256938.7       3.2956046e-06  5.1802268e-07  2.7775819e-06  1.3405461e+08
   5513000   3.4087091e-10  133722.16      133355.41      256829.85      3.2956089e-06  5.1797519e-07  2.7776337e-06  1.3405426e+08
   5514000   3.4093274e-10  133748.86      133381.59      257027.67      3.2956246e-06  5.1743634e-07  2.7781882e-06  1.3406599e+08
   5515000   3.4099457e-10  133744.96      133378.1       256887.65      3.2956071e-06  5.1749986e-07  2.7781072e-06  1.3406469e+08
   5516000   3.410564e-10   133721.09      133353.91      256971.75      3.2956024e-06  5.1799089e-07  2.7776115e-06  1.3405717e+08
   5517000   3.4111823e-10  133725.05      133358.04      256917.6       3.2956166e-06  5.1792296e-07  2.7776936e-06  1.3406056e+08
   5518000   3.4118006e-10  133715.79      133348.8       256903.3       3.2956171e-06  5.1811566e-07  2.7775014e-06  1.3405679e+08
   5519000   3.4124189e-10  133716.3       133347.78      257415.15      3.2956323e-06  5.1812028e-07  2.777512e-06   1.3405898e+08
   5520000   3.4130372e-10  133715.17      133345.29      257868.45      3.2956428e-06  5.1815424e-07  2.7774885e-06  1.3406007e+08
   5521000   3.4136555e-10  133712.25      133342.48      257828.05      3.2956323e-06  5.1820443e-07  2.7774279e-06  1.3405839e+08
   5522000   3.4142738e-10  133718.78      133348.95      257851.38      3.2956402e-06  5.1807688e-07  2.7775634e-06  1.3406154e+08
   5523000   3.4148921e-10  133725.38      133355.89      257749.15      3.2956411e-06  5.1794051e-07  2.7777006e-06  1.3406414e+08
   5524000   3.4155104e-10  133710.56      133341.31      257651.25      3.2956333e-06  5.1824061e-07  2.7773927e-06  1.3405713e+08
   5525000   3.4161287e-10  133716.76      133347.89      257528.16      3.2956239e-06  5.1810249e-07  2.7775214e-06  1.3405793e+08
   5526000   3.416747e-10   133724         133355.09      257553.41      3.2956219e-06  5.1794994e-07  2.777672e-06   1.3405914e+08
   5527000   3.4173653e-10  133734.36      133366.44      257229.85      3.295641e-06   5.1775394e-07  2.7778871e-06  1.3406465e+08
   5528000   3.4179836e-10  133735.25      133371.24      255922.63      3.2956372e-06  5.1773168e-07  2.7779055e-06  1.3406512e+08
   5529000   3.4186019e-10  133726.23      133363.83      255375.15      3.2956333e-06  5.1791521e-07  2.7777181e-06  1.3406209e+08
   5530000   3.4192202e-10  133716.62      133354.5       255273.91      3.2956486e-06  5.1812991e-07  2.7775187e-06  1.3405957e+08
   5531000   3.4198385e-10  133729.99      133367.21      255507.64      3.2956488e-06  5.1785258e-07  2.7777962e-06  1.3406413e+08
   5532000   3.4204568e-10  133728.06      133364.81      255663.21      3.2956426e-06  5.178864e-07   2.7777562e-06  1.3406242e+08
   5533000   3.4210751e-10  133732.28      133368.19      255949.18      3.2956427e-06  5.1779871e-07  2.777844e-06   1.34064e+08  
   5534000   3.4216935e-10  133741.56      133377.69      255881.43      3.2956553e-06  5.1761871e-07  2.7780366e-06  1.340688e+08 
   5535000   3.4223118e-10  133740.71      133376         256163.01      3.2956651e-06  5.1764614e-07  2.778019e-06   1.340699e+08 
   5536000   3.4229301e-10  133725.08      133360.13      256227.04      3.2956599e-06  5.1796557e-07  2.7776944e-06  1.3406432e+08
   5537000   3.4235484e-10  133727.5       133364.1       255711.22      3.2956694e-06  5.1792474e-07  2.7777446e-06  1.340672e+08 
   5538000   3.4241667e-10  133722.43      133358.56      255862.89      3.2956705e-06  5.1803125e-07  2.7776392e-06  1.3406634e+08
   5539000   3.424785e-10   133720.16      133355.1       256259.19      3.2956914e-06  5.1809935e-07  2.777592e-06   1.3406758e+08
   5540000   3.4254033e-10  133710.88      133346.39      256059.5       3.2956963e-06  5.1829695e-07  2.7773994e-06  1.3406437e+08
   5541000   3.4260216e-10  133713.84      133349.69      255949.74      3.2956908e-06  5.1822996e-07  2.7774608e-06  1.3406506e+08
   5542000   3.4266399e-10  133726.01      133361.02      256243.86      3.295685e-06   5.1797131e-07  2.7777137e-06  1.3406923e+08
   5543000   3.4272582e-10  133717.79      133352.2       256435.06      3.2956524e-06  5.1810951e-07  2.7775429e-06  1.3406282e+08
   5544000   3.4278765e-10  133731.56      133366.45      256290.42      3.2956624e-06  5.1783343e-07  2.777829e-06   1.3406749e+08
   5545000   3.4284948e-10  133729.56      133365.59      255904.3       3.2956595e-06  5.1787216e-07  2.7777873e-06  1.340655e+08 
   5546000   3.4291131e-10  133727.32      133363.77      255758.94      3.2956509e-06  5.1791019e-07  2.7777408e-06  1.3406465e+08
   5547000   3.4297314e-10  133711.08      133347.32      255817.94      3.2956578e-06  5.1825415e-07  2.7774036e-06  1.3405992e+08
   5548000   3.4303497e-10  133712.84      133349.16      255791.11      3.2956611e-06  5.1822106e-07  2.7774401e-06  1.3406185e+08
   5549000   3.430968e-10   133717.13      133354.05      255592.81      3.2956656e-06  5.1813655e-07  2.7775291e-06  1.3406411e+08
   5550000   3.4315863e-10  133716.27      133354.16      255269.92      3.2956535e-06  5.1814214e-07  2.7775114e-06  1.3406224e+08
   5551000   3.4322046e-10  133732.73      133370.39      255362.87      3.2956625e-06  5.1780917e-07  2.7778533e-06  1.3406806e+08
   5552000   3.4328229e-10  133732.32      133369.37      255564.16      3.2956605e-06  5.1781592e-07  2.7778446e-06  1.3406656e+08
   5553000   3.4334412e-10  133725.62      133364.33      255006.38      3.295651e-06   5.1794541e-07  2.7777056e-06  1.3406317e+08
   5554000   3.4340595e-10  133714.3       133355.5       254161.7       3.295655e-06   5.1818453e-07  2.7774704e-06  1.3405999e+08
   5555000   3.4346778e-10  133721.35      133364.97      253357.73      3.29566e-06    5.1804315e-07  2.7776168e-06  1.3406443e+08
   5556000   3.4352961e-10  133734.11      133380.37      252487.78      3.2956528e-06  5.1777094e-07  2.7778819e-06  1.3406945e+08
   5557000   3.4359144e-10  133738.19      133384.69      252410.8       3.2956629e-06  5.1769618e-07  2.7779667e-06  1.3407095e+08
   5558000   3.4365327e-10  133737.5       133384.13      252368.26      3.2956577e-06  5.1770533e-07  2.7779523e-06  1.3406908e+08
   5559000   3.437151e-10   133726.75      133374.35      252031.44      3.2956429e-06  5.1791382e-07  2.777729e-06   1.3406305e+08
   5560000   3.4377694e-10  133734.23      133382.03      251973.63      3.2956339e-06  5.1774955e-07  2.7778844e-06  1.3406443e+08
   5561000   3.4383877e-10  133731.32      133377.92      252371.55      3.2956347e-06  5.178108e-07   2.7778239e-06  1.3406352e+08
   5562000   3.439006e-10   133726.32      133372.46      252517.62      3.2956246e-06  5.1790466e-07  2.77772e-06    1.3406108e+08
   5563000   3.4396243e-10  133722.96      133367.68      252991.29      3.2956279e-06  5.1797765e-07  2.7776503e-06  1.3405971e+08
   5564000   3.4402426e-10  133731.5       133375.09      253378.66      3.2956393e-06  5.1781168e-07  2.7778276e-06  1.3406406e+08
   5565000   3.4408609e-10  133739.1       133381.33      253840.24      3.2956427e-06  5.1765715e-07  2.7779855e-06  1.3406834e+08
   5566000   3.4414792e-10  133719.42      133361.15      253986.22      3.2956542e-06  5.1807749e-07  2.7775767e-06  1.3406338e+08
   5567000   3.4420975e-10  133700.34      133343.67      253433.89      3.2956498e-06  5.1846932e-07  2.7771805e-06  1.3405567e+08
   5568000   3.4427158e-10  133732.78      133375.36      253717.05      3.2956622e-06  5.1780794e-07  2.7778543e-06  1.3406745e+08
   5569000   3.4433341e-10  133752.39      133395.56      253540.52      3.2956412e-06  5.1737948e-07  2.7782617e-06  1.3407152e+08
   5570000   3.4439524e-10  133735.84      133379.44      253377.91      3.2956479e-06  5.1773017e-07  2.7779177e-06  1.3406513e+08
   5571000   3.4445707e-10  133733.81      133376.94      253537.02      3.2956439e-06  5.177682e-07   2.7778757e-06  1.340648e+08 
   5572000   3.445189e-10   133726.22      133368.42      253838.2       3.2956435e-06  5.1792544e-07  2.7777181e-06  1.3406166e+08
   5573000   3.4458073e-10  133743.24      133383.41      254532.63      3.2956356e-06  5.17564e-07    2.7780716e-06  1.3406724e+08
   5574000   3.4464256e-10  133746.72      133385.87      254877.25      3.2956259e-06  5.1748208e-07  2.7781438e-06  1.3406719e+08
   5575000   3.4470439e-10  133736.06      133374.07      255250.18      3.295625e-06   5.1770256e-07  2.7779224e-06  1.3406298e+08
   5576000   3.4476622e-10  133736.07      133374.36      255156.23      3.2956061e-06  5.1768349e-07  2.7779226e-06  1.3406184e+08
   5577000   3.4482805e-10  133732.01      133368.45      255769.19      3.2956186e-06  5.1778041e-07  2.7778382e-06  1.3406182e+08
   5578000   3.4488988e-10  133729.36      133365.11      255997.71      3.295645e-06   5.1786175e-07  2.7777833e-06  1.3406309e+08
   5579000   3.4495171e-10  133724.95      133359.47      256404.54      3.2956497e-06  5.1795821e-07  2.7776915e-06  1.3406154e+08
   5580000   3.4501354e-10  133727.01      133361.4       256452.22      3.2956528e-06  5.179183e-07   2.7777345e-06  1.3406402e+08
   5581000   3.4507537e-10  133711.74      133345.38      256686.55      3.2956477e-06  5.1823046e-07  2.7774172e-06  1.3405866e+08
   5582000   3.451372e-10   133726.34      133362.13      255983.01      3.2956386e-06  5.1791804e-07  2.7777205e-06  1.3406407e+08
   5583000   3.4519903e-10  133732.49      133370.12      255371.39      3.2956401e-06  5.17792e-07    2.7778481e-06  1.3406657e+08
   5584000   3.4526086e-10  133729.25      133366.83      255387.5       3.2956593e-06  5.1787828e-07  2.777781e-06   1.3406636e+08
   5585000   3.4532269e-10  133727.36      133366.28      254934.53      3.2956479e-06  5.1790633e-07  2.7777416e-06  1.3406528e+08
   5586000   3.4538453e-10  133712.43      133353.5       254202.57      3.2956451e-06  5.1821346e-07  2.7774316e-06  1.3406022e+08
   5587000   3.4544636e-10  133715.01      133357.92      253590.04      3.2956361e-06  5.1815091e-07  2.7774852e-06  1.3406145e+08
   5588000   3.4550819e-10  133701.68      133345.27      253349.95      3.2956416e-06  5.184333e-07   2.7772083e-06  1.3405779e+08
   5589000   3.4557002e-10  133692.48      133335.18      253637.3       3.2956388e-06  5.1862155e-07  2.7770172e-06  1.3405412e+08
   5590000   3.4563185e-10  133701.27      133344.91      253329.19      3.2956261e-06  5.1842648e-07  2.7771997e-06  1.3405571e+08
   5591000   3.4569368e-10  133710.87      133354.7       253275.49      3.2956424e-06  5.1824328e-07  2.7773991e-06  1.3405997e+08
   5592000   3.4575551e-10  133724.15      133368.34      253169.3       3.2956417e-06  5.179667e-07   2.777675e-06   1.340633e+08 
   5593000   3.4581734e-10  133730.82      133372.07      254161.7       3.2956199e-06  5.1780636e-07  2.7778136e-06  1.3406252e+08
   5594000   3.4587917e-10  133729.64      133369.1       254760.28      3.2956146e-06  5.1782544e-07  2.7777891e-06  1.3405978e+08
   5595000   3.45941e-10    133744.53      133384.93      254457.92      3.2956241e-06  5.1752589e-07  2.7780983e-06  1.3406563e+08
   5596000   3.4600283e-10  133726.98      133369.37      253777.4       3.2956276e-06  5.1789377e-07  2.7777339e-06  1.3406031e+08
   5597000   3.4606466e-10  133721.32      133365.47      253180.54      3.2956284e-06  5.1801226e-07  2.7776162e-06  1.3405968e+08
   5598000   3.4612649e-10  133719.65      133365.1       252745.81      3.2956457e-06  5.1806418e-07  2.7775816e-06  1.3406194e+08
   5599000   3.4618832e-10  133720.23      133365.15      252923.78      3.2956322e-06  5.1803863e-07  2.7775936e-06  1.3406225e+08
   5600000   3.4625015e-10  133715.25      133359.98      252981.43      3.295618e-06   5.1812781e-07  2.7774902e-06  1.3405914e+08
   5601000   3.4631198e-10  133724.15      133367.85      253332.86      3.2956305e-06  5.1795553e-07  2.777675e-06   1.3406162e+08
   5602000   3.4637381e-10  133736.46      133378.27      253978.49      3.2956397e-06  5.1770902e-07  2.7779307e-06  1.3406506e+08
   5603000   3.4643564e-10  133725.68      133366.21      254395.51      3.2956351e-06  5.1792822e-07  2.7777069e-06  1.3406061e+08
   5604000   3.4649747e-10  133724.56      133365.25      254339.21      3.2956368e-06  5.179533e-07   2.7776835e-06  1.3406057e+08
   5605000   3.465593e-10   133738.78      133380.17      254120.56      3.2956289e-06  5.1765003e-07  2.7779789e-06  1.3406568e+08
   5606000   3.4662113e-10  133732.29      133374.56      253818.06      3.2956334e-06  5.1778936e-07  2.777844e-06   1.3406306e+08
   5607000   3.4668296e-10  133745.36      133387.71      253807.6       3.2956359e-06  5.1752032e-07  2.7781156e-06  1.3406807e+08
   5608000   3.4674479e-10  133728.47      133372.28      253301.31      3.2956324e-06  5.1786759e-07  2.7777648e-06  1.340621e+08 
   5609000   3.4680662e-10  133731.21      133375.32      253201.44      3.2956328e-06  5.1781117e-07  2.7778216e-06  1.3406482e+08
   5610000   3.4686845e-10  133719.19      133362.45      253476.85      3.295645e-06   5.180731e-07   2.7775719e-06  1.340632e+08 
   5611000   3.4693028e-10  133703.62      133347.02      253415.4       3.295657e-06   5.1840843e-07  2.7772486e-06  1.3405968e+08
   5612000   3.4699212e-10  133698.73      133341.74      253540.83      3.2956698e-06  5.185227e-07   2.7771471e-06  1.3405874e+08
   5613000   3.4705395e-10  133710.81      133353.63      253614.52      3.2956691e-06  5.1827127e-07  2.7773979e-06  1.3406341e+08
   5614000   3.4711578e-10  133713.29      133355.87      253695.65      3.2956588e-06  5.1820942e-07  2.7774493e-06  1.3406359e+08
   5615000   3.4717761e-10  133706.59      133349.61      253543.29      3.2956628e-06  5.1835246e-07  2.7773103e-06  1.3406162e+08
   5616000   3.4723944e-10  133710.37      133354.36      253223.39      3.2956508e-06  5.1826206e-07  2.7773887e-06  1.340624e+08 
   5617000   3.4730127e-10  133718.53      133362.02      253398.71      3.2956561e-06  5.1809793e-07  2.7775582e-06  1.34066e+08  
   5618000   3.473631e-10   133727.59      133370.57      253578.74      3.2956593e-06  5.1791278e-07  2.7777465e-06  1.3406772e+08
   5619000   3.4742493e-10  133748.32      133390.77      253774.39      3.2956648e-06  5.174878e-07   2.778177e-06   1.3407489e+08
   5620000   3.4748676e-10  133733.48      133374.6       254208.09      3.2956546e-06  5.177857e-07   2.7778689e-06  1.3406786e+08
   5621000   3.4754859e-10  133722.7       133363.2       254403.34      3.295656e-06   5.1801097e-07  2.777645e-06   1.3406397e+08
   5622000   3.4761042e-10  133707.66      133349.16      254052.21      3.2956553e-06  5.183229e-07   2.7773324e-06  1.340588e+08 
   5623000   3.4767225e-10  133712.35      133355.21      253601.19      3.29566e-06    5.1823019e-07  2.7774298e-06  1.34061e+08  
   5624000   3.4773408e-10  133725.86      133368.78      253594.16      3.2956632e-06  5.1795279e-07  2.7777104e-06  1.3406692e+08
   5625000   3.4779591e-10  133723.95      133367.95      253231.7       3.2956583e-06  5.1798753e-07  2.7776708e-06  1.3406544e+08
   5626000   3.4785774e-10  133722.39      133367.11      252990.18      3.2956578e-06  5.1801946e-07  2.7776383e-06  1.3406383e+08
   5627000   3.4791957e-10  133732.59      133378.29      252672.39      3.295663e-06   5.1781275e-07  2.7778503e-06  1.3406753e+08
   5628000   3.479814e-10   133712.04      133357.89      252604.8       3.2956492e-06  5.1822561e-07  2.7774236e-06  1.3405838e+08
   5629000   3.4804323e-10  133735.44      133383.04      252040.35      3.2956541e-06  5.1774469e-07  2.7779094e-06  1.3406754e+08
   5630000   3.4810506e-10  133724.77      133371.87      252197.41      3.2956531e-06  5.1796525e-07  2.7776878e-06  1.3406311e+08
   5631000   3.4816689e-10  133727.67      133374.97      252133.1       3.295661e-06   5.1791285e-07  2.7777482e-06  1.3406587e+08
   5632000   3.4822872e-10  133723.25      133370.86      252026.36      3.2956573e-06  5.1800091e-07  2.7776564e-06  1.340653e+08 
   5633000   3.4829055e-10  133694.9       133342.35      252051.54      3.29566e-06    5.1859256e-07  2.7770674e-06  1.3405594e+08
   5634000   3.4835238e-10  133701.18      133348.06      252244.64      3.2956595e-06  5.1846175e-07  2.7771978e-06  1.3405893e+08
   5635000   3.4841421e-10  133710.85      133358.75      251915.25      3.295651e-06   5.1825225e-07  2.7773987e-06  1.3406137e+08
   5636000   3.4847604e-10  133722.82      133369.82      252229.78      3.2956491e-06  5.1800171e-07  2.7776474e-06  1.3406425e+08
   5637000   3.4853787e-10  133737         133382.41      252776.32      3.2956487e-06  5.1770677e-07  2.7779419e-06  1.3406809e+08
   5638000   3.4859971e-10  133725.66      133370.21      253050.98      3.2956625e-06  5.1795617e-07  2.7777064e-06  1.340635e+08 
   5639000   3.4866154e-10  133720.97      133364.37      253432.88      3.2956417e-06  5.1803274e-07  2.777609e-06   1.3405886e+08
   5640000   3.4872337e-10  133749.12      133391.41      253830.7       3.2956363e-06  5.174427e-07   2.7781936e-06  1.3406835e+08
   5641000   3.487852e-10   133746.36      133388.84      253762.28      3.2956258e-06  5.1748957e-07  2.7781363e-06  1.3406627e+08
   5642000   3.4884703e-10  133731.33      133374.24      253602.99      3.2956261e-06  5.1780204e-07  2.7778241e-06  1.340611e+08 
   5643000   3.4890886e-10  133732.45      133377.25      252977.39      3.2956236e-06  5.1777607e-07  2.7778475e-06  1.3406119e+08
   5644000   3.4897069e-10  133735.93      133380.4       253086.28      3.2956149e-06  5.1769526e-07  2.7779197e-06  1.3406188e+08
   5645000   3.4903252e-10  133735.55      133380.23      253018.45      3.2956274e-06  5.1771552e-07  2.7779118e-06  1.3406416e+08
   5646000   3.4909435e-10  133716.51      133361.58      252869.27      3.2956263e-06  5.1810997e-07  2.7775163e-06  1.340585e+08 
   5647000   3.4915618e-10  133720.29      133365.36      252870.52      3.29563e-06    5.1803515e-07  2.7775948e-06  1.3406107e+08
   5648000   3.4921801e-10  133718.43      133364.38      252575.14      3.2956225e-06  5.1806629e-07  2.7775562e-06  1.3406052e+08
   5649000   3.4927984e-10  133710.66      133357.66      252218.71      3.295629e-06   5.182342e-07   2.7773948e-06  1.3405891e+08
   5650000   3.4934167e-10  133716.35      133362.73      252431.13      3.2956325e-06  5.1811952e-07  2.777513e-06   1.3406129e+08
   5651000   3.494035e-10   133732.22      133378.02      252640.24      3.2956399e-06  5.1779737e-07  2.7778426e-06  1.340672e+08 
   5652000   3.4946533e-10  133733.9       133379.32      252771.26      3.295643e-06   5.1776538e-07  2.7778776e-06  1.3406688e+08
   5653000   3.4952716e-10  133713.43      133359.11      252661.19      3.2956405e-06  5.1818806e-07  2.7774524e-06  1.3405944e+08
   5654000   3.4958899e-10  133705.81      133351.07      252794.75      3.295623e-06   5.1832897e-07  2.777294e-06   1.3405551e+08
   5655000   3.4965082e-10  133726.87      133371.62      252983.82      3.2956152e-06  5.1788378e-07  2.7777315e-06  1.3406194e+08
   5656000   3.4971265e-10  133723.88      133367.67      253303.8       3.2956135e-06  5.1794411e-07  2.7776693e-06  1.3405875e+08
   5657000   3.4977448e-10  133734.56      133376         254102.32      3.2956254e-06  5.1773405e-07  2.7778913e-06  1.3406328e+08
   5658000   3.4983631e-10  133743.84      133385.67      253980.21      3.2956254e-06  5.175414e-07   2.778084e-06   1.3406639e+08
   5659000   3.4989814e-10  133736.49      133377.12      254374.28      3.2956249e-06  5.1769351e-07  2.7779314e-06  1.3406265e+08
   5660000   3.4995997e-10  133740.02      133379.18      254868.46      3.2956269e-06  5.1762224e-07  2.7780047e-06  1.3406342e+08
   5661000   3.500218e-10   133725.83      133364.97      254861.81      3.2956177e-06  5.179077e-07   2.77771e-06    1.340576e+08 
   5662000   3.5008363e-10  133713.21      133352.2       254897.76      3.2956309e-06  5.1818321e-07  2.7774477e-06  1.3405541e+08
   5663000   3.5014546e-10  133726.8       133366.58      254649.67      3.29564e-06    5.179099e-07   2.7777301e-06  1.3406297e+08
   5664000   3.502073e-10   133727.28      133367.45      254519.55      3.2956503e-06  5.1791024e-07  2.7777401e-06  1.3406442e+08
   5665000   3.5026913e-10  133726.78      133366.9       254532.19      3.2956559e-06  5.179263e-07   2.7777296e-06  1.3406573e+08
   5666000   3.5033096e-10  133704.97      133343.67      254985.18      3.2956555e-06  5.1837901e-07  2.7772765e-06  1.34058e+08  
   5667000   3.5039279e-10  133722.06      133359.99      255259.53      3.2956551e-06  5.1802356e-07  2.7776316e-06  1.3406485e+08
   5668000   3.5045462e-10  133714.16      133349.98      255957.6       3.2956428e-06  5.1817537e-07  2.7774674e-06  1.3405979e+08
   5669000   3.5051645e-10  133714.97      133350.42      256082.83      3.2956441e-06  5.1815979e-07  2.7774843e-06  1.3405978e+08
   5670000   3.5057828e-10  133725.86      133360.66      256314.22      3.2956372e-06  5.1792665e-07  2.7777106e-06  1.340634e+08 
   5671000   3.5064011e-10  133709.32      133343.68      256442.5       3.2956428e-06  5.1827595e-07  2.7773669e-06  1.3405772e+08
   5672000   3.5070194e-10  133722.61      133357.98      256117.65      3.2956479e-06  5.1800488e-07  2.777643e-06   1.340636e+08 
   5673000   3.5076377e-10  133703.43      133338.76      256114.22      3.2956526e-06  5.1840799e-07  2.7772446e-06  1.3405684e+08
   5674000   3.508256e-10   133705.77      133340.61      256278.32      3.2956434e-06  5.1835017e-07  2.7772932e-06  1.3405751e+08
   5675000   3.5088743e-10  133718.49      133352.33      256626.4       3.2956653e-06  5.1810787e-07  2.7775575e-06  1.3406366e+08
   5676000   3.5094926e-10  133729.18      133361.84      257032.15      3.2956642e-06  5.1788473e-07  2.7777794e-06  1.3406679e+08
   5677000   3.5101109e-10  133732.88      133366.91      256578.43      3.2956573e-06  5.1780093e-07  2.7778564e-06  1.3406681e+08
   5678000   3.5107292e-10  133736.29      133370.88      256394.5       3.29567e-06    5.1774275e-07  2.7779273e-06  1.3406855e+08
   5679000   3.5113475e-10  133725.16      133359.05      256615.46      3.2956711e-06  5.1797524e-07  2.7776959e-06  1.3406388e+08
   5680000   3.5119658e-10  133738.05      133372.13      256565.93      3.2956518e-06  5.1768797e-07  2.7779638e-06  1.340677e+08 
   5681000   3.5125841e-10  133734.28      133368.84      256398.08      3.2956552e-06  5.1776986e-07  2.7778853e-06  1.3406779e+08
   5682000   3.5132024e-10  133725.17      133360.32      256195.69      3.2956681e-06  5.1797187e-07  2.7776963e-06  1.3406579e+08
   5683000   3.5138207e-10  133726.5       133360.97      256425.4       3.2956718e-06  5.1794791e-07  2.7777239e-06  1.3406658e+08
   5684000   3.514439e-10   133718.05      133352.91      256284.05      3.2956687e-06  5.1812041e-07  2.7775483e-06  1.3406311e+08
   5685000   3.5150573e-10  133725.91      133361.66      255996.68      3.2956687e-06  5.179571e-07   2.7777117e-06  1.3406625e+08
   5686000   3.5156756e-10  133719.24      133355.23      255905.96      3.2956533e-06  5.1808031e-07  2.777573e-06   1.3406267e+08
   5687000   3.5162939e-10  133729.16      133367.03      255287.13      3.2956294e-06  5.1785034e-07  2.777779e-06   1.3406412e+08
   5688000   3.5169122e-10  133730.28      133368.08      255313.4       3.2956424e-06  5.1784019e-07  2.7778022e-06  1.3406387e+08
   5689000   3.5175305e-10  133739.83      133376.36      255745.24      3.2956648e-06  5.1766418e-07  2.7780006e-06  1.3406737e+08
   5690000   3.5181489e-10  133745.3       133380.68      256139.14      3.2956534e-06  5.1753899e-07  2.7781144e-06  1.3406765e+08
   5691000   3.5187672e-10  133748.27      133382.44      256544.53      3.2956498e-06  5.1747381e-07  2.778176e-06   1.3406848e+08
   5692000   3.5193855e-10  133738.5       133372.79      256495.33      3.2956353e-06  5.1766224e-07  2.7779731e-06  1.3406432e+08
   5693000   3.5200038e-10  133720.39      133355.32      256264.19      3.2956307e-06  5.1803377e-07  2.777597e-06   1.3405819e+08
   5694000   3.5206221e-10  133720.1       133355.91      255967.36      3.2956285e-06  5.1803766e-07  2.7775909e-06  1.3405776e+08
   5695000   3.5212404e-10  133732.45      133368.52      255893.57      3.2956342e-06  5.1778679e-07  2.7778474e-06  1.3406152e+08
   5696000   3.5218587e-10  133735.55      133372.96      255448.55      3.2956376e-06  5.1772581e-07  2.7779118e-06  1.3406234e+08
   5697000   3.522477e-10   133736.95      133374.69      255339.77      3.2956347e-06  5.1769376e-07  2.7779409e-06  1.3406374e+08
   5698000   3.5230953e-10  133738.89      133378.28      254792.75      3.2956369e-06  5.1765562e-07  2.7779813e-06  1.3406613e+08
   5699000   3.5237136e-10  133729.52      133369.23      254672.04      3.2956385e-06  5.1785197e-07  2.7777865e-06  1.3406382e+08
   5700000   3.5243319e-10  133706.48      133346.61      254511.26      3.2956455e-06  5.1833749e-07  2.777308e-06   1.3405655e+08
   5701000   3.5249502e-10  133720.7       133360.6       254600.8       3.2956377e-06  5.180345e-07   2.7776032e-06  1.3406225e+08
   5702000   3.5255685e-10  133718.82      133359.99      254175.65      3.2956323e-06  5.1806805e-07  2.7775643e-06  1.3406207e+08
   5703000   3.5261868e-10  133715.94      133358.48      253713.71      3.2956313e-06  5.1812692e-07  2.7775044e-06  1.3406085e+08
   5704000   3.5268051e-10  133718.71      133362.28      253374.84      3.2956349e-06  5.1807285e-07  2.7775621e-06  1.3406036e+08
   5705000   3.5274234e-10  133747.39      133391.58      253192.69      3.2956345e-06  5.1747682e-07  2.7781577e-06  1.3406968e+08
   5706000   3.5280417e-10  133733.14      133377.13      253244.71      3.2956197e-06  5.1775792e-07  2.7778617e-06  1.3406233e+08
   5707000   3.52866e-10    133726.51      133369.56      253553.51      3.2956359e-06  5.1791194e-07  2.777724e-06   1.3406148e+08
   5708000   3.5292783e-10  133735.28      133377.07      253983.33      3.295644e-06   5.1773786e-07  2.7779061e-06  1.3406593e+08
   5709000   3.5298966e-10  133723.5       133364.29      254305.84      3.2956326e-06  5.1797117e-07  2.7776615e-06  1.3406121e+08
   5710000   3.5305149e-10  133724.87      133364.99      254531.93      3.2956398e-06  5.1794973e-07  2.77769e-06    1.3406259e+08
   5711000   3.5311332e-10  133720.63      133362.18      254049.37      3.2956316e-06  5.1802962e-07  2.777602e-06   1.3406064e+08
   5712000   3.5317515e-10  133721.32      133362.21      254272.25      3.2956366e-06  5.180203e-07   2.7776163e-06  1.3406131e+08
   5713000   3.5323698e-10  133733.03      133371.57      255067.16      3.2956432e-06  5.1778373e-07  2.7778594e-06  1.3406561e+08
   5714000   3.5329881e-10  133723.88      133361.92      255226.81      3.2956427e-06  5.1797329e-07  2.7776694e-06  1.3406015e+08
   5715000   3.5336064e-10  133745.73      133383.61      255301.3       3.2956431e-06  5.1751987e-07  2.7781232e-06  1.3406711e+08
   5716000   3.5342247e-10  133740.76      133379.18      255116.76      3.2956405e-06  5.1762053e-07  2.77802e-06    1.3406401e+08
   5717000   3.5348431e-10  133742.56      133379.86      255493.46      3.2956309e-06  5.1757348e-07  2.7780574e-06  1.3406377e+08
   5718000   3.5354614e-10  133742.92      133379.74      255652.01      3.2956278e-06  5.1756288e-07  2.7780649e-06  1.3406466e+08
   5719000   3.5360797e-10  133726.62      133362.3       256019.81      3.2956165e-06  5.1789019e-07  2.7777263e-06  1.3405881e+08
   5720000   3.536698e-10   133731.99      133367.94      255932.45      3.2956225e-06  5.1778471e-07  2.7778378e-06  1.3406228e+08
   5721000   3.5373163e-10  133721.2       133356.36      256188.07      3.2956473e-06  5.1803346e-07  2.7776138e-06  1.3406145e+08
   5722000   3.5379346e-10  133718.82      133352.9       256546.86      3.2956587e-06  5.1809438e-07  2.7775644e-06  1.3406315e+08
   5723000   3.5385529e-10  133719.91      133353.46      256725.35      3.2956591e-06  5.1807213e-07  2.777587e-06   1.3406401e+08
   5724000   3.5391712e-10  133728.5       133361.3       256980.62      3.2956618e-06  5.1789653e-07  2.7777653e-06  1.3406764e+08
   5725000   3.5397895e-10  133713.22      133345.86      257022.49      3.2956542e-06  5.1820619e-07  2.777448e-06   1.3406077e+08
   5726000   3.5404078e-10  133715.46      133349.23      256647.37      3.2956677e-06  5.1817317e-07  2.7774946e-06  1.3406219e+08
   5727000   3.5410261e-10  133732.83      133366.41      256725.64      3.2956539e-06  5.1779861e-07  2.7778553e-06  1.3406756e+08
   5728000   3.5416444e-10  133737.63      133371.71      256564.27      3.295661e-06   5.1770595e-07  2.7779551e-06  1.3407002e+08
   5729000   3.5422627e-10  133725.6       133360.84      256165.6       3.2956482e-06  5.1794304e-07  2.7777052e-06  1.3406538e+08
   5730000   3.542881e-10   133719.58      133356         255764.37      3.2956529e-06  5.1807271e-07  2.7775801e-06  1.3406434e+08
   5731000   3.5434993e-10  133715.5       133352.82      255460.59      3.2956485e-06  5.1815313e-07  2.7774954e-06  1.3406276e+08
   5732000   3.5441176e-10  133714.91      133352.13      255491.06      3.2956498e-06  5.1816682e-07  2.777483e-06   1.3406241e+08
   5733000   3.5447359e-10  133720.79      133358.77      255244.53      3.2956518e-06  5.1804662e-07  2.7776052e-06  1.3406425e+08
   5734000   3.5453542e-10  133721.51      133360.23      254994.83      3.2956317e-06  5.1801165e-07  2.7776201e-06  1.3406202e+08
   5735000   3.5459725e-10  133722.69      133363.22      254394.61      3.2956201e-06  5.1797541e-07  2.7776447e-06  1.3406059e+08
   5736000   3.5465908e-10  133717.71      133358.8       254200.04      3.2956204e-06  5.1807917e-07  2.7775412e-06  1.3405764e+08
   5737000   3.5472091e-10  133713.22      133355         253962.95      3.2956223e-06  5.1817443e-07  2.7774479e-06  1.3405564e+08
   5738000   3.5478274e-10  133716         133358.05      253878.75      3.29563e-06    5.1812435e-07  2.7775057e-06  1.3405767e+08
   5739000   3.5484457e-10  133717.94      133360.23      253800.02      3.2956233e-06  5.1807725e-07  2.777546e-06   1.3405861e+08
   5740000   3.549064e-10   133722.04      133364.72      253674.39      3.2956151e-06  5.1798386e-07  2.7776313e-06  1.3405982e+08
   5741000   3.5496823e-10  133724.81      133368.18      253445.92      3.2956275e-06  5.1793875e-07  2.7776888e-06  1.3406165e+08
   5742000   3.5503006e-10  133712.68      133355.91      253479.9       3.2956217e-06  5.1818495e-07  2.7774367e-06  1.3405581e+08
   5743000   3.550919e-10   133728.75      133371.95      253505.47      3.295617e-06   5.1784648e-07  2.7777705e-06  1.3406065e+08
   5744000   3.5515373e-10  133736.3       133380.05      253331.9       3.2956209e-06  5.1769338e-07  2.7779275e-06  1.3406197e+08
   5745000   3.5521556e-10  133749.17      133392.13      253606.54      3.2956257e-06  5.1743088e-07  2.7781948e-06  1.3406566e+08
   5746000   3.5527739e-10  133739.41      133380.61      254185.28      3.2956257e-06  5.1763383e-07  2.7779919e-06  1.3406222e+08
   5747000   3.5533922e-10  133738.75      133379.79      254236.63      3.2956265e-06  5.1764828e-07  2.7779783e-06  1.3406316e+08
   5748000   3.5540105e-10  133728.34      133369.85      254070.99      3.295636e-06   5.1787389e-07  2.7777621e-06  1.3406082e+08
   5749000   3.5546288e-10  133729.03      133372.17      253525.11      3.295631e-06   5.1785463e-07  2.7777763e-06  1.3406191e+08
   5750000   3.5552471e-10  133734.64      133380.91      252483.14      3.2956416e-06  5.1774873e-07  2.7778928e-06  1.3406588e+08
   5751000   3.5558654e-10  133724.82      133370.38      252712.05      3.2956521e-06  5.1796311e-07  2.777689e-06   1.3406463e+08
   5752000   3.5564837e-10  133731.68      133376.46      252981.53      3.295665e-06   5.1783344e-07  2.7778315e-06  1.3406911e+08
   5753000   3.557102e-10   133722.08      133368         252588.51      3.2956717e-06  5.1803979e-07  2.7776319e-06  1.3406587e+08
   5754000   3.5577203e-10  133723.73      133370.63      252263.69      3.295674e-06   5.1800778e-07  2.7776663e-06  1.3406594e+08
   5755000   3.5583386e-10  133731.82      133378.07      252488.18      3.295652e-06   5.1781778e-07  2.7778342e-06  1.3406683e+08
   5756000   3.5589569e-10  133724.44      133370.57      252521.37      3.2956538e-06  5.179727e-07   2.7776811e-06  1.3406333e+08
   5757000   3.5595752e-10  133731.74      133377.96      252500.55      3.2956525e-06  5.1781977e-07  2.7778327e-06  1.3406689e+08
   5758000   3.5601935e-10  133713.95      133359.12      252832.67      3.2956348e-06  5.1817169e-07  2.7774631e-06  1.3406011e+08
   5759000   3.5608118e-10  133707.48      133352.02      253036.93      3.2956449e-06  5.1831616e-07  2.7773288e-06  1.3405983e+08
   5760000   3.5614301e-10  133709.45      133354.88      252742.83      3.295644e-06   5.1827422e-07  2.7773698e-06  1.3406114e+08
   5761000   3.5620484e-10  133718.8       133364.52      252654.56      3.2956446e-06  5.1808077e-07  2.7775639e-06  1.3406434e+08
   5762000   3.5626667e-10  133737.53      133383.52      252582.24      3.2956384e-06  5.176855e-07   2.7779529e-06  1.3406872e+08
   5763000   3.563285e-10   133734.62      133382.02      252107.18      3.295633e-06   5.1774057e-07  2.7778925e-06  1.3406461e+08
   5764000   3.5639033e-10  133726.74      133374.71      251908.99      3.2956267e-06  5.1789797e-07  2.7777287e-06  1.3405975e+08
   5765000   3.5645216e-10  133738.9       133386.02      252207.34      3.2956228e-06  5.1764133e-07  2.7779815e-06  1.3406389e+08
   5766000   3.5651399e-10  133729.42      133376.6       252174.5       3.2956128e-06  5.178284e-07   2.7777844e-06  1.3406005e+08
   5767000   3.5657582e-10  133730.61      133378.69      251875.65      3.2956225e-06  5.178132e-07   2.7778093e-06  1.3406082e+08
   5768000   3.5663765e-10  133736.82      133385.03      251839.07      3.2956138e-06  5.176756e-07   2.7779382e-06  1.3406109e+08
   5769000   3.5669949e-10  133738.37      133386.75      251784.05      3.2956105e-06  5.1764003e-07  2.7779705e-06  1.340606e+08 
   5770000   3.5676132e-10  133734.55      133384.56      251234.13      3.2956043e-06  5.1771322e-07  2.777891e-06   1.3405777e+08
   5771000   3.5682315e-10  133739.34      133388.89      251392.26      3.2956169e-06  5.1762636e-07  2.7779906e-06  1.3406095e+08
   5772000   3.5688498e-10  133738.62      133387.45      251633.19      3.2956241e-06  5.176486e-07   2.7779755e-06  1.3406314e+08
   5773000   3.5694681e-10  133725.9       133375.02      251521.52      3.2956358e-06  5.1792449e-07  2.7777113e-06  1.3406132e+08
   5774000   3.5700864e-10  133723.16      133371.14      251903.23      3.2956441e-06  5.179896e-07   2.7776545e-06  1.3406208e+08
   5775000   3.5707047e-10  133725.47      133371.32      252613.81      3.2956532e-06  5.1795091e-07  2.7777023e-06  1.3406374e+08
   5776000   3.571323e-10   133731.18      133376.59      252769.01      3.2956465e-06  5.1782552e-07  2.777821e-06   1.3406523e+08
   5777000   3.5719413e-10  133731.26      133377.8       252392.79      3.2956412e-06  5.1781847e-07  2.7778227e-06  1.3406424e+08
   5778000   3.5725596e-10  133737.92      133385.1       252183.66      3.2956491e-06  5.1768804e-07  2.777961e-06   1.3406704e+08
   5779000   3.5731779e-10  133730.51      133377.2       252342.57      3.2956439e-06  5.1783672e-07  2.7778072e-06  1.340637e+08 
   5780000   3.5737962e-10  133721.3       133369.46      251839.96      3.295658e-06   5.1804224e-07  2.7776157e-06  1.3406111e+08
   5781000   3.5744145e-10  133728.59      133379.08      251068.39      3.2956765e-06  5.1790925e-07  2.7777672e-06  1.340654e+08 
   5782000   3.5750328e-10  133732.34      133383.67      250790.89      3.2956565e-06  5.1781142e-07  2.7778451e-06  1.3406548e+08
   5783000   3.5756511e-10  133729.65      133382.56      250260.86      3.2956487e-06  5.1785944e-07  2.7777893e-06  1.3406442e+08
   5784000   3.5762694e-10  133723.51      133376.17      250338.83      3.2956586e-06  5.1799679e-07  2.7776618e-06  1.340628e+08 
   5785000   3.5768877e-10  133732.58      133385.04      250410.89      3.2956512e-06  5.1780113e-07  2.7778501e-06  1.3406564e+08
   5786000   3.577506e-10   133745.15      133397.58      250436.55      3.2956498e-06  5.1753863e-07  2.7781112e-06  1.3407022e+08
   5787000   3.5781243e-10  133746.35      133400.01      250023.43      3.2956448e-06  5.1750863e-07  2.7781361e-06  1.3406951e+08
   5788000   3.5787426e-10  133744.5       133398.19      250013.23      3.2956373e-06  5.1753949e-07  2.7780978e-06  1.3406729e+08
   5789000   3.5793609e-10  133728.97      133383.91      249578.55      3.2956342e-06  5.178591e-07   2.7777751e-06  1.3406069e+08
   5790000   3.5799792e-10  133718.97      133375.99      248875.53      3.2956409e-06  5.1807347e-07  2.7775674e-06  1.3405813e+08
   5791000   3.5805975e-10  133718.56      133377.16      248345.32      3.2956239e-06  5.1806493e-07  2.777559e-06   1.3405821e+08
   5792000   3.5812158e-10  133717.54      133377.03      248045.71      3.295624e-06   5.1808638e-07  2.7775377e-06  1.3405818e+08
   5793000   3.5818341e-10  133734.92      133394.7       247966.09      3.2956247e-06  5.1772608e-07  2.7778986e-06  1.3406402e+08
   5794000   3.5824524e-10  133742.22      133400.95      248324.89      3.2956367e-06  5.1758639e-07  2.7780503e-06  1.3406697e+08
   5795000   3.5830708e-10  133740.27      133398.4       248525.61      3.2956258e-06  5.1761592e-07  2.7780099e-06  1.3406526e+08
   5796000   3.5836891e-10  133737.56      133395.68      248524.56      3.2956278e-06  5.1767418e-07  2.7779536e-06  1.3406358e+08
   5797000   3.5843074e-10  133731.04      133387.87      248950.58      3.2956245e-06  5.1780642e-07  2.7778181e-06  1.3406146e+08
   5798000   3.5849257e-10  133731.21      133388.29      248865.34      3.2956287e-06  5.1780713e-07  2.7778216e-06  1.3406419e+08
   5799000   3.585544e-10   133727.39      133384.39      248888.25      3.29564e-06    5.1789777e-07  2.7777422e-06  1.3406505e+08
   5800000   3.5861623e-10  133726.58      133383.12      249044.62      3.2956405e-06  5.1791494e-07  2.7777256e-06  1.3406477e+08
   5801000   3.5867806e-10  133717.59      133372.36      249623.89      3.2956452e-06  5.1810643e-07  2.7775387e-06  1.3406152e+08
   5802000   3.5873989e-10  133713.25      133366.24      250215.88      3.2956484e-06  5.1819984e-07  2.7774486e-06  1.3405965e+08
   5803000   3.5880172e-10  133712.76      133364.5       250635.54      3.2956441e-06  5.182056e-07   2.7774385e-06  1.3405847e+08
   5804000   3.5886355e-10  133713.32      133365.72      250413.14      3.2956332e-06  5.1818319e-07  2.77745e-06    1.3405695e+08
   5805000   3.5892538e-10  133733.38      133385.71      250457.73      3.2956255e-06  5.177588e-07   2.7778667e-06  1.3406383e+08
   5806000   3.5898721e-10  133722.7       133374.26      250704.65      3.2956263e-06  5.179814e-07   2.7776449e-06  1.3406017e+08
   5807000   3.5904904e-10  133716.76      133366.66      251253.19      3.295647e-06   5.1812545e-07  2.7775216e-06  1.3406037e+08
   5808000   3.5911087e-10  133719.49      133369.69      251153.79      3.2956564e-06  5.1807831e-07  2.7775781e-06  1.3406237e+08
   5809000   3.591727e-10   133723.48      133375.45      250567.28      3.2956506e-06  5.1798954e-07  2.7776611e-06  1.3406234e+08
   5810000   3.5923453e-10  133732.58      133384.36      250642.62      3.2956531e-06  5.178029e-07   2.7778502e-06  1.3406562e+08
   5811000   3.5929636e-10  133729.37      133380.12      250983.07      3.2956551e-06  5.1787162e-07  2.7777835e-06  1.3406462e+08
   5812000   3.5935819e-10  133725.47      133377.26      250629.36      3.2956424e-06  5.1794002e-07  2.7777024e-06  1.3406347e+08
   5813000   3.5942002e-10  133719.29      133370.33      250874.08      3.2956558e-06  5.1808167e-07  2.7775741e-06  1.3406366e+08
   5814000   3.5948185e-10  133712.77      133365.48      250308.57      3.2956601e-06  5.1822158e-07  2.7774385e-06  1.3406278e+08
   5815000   3.5954368e-10  133707.94      133362.54      249673.49      3.2956687e-06  5.1833034e-07  2.7773384e-06  1.3406137e+08
   5816000   3.5960551e-10  133718.39      133371.88      250054.2       3.2956544e-06  5.1809907e-07  2.7775554e-06  1.3406312e+08
   5817000   3.5966734e-10  133725.7       133379.79      249860.25      3.2956544e-06  5.1794722e-07  2.7777072e-06  1.3406341e+08
   5818000   3.5972917e-10  133734.92      133389.81      249603.12      3.2956519e-06  5.1775307e-07  2.7778988e-06  1.3406526e+08
   5819000   3.59791e-10    133731.73      133386.63      249594.41      3.2956525e-06  5.1782009e-07  2.7778324e-06  1.3406389e+08
   5820000   3.5985283e-10  133739.88      133394.46      249711.26      3.2956572e-06  5.1765548e-07  2.7780017e-06  1.3406794e+08
   5821000   3.5991467e-10  133720.81      133376.03      249480.25      3.2956342e-06  5.1802845e-07  2.7776057e-06  1.340586e+08 
   5822000   3.599765e-10   133734.26      133389.76      249395.91      3.2956136e-06  5.1772868e-07  2.777885e-06   1.3406259e+08
   5823000   3.6003833e-10  133728.91      133383.94      249551.4       3.295612e-06   5.1783801e-07  2.777774e-06   1.3406066e+08
   5824000   3.6010016e-10  133719.03      133374.54      249381.02      3.2956188e-06  5.1805002e-07  2.7775688e-06  1.3405749e+08
   5825000   3.6016199e-10  133725.11      133382.63      248715.6       3.2956189e-06  5.1792385e-07  2.777695e-06   1.3406007e+08
   5826000   3.6022382e-10  133711.84      133369.94      248505.6       3.2956266e-06  5.1820723e-07  2.7774194e-06  1.3405579e+08
   5827000   3.6028565e-10  133731.2       133390.59      248095.19      3.2956384e-06  5.1781695e-07  2.7778215e-06  1.3406416e+08
   5828000   3.6034748e-10  133732.22      133392.96      247643.22      3.2956584e-06  5.1781572e-07  2.7778427e-06  1.340665e+08 
   5829000   3.6040931e-10  133731.32      133392         247660.5       3.2956545e-06  5.1783062e-07  2.7778239e-06  1.3406629e+08
   5830000   3.6047114e-10  133728.22      133388.24      247879         3.2956404e-06  5.1788089e-07  2.7777595e-06  1.3406433e+08
   5831000   3.6053297e-10  133724.84      133386.9       247196.21      3.2956405e-06  5.1795114e-07  2.7776894e-06  1.3406335e+08
   5832000   3.605948e-10   133733.57      133395.64      247200.77      3.295639e-06   5.1776832e-07  2.7778707e-06  1.340663e+08 
   5833000   3.6065663e-10  133723.54      133384.89      247428.52      3.2956442e-06  5.1798199e-07  2.7776622e-06  1.3406245e+08
   5834000   3.6071846e-10  133720.95      133381.57      247673.05      3.2956395e-06  5.180309e-07   2.7776086e-06  1.3405998e+08
   5835000   3.6078029e-10  133740.75      133401.82      247542.38      3.2956355e-06  5.1761574e-07  2.7780198e-06  1.3406591e+08
   5836000   3.6084212e-10  133739.94      133400.26      247793.02      3.2956387e-06  5.1763571e-07  2.778003e-06   1.3406536e+08
   5837000   3.6090395e-10  133734.45      133394.62      247836.39      3.2956513e-06  5.1776223e-07  2.777889e-06   1.3406432e+08
   5838000   3.6096578e-10  133722.74      133381.97      248138.79      3.295646e-06   5.1800027e-07  2.7776457e-06  1.3406003e+08
   5839000   3.6102761e-10  133718.21      133378.08      247919.28      3.2956555e-06  5.18104e-07    2.7775515e-06  1.3406009e+08
   5840000   3.6108944e-10  133710.21      133368.62      248400.33      3.2956444e-06  5.1825903e-07  2.7773854e-06  1.3405735e+08
   5841000   3.6115127e-10  133718         133376.96      248225.5       3.2956453e-06  5.1809798e-07  2.7775473e-06  1.340611e+08 
   5842000   3.612131e-10   133716.52      133375.14      248336.04      3.2956508e-06  5.1813419e-07  2.7775166e-06  1.3406125e+08
   5843000   3.6127493e-10  133730.68      133389.9       248149.2       3.2956404e-06  5.1782973e-07  2.7778106e-06  1.3406596e+08
   5844000   3.6133676e-10  133738.01      133397.89      247936.91      3.2956431e-06  5.1768017e-07  2.7779629e-06  1.3406767e+08
   5845000   3.6139859e-10  133735.44      133393.35      248593.99      3.2956349e-06  5.1772538e-07  2.7779095e-06  1.3406484e+08
   5846000   3.6146042e-10  133738.25      133395.35      248866.89      3.2956233e-06  5.1765545e-07  2.7779679e-06  1.3406378e+08
   5847000   3.6152226e-10  133732.74      133390.78      248544.45      3.2956212e-06  5.1776781e-07  2.7778534e-06  1.3406034e+08
   5848000   3.6158409e-10  133734.53      133394.28      247976.89      3.2955987e-06  5.1770815e-07  2.7778906e-06  1.3405919e+08
   5849000   3.6164592e-10  133723.88      133384.67      247618.56      3.2955995e-06  5.1793005e-07  2.7776694e-06  1.3405524e+08
   5850000   3.6170775e-10  133744.71      133404.73      247897.22      3.2956101e-06  5.1750798e-07  2.7781021e-06  1.3406454e+08
   5851000   3.6176958e-10  133742.27      133401.3       248226.04      3.2956226e-06  5.1757118e-07  2.7780514e-06  1.3406436e+08
   5852000   3.6183141e-10  133745.53      133404.89      248119.33      3.2956376e-06  5.1751843e-07  2.7781191e-06  1.3406709e+08
   5853000   3.6189324e-10  133741.63      133400.84      248165.87      3.2956434e-06  5.176052e-07   2.7780382e-06  1.3406605e+08
   5854000   3.6195507e-10  133733.66      133394.2       247708.31      3.295642e-06   5.1776956e-07  2.7778724e-06  1.3406362e+08
   5855000   3.620169e-10   133717.2       133378.03      247596.62      3.2956246e-06  5.1809406e-07  2.7775306e-06  1.3405647e+08
   5856000   3.6207873e-10  133729.19      133389.46      247799.48      3.2956221e-06  5.1784239e-07  2.7777797e-06  1.340611e+08 
   5857000   3.6214056e-10  133729.65      133390.06      247752.52      3.2956365e-06  5.1784728e-07  2.7777892e-06  1.3406194e+08
   5858000   3.6220239e-10  133720.36      133380.06      247978.9       3.2956462e-06  5.1804997e-07  2.7775963e-06  1.340597e+08 
   5859000   3.6226422e-10  133719.34      133379.51      247822.8       3.2956358e-06  5.1806065e-07  2.7775752e-06  1.3405977e+08
   5860000   3.6232605e-10  133710.44      133372.5       247180.1       3.2956263e-06  5.1823601e-07  2.7773903e-06  1.3405655e+08
   5861000   3.6238788e-10  133724.21      133388.14      246567.55      3.2956253e-06  5.1794907e-07  2.7776762e-06  1.3406256e+08
   5862000   3.6244971e-10  133709.12      133372.81      246630.22      3.2956244e-06  5.1826172e-07  2.7773627e-06  1.3405643e+08
   5863000   3.6251154e-10  133712.53      133376.03      246701.3       3.29564e-06    5.1820635e-07  2.7774337e-06  1.3405858e+08
   5864000   3.6257337e-10  133718.29      133382.51      246463.55      3.2956521e-06  5.1809879e-07  2.7775533e-06  1.3406179e+08
   5865000   3.626352e-10   133718.89      133384.27      246078.06      3.2956761e-06  5.181102e-07   2.7775658e-06  1.3406406e+08
   5866000   3.6269703e-10  133714.84      133380.89      245848.31      3.2956631e-06  5.1818145e-07  2.7774816e-06  1.3406165e+08
   5867000   3.6275886e-10  133723.24      133390.5       245454.17      3.295643e-06   5.1798696e-07  2.7776561e-06  1.3406343e+08
   5868000   3.6282069e-10  133738.04      133405.29      245470.04      3.2956453e-06  5.1768182e-07  2.7779635e-06  1.3406932e+08
   5869000   3.6288252e-10  133729.18      133397.79      245007.93      3.2956425e-06  5.1786309e-07  2.7777794e-06  1.3406544e+08
   5870000   3.6294435e-10  133715.57      133384.75      244803.86      3.2956412e-06  5.1814444e-07  2.7774968e-06  1.3405883e+08
   5871000   3.6300618e-10  133727.18      133394.98      245277.81      3.2956302e-06  5.1789214e-07  2.777738e-06   1.3406089e+08
   5872000   3.6306801e-10  133738.34      133406.3       245232.83      3.2956116e-06  5.1764198e-07  2.7779697e-06  1.3406329e+08
   5873000   3.6312985e-10  133745.74      133415.22      244735.37      3.2956211e-06  5.1749756e-07  2.7781236e-06  1.3406739e+08
   5874000   3.6319168e-10  133731.53      133401.7       244485.75      3.2956239e-06  5.177957e-07   2.7778282e-06  1.3406266e+08
   5875000   3.6325351e-10  133727.89      133399.73      243924.88      3.295632e-06   5.1787932e-07  2.7777526e-06  1.3406186e+08
   5876000   3.6331534e-10  133713.92      133388.58      242968.93      3.295635e-06   5.1817251e-07  2.7774625e-06  1.3405742e+08
   5877000   3.6337717e-10  133730.8       133405.74      242892.44      3.2956204e-06  5.1780717e-07  2.7778132e-06  1.3406331e+08
   5878000   3.63439e-10    133719.87      133394.31      243050.8       3.2956214e-06  5.1803523e-07  2.7775862e-06  1.3405954e+08
   5879000   3.6350083e-10  133713.07      133387.84      242932.84      3.2956242e-06  5.1817933e-07  2.7774449e-06  1.3405717e+08
   5880000   3.6356266e-10  133711.43      133386.45      242847.89      3.295629e-06   5.1821823e-07  2.7774108e-06  1.3405623e+08
   5881000   3.6362449e-10  133716.54      133390.12      243334.64      3.2956506e-06  5.1813357e-07  2.777517e-06   1.3405906e+08
   5882000   3.6368632e-10  133721.96      133394.86      243567.03      3.2956438e-06  5.1801414e-07  2.7776296e-06  1.3406083e+08
   5883000   3.6374815e-10  133709.23      133383.23      243185.77      3.2956245e-06  5.1825933e-07  2.7773651e-06  1.3405494e+08
   5884000   3.6380998e-10  133732.52      133406.7       243147.34      3.2956222e-06  5.1777343e-07  2.7778488e-06  1.3406294e+08
   5885000   3.6387181e-10  133733.39      133407.35      243222.38      3.2956182e-06  5.1775126e-07  2.7778669e-06  1.3406217e+08
   5886000   3.6393364e-10  133722.91      133397.4       243034.86      3.2956192e-06  5.1797002e-07  2.7776492e-06  1.3405807e+08
   5887000   3.6399547e-10  133721.48      133394.77      243436.68      3.2956192e-06  5.1799953e-07  2.7776196e-06  1.3405743e+08
   5888000   3.640573e-10   133736.12      133408.94      243604.83      3.2956356e-06  5.1771199e-07  2.7779236e-06  1.3406527e+08
   5889000   3.6411913e-10  133720.78      133392.78      243866.7       3.2956314e-06  5.1802639e-07  2.777605e-06   1.3406042e+08
   5890000   3.6418096e-10  133719.68      133389.97      244436.62      3.2956423e-06  5.1806004e-07  2.7775823e-06  1.3406132e+08
   5891000   3.6424279e-10  133729.03      133397.04      245207.86      3.2956425e-06  5.1786614e-07  2.7777764e-06  1.3406462e+08
   5892000   3.6430462e-10  133726.7       133392.74      245863.48      3.295649e-06   5.1792101e-07  2.7777279e-06  1.3406407e+08
   5893000   3.6436645e-10  133727.31      133392.06      246297.8       3.295652e-06   5.1791136e-07  2.7777406e-06  1.3406404e+08
   5894000   3.6442828e-10  133739.53      133403.2       246669.93      3.2956521e-06  5.1765757e-07  2.7779945e-06  1.3406852e+08
   5895000   3.6449011e-10  133736.43      133398.09      247340.84      3.2956518e-06  5.1772174e-07  2.7779301e-06  1.3406729e+08
   5896000   3.6455194e-10  133745.75      133407.3       247387.18      3.2956617e-06  5.1753799e-07  2.7781237e-06  1.340717e+08 
   5897000   3.6461377e-10  133724.87      133386.11      247471.44      3.2956635e-06  5.179735e-07   2.77769e-06    1.3406406e+08
   5898000   3.646756e-10   133724.79      133385.16      247757.44      3.2956498e-06  5.1796161e-07  2.7776882e-06  1.3406279e+08
   5899000   3.6473744e-10  133720.62      133379.78      248158.16      3.2956569e-06  5.1805528e-07  2.7776016e-06  1.3406076e+08
   5900000   3.6479927e-10  133740.53      133399.12      248370.85      3.2956547e-06  5.1763941e-07  2.7780153e-06  1.3406826e+08
   5901000   3.648611e-10   133722.62      133382.07      248067.33      3.2956568e-06  5.180135e-07   2.7776433e-06  1.3406208e+08
   5902000   3.6492293e-10  133731.75      133390.82      248201.78      3.295638e-06   5.1780507e-07  2.7778329e-06  1.3406423e+08
   5903000   3.6498476e-10  133722.44      133381.02      248355.72      3.2956413e-06  5.1800183e-07  2.7776395e-06  1.3406022e+08
   5904000   3.6504659e-10  133722.79      133380.65      248598.03      3.2956503e-06  5.1800344e-07  2.7776468e-06  1.3405971e+08
   5905000   3.6510842e-10  133738.38      133396.46      248540.26      3.2956553e-06  5.1768472e-07  2.7779706e-06  1.3406596e+08
   5906000   3.6517025e-10  133722.17      133380.76      248353.9       3.2956433e-06  5.1800932e-07  2.777634e-06   1.3405881e+08
   5907000   3.6523208e-10  133740.66      133397.15      249073.35      3.2956397e-06  5.1762178e-07  2.7780179e-06  1.3406656e+08
   5908000   3.6529391e-10  133725         133380.96      249236.49      3.295654e-06   5.1796125e-07  2.7776927e-06  1.3406241e+08
   5909000   3.6535574e-10  133733.5       133389.2       249331.67      3.2956535e-06  5.1778422e-07  2.7778693e-06  1.3406717e+08
   5910000   3.6541757e-10  133732.64      133389.68      248882.73      3.2956598e-06  5.1780837e-07  2.7778514e-06  1.3406897e+08
   5911000   3.654794e-10   133722.81      133379.42      249017.98      3.2956629e-06  5.180156e-07   2.7776473e-06  1.3406588e+08
   5912000   3.6554123e-10  133727.53      133383.1       249367.83      3.295661e-06   5.1791567e-07  2.7777453e-06  1.3406744e+08
   5913000   3.6560306e-10  133724.97      133379.16      249826.64      3.2956681e-06  5.1797602e-07  2.7776921e-06  1.3406593e+08
   5914000   3.6566489e-10  133726.21      133380.67      249738.18      3.2956585e-06  5.1794063e-07  2.7777178e-06  1.3406446e+08
   5915000   3.6572672e-10  133734.12      133387.68      250045.42      3.2956524e-06  5.1777036e-07  2.777882e-06   1.3406622e+08
   5916000   3.6578855e-10  133743.82      133397.87      249891.75      3.2956568e-06  5.1757323e-07  2.7780836e-06  1.3407063e+08
   5917000   3.6585038e-10  133730.68      133386.59      249258.24      3.29566e-06    5.1784928e-07  2.7778107e-06  1.3406747e+08
   5918000   3.6591221e-10  133695.47      133353.08      248652.88      3.2956486e-06  5.1856931e-07  2.7770792e-06  1.3405479e+08
   5919000   3.6597404e-10  133718.08      133377.45      248089.1       3.2956495e-06  5.1810054e-07  2.777549e-06   1.3406334e+08
   5920000   3.6603587e-10  133726.3       133386.99      247653.65      3.2956572e-06  5.1793749e-07  2.7777197e-06  1.3406479e+08
   5921000   3.660977e-10   133733.21      133394.62      247418.8       3.2956474e-06  5.1778423e-07  2.7778632e-06  1.340645e+08 
   5922000   3.6615953e-10  133741.47      133403.76      247134.07      3.2956458e-06  5.1761108e-07  2.7780348e-06  1.3406676e+08
   5923000   3.6622136e-10  133732.56      133394.08      247381.69      3.2956356e-06  5.177859e-07   2.7778497e-06  1.3406277e+08
   5924000   3.6628319e-10  133724.71      133385.48      247624.31      3.2956383e-06  5.1795172e-07  2.7776865e-06  1.3406005e+08
   5925000   3.6634503e-10  133739.77      133400.19      247759.81      3.29563e-06    5.1763046e-07  2.7779996e-06  1.3406597e+08
   5926000   3.6640686e-10  133732.42      133392.44      247885.24      3.2956328e-06  5.1778601e-07  2.7778468e-06  1.3406374e+08
   5927000   3.6646869e-10  133741.51      133403.27      247313.23      3.2956668e-06  5.1763106e-07  2.7780357e-06  1.3407026e+08
   5928000   3.6653052e-10  133731.57      133395.9       246440.98      3.2956587e-06  5.1782963e-07  2.7778291e-06  1.3406596e+08
   5929000   3.6659235e-10  133733.46      133398.42      246233.33      3.2956448e-06  5.1777633e-07  2.7778685e-06  1.3406598e+08
   5930000   3.6665418e-10  133724.91      133390.95      245861.8       3.2956526e-06  5.1796183e-07  2.7776907e-06  1.3406372e+08
   5931000   3.6671601e-10  133716.29      133382.1       245932.66      3.295642e-06   5.1813031e-07  2.7775117e-06  1.3406046e+08
   5932000   3.6677784e-10  133724.34      133389.99      245990.81      3.2956364e-06  5.1795753e-07  2.7776789e-06  1.3406335e+08
   5933000   3.6683967e-10  133724.5       133388.66      246491.75      3.2956307e-06  5.1794838e-07  2.7776823e-06  1.3406215e+08
   5934000   3.669015e-10   133716.16      133379.79      246661.42      3.2956183e-06  5.1810922e-07  2.7775091e-06  1.3405714e+08
   5935000   3.6696333e-10  133712.98      133377.73      246280.55      3.2956195e-06  5.1817665e-07  2.7774429e-06  1.3405545e+08
   5936000   3.6702516e-10  133724.66      133390.55      245914.95      3.2956135e-06  5.1792782e-07  2.7776857e-06  1.340596e+08 
   5937000   3.6708699e-10  133727.81      133394.68      245586.68      3.2956178e-06  5.1786686e-07  2.777751e-06   1.340605e+08 
   5938000   3.6714882e-10  133744.03      133408.77      246318.92      3.2956156e-06  5.1752765e-07  2.778088e-06   1.3406561e+08
   5939000   3.6721065e-10  133734.62      133399.5       246258.55      3.2956427e-06  5.1775026e-07  2.7778924e-06  1.3406366e+08
   5940000   3.6727248e-10  133741.1       133406.77      246002.61      3.2956364e-06  5.1760932e-07  2.778027e-06   1.340666e+08 
   5941000   3.6733431e-10  133715.01      133379.78      246277.96      3.2956457e-06  5.1816049e-07  2.7774852e-06  1.3405785e+08
   5942000   3.6739614e-10  133721.47      133387.1       245997.35      3.2956341e-06  5.1801475e-07  2.7776194e-06  1.3406125e+08
   5943000   3.6745797e-10  133718.9       133383.74      246258.06      3.2956474e-06  5.1808152e-07  2.7775659e-06  1.3406268e+08
   5944000   3.675198e-10   133717.76      133381.97      246466.47      3.2956461e-06  5.1810392e-07  2.7775422e-06  1.3406253e+08
   5945000   3.6758163e-10  133702.86      133366.86      246523.88      3.2956496e-06  5.1841669e-07  2.7772329e-06  1.3405719e+08
   5946000   3.6764346e-10  133716.26      133380.7       246391.69      3.2956398e-06  5.1812857e-07  2.7775112e-06  1.3406161e+08
   5947000   3.6770529e-10  133716.47      133379.74      246782.87      3.2956339e-06  5.1811841e-07  2.7775155e-06  1.340612e+08 
   5948000   3.6776712e-10  133710.98      133372.64      247315.54      3.2956355e-06  5.1823402e-07  2.7774014e-06  1.3405892e+08
   5949000   3.6782895e-10  133711.42      133371.55      247825.64      3.2956428e-06  5.1823217e-07  2.7774106e-06  1.3405948e+08
   5950000   3.6789078e-10  133709.55      133371         247382.24      3.295649e-06   5.182773e-07   2.7773717e-06  1.3405925e+08
   5951000   3.6795262e-10  133714.91      133378.98      246511.54      3.2956626e-06  5.1817953e-07  2.777483e-06   1.340623e+08 
   5952000   3.6801445e-10  133728.32      133393.59      246126.07      3.2956623e-06  5.1790061e-07  2.7777617e-06  1.3406812e+08
   5953000   3.6807628e-10  133719.8       133385.79      245875.02      3.295642e-06   5.1805735e-07  2.7775846e-06  1.3406343e+08
   5954000   3.6813811e-10  133727.21      133393.55      245765.52      3.2956344e-06  5.1789584e-07  2.7777385e-06  1.3406529e+08
   5955000   3.6819994e-10  133702.55      133369.4       245571.15      3.2956308e-06  5.184044e-07   2.7772264e-06  1.3405516e+08
   5956000   3.6826177e-10  133715.75      133383.8       245182.2       3.2956298e-06  5.1812934e-07  2.7775004e-06  1.340599e+08 
   5957000   3.683236e-10   133727.38      133395.92      245029.47      3.2956335e-06  5.1789129e-07  2.7777422e-06  1.3406399e+08
   5958000   3.6838543e-10  133715.17      133382.93      245276.17      3.2956514e-06  5.1816294e-07  2.7774884e-06  1.3406028e+08
   5959000   3.6844726e-10  133721.92      133389.47      245353.57      3.2956572e-06  5.1802858e-07  2.7776286e-06  1.3406402e+08
   5960000   3.6850909e-10  133721.81      133387.92      245834.7       3.295643e-06   5.1801662e-07  2.7776263e-06  1.340628e+08 
   5961000   3.6857092e-10  133700.05      133365.58      246008.74      3.2956431e-06  5.1846872e-07  2.7771744e-06  1.3405397e+08
   5962000   3.6863275e-10  133728.22      133393.56      246101.72      3.2956382e-06  5.1787869e-07  2.7777595e-06  1.340637e+08 
   5963000   3.6869458e-10  133735.43      133399.99      246370.63      3.2956523e-06  5.177429e-07   2.7779094e-06  1.3406728e+08
   5964000   3.6875641e-10  133735.18      133399.16      246561.56      3.2956434e-06  5.1773929e-07  2.7779041e-06  1.3406676e+08
   5965000   3.6881824e-10  133727.23      133391.95      246306.74      3.2956385e-06  5.1789945e-07  2.777739e-06   1.340639e+08 
   5966000   3.6888007e-10  133717.66      133382.49      246257.9       3.2956213e-06  5.1808121e-07  2.7775401e-06  1.34059e+08  
   5967000   3.689419e-10   133719.01      133383.71      246304.26      3.29563e-06    5.1806182e-07  2.7775682e-06  1.3405977e+08
   5968000   3.6900373e-10  133717.52      133382.12      246338.54      3.2956328e-06  5.1809555e-07  2.7775373e-06  1.3405886e+08
   5969000   3.6906556e-10  133721.29      133386.44      246154.54      3.295635e-06   5.1801951e-07  2.7776155e-06  1.3406016e+08
   5970000   3.6912739e-10  133730.43      133395.12      246321.19      3.2956301e-06  5.1782469e-07  2.7778054e-06  1.3406345e+08
   5971000   3.6918922e-10  133732.23      133397.28      246202.13      3.2956455e-06  5.1780254e-07  2.7778429e-06  1.3406589e+08
   5972000   3.6925105e-10  133733.68      133400.25      245693.07      3.2956635e-06  5.1779057e-07  2.7778729e-06  1.3406825e+08
   5973000   3.6931288e-10  133718.11      133385.59      245374.65      3.2956398e-06  5.1809024e-07  2.7775495e-06  1.3405927e+08
   5974000   3.6937471e-10  133735.47      133404.29      244943.63      3.2956425e-06  5.1773241e-07  2.7779101e-06  1.3406508e+08
   5975000   3.6943654e-10  133732.99      133403.46      244386.94      3.2956497e-06  5.1779117e-07  2.7778586e-06  1.3406469e+08
   5976000   3.6949837e-10  133732.47      133403.34      244254.21      3.2956503e-06  5.1780248e-07  2.7778478e-06  1.3406622e+08
   5977000   3.6956021e-10  133718.8       133390.94      243816.76      3.2956419e-06  5.180781e-07   2.7775638e-06  1.3406214e+08
   5978000   3.6962204e-10  133711.29      133383.74      243705.87      3.295641e-06   5.18233e-07    2.777408e-06   1.3406054e+08
   5979000   3.6968387e-10  133696.06      133368.36      243738.23      3.29566e-06    5.1856854e-07  2.7770915e-06  1.3405699e+08
   5980000   3.697457e-10   133693.19      133366.2       243498.23      3.2956569e-06  5.1862507e-07  2.7770318e-06  1.3405543e+08
   5981000   3.6980753e-10  133700.66      133372.93      243757.44      3.2956679e-06  5.1848083e-07  2.7771871e-06  1.3405826e+08
   5982000   3.6986936e-10  133732.69      133405.45      243621.85      3.2956796e-06  5.1782727e-07  2.7778524e-06  1.3407131e+08
   5983000   3.6993119e-10  133728.2       133402.52      243098.9       3.2956884e-06  5.1792916e-07  2.7777592e-06  1.3407036e+08
   5984000   3.6999302e-10  133716.95      133392.34      242725.82      3.2956826e-06  5.1815723e-07  2.7775254e-06  1.3406633e+08
   5985000   3.7005485e-10  133721.63      133395.85      243123.56      3.2956811e-06  5.1805846e-07  2.7776226e-06  1.3406898e+08
   5986000   3.7011668e-10  133706.15      133380.94      242916.08      3.2956531e-06  5.1835202e-07  2.777301e-06   1.3406085e+08
   5987000   3.7017851e-10  133713.84      133386.79      243543.92      3.2956452e-06  5.1818427e-07  2.7774609e-06  1.3406162e+08
   5988000   3.7024034e-10  133722.31      133396.94      242985.64      3.2956559e-06  5.1801916e-07  2.7776367e-06  1.3406416e+08
   5989000   3.7030217e-10  133716.96      133391.95      242862.59      3.2956477e-06  5.1812208e-07  2.7775257e-06  1.3406048e+08
   5990000   3.70364e-10    133726.71      133401.81      242832.98      3.2956283e-06  5.1790022e-07  2.7777281e-06  1.3406225e+08
   5991000   3.7042583e-10  133714.48      133389.93      242704.99      3.2956245e-06  5.1815033e-07  2.7774741e-06  1.3405653e+08
   5992000   3.7048766e-10  133743.09      133420         242247.02      3.2956224e-06  5.1755392e-07  2.7780684e-06  1.3406655e+08
   5993000   3.7054949e-10  133732.13      133408.51      242411.15      3.2956257e-06  5.1778498e-07  2.7778407e-06  1.3406154e+08
   5994000   3.7061132e-10  133745         133420.2       242819.02      3.2956352e-06  5.1752713e-07  2.7781081e-06  1.3406631e+08
   5995000   3.7067315e-10  133747.61      133422.97      242766.16      3.2956389e-06  5.1747665e-07  2.7781622e-06  1.3406822e+08
   5996000   3.7073498e-10  133733         133409.64      242326.84      3.295644e-06   5.1778515e-07  2.7778588e-06  1.3406518e+08
   5997000   3.7079681e-10  133727.18      133404.77      242003.39      3.2956568e-06  5.1791878e-07  2.777738e-06   1.3406556e+08
   5998000   3.7085864e-10  133722.28      133399.35      242171.89      3.2956456e-06  5.1800942e-07  2.7776362e-06  1.3406266e+08
   5999000   3.7092047e-10  133725.33      133404.36      241519.98      3.295647e-06   5.1794751e-07  2.7776995e-06  1.3406319e+08
   6000000   3.709823e-10   133725.54      133405.16      241323.07      3.295642e-06   5.1793817e-07  2.7777038e-06  1.3406203e+08
   6001000   3.7104413e-10  133736.2       133417.3       240839.18      3.2956281e-06  5.1770279e-07  2.7779253e-06  1.3406464e+08
   6002000   3.7110596e-10  133743.21      133424.42      240807.39      3.29562e-06    5.1754908e-07  2.778071e-06   1.3406629e+08
   6003000   3.711678e-10   133722.35      133405.64      240091.88      3.295622e-06   5.1798441e-07  2.7776376e-06  1.3405837e+08
   6004000   3.7122963e-10  133733.69      133416.38      240305.53      3.295619e-06   5.1774577e-07  2.7778732e-06  1.3406334e+08
   6005000   3.7129146e-10  133740.6       133422.71      240503.97      3.2956476e-06  5.1763091e-07  2.7780166e-06  1.3406899e+08
   6006000   3.7135329e-10  133736.31      133418.57      240449.71      3.2956496e-06  5.1772203e-07  2.7779276e-06  1.3406748e+08
   6007000   3.7141512e-10  133741.9       133424.17      240449.98      3.2956562e-06  5.1761256e-07  2.7780436e-06  1.3406979e+08
   6008000   3.7147695e-10  133742.88      133426         240168.85      3.2956488e-06  5.1758478e-07  2.778064e-06   1.3406924e+08
   6009000   3.7153878e-10  133739.45      133421.77      240433.74      3.2956458e-06  5.1765302e-07  2.7779928e-06  1.3406745e+08
   6010000   3.7160061e-10  133726.74      133409.45      240289.28      3.2956444e-06  5.179156e-07   2.7777288e-06  1.3406251e+08
   6011000   3.7166244e-10  133726.79      133410.93      239813.04      3.2956553e-06  5.1792534e-07  2.7777299e-06  1.3406408e+08
   6012000   3.7172427e-10  133732.93      133418.5       239338.34      3.2956571e-06  5.1779981e-07  2.7778573e-06  1.3406754e+08
   6013000   3.717861e-10   133737.17      133423.97      238934.19      3.2956643e-06  5.1771883e-07  2.7779455e-06  1.3406924e+08
   6014000   3.7184793e-10  133747.79      133435.18      238744.12      3.2956492e-06  5.1748325e-07  2.778166e-06   1.340708e+08 
   6015000   3.7190976e-10  133751.58      133439.07      238715.86      3.2956556e-06  5.1741087e-07  2.7782447e-06  1.3407204e+08
   6016000   3.7197159e-10  133750.12      133436.06      239233.95      3.2956418e-06  5.1742745e-07  2.7782144e-06  1.3407042e+08
   6017000   3.7203342e-10  133728.32      133414.42      239157.93      3.2956451e-06  5.1788355e-07  2.7777616e-06  1.3406375e+08
